   2   2   1   0
  0.2456500E+04  0.1700000E-08  0.1700000E-08  0.1700000E-08  0.5000000E-15
  1.000000000000000E-004
  CAR 
 CuPd                                    
      0.54946688     -7.78347016  301     -4.61000997      1.00000000
     -7.783  0.0000E+00  0.0000E+00  0.0000E+00  0.0000E+00
     -7.756  0.0000E+00  0.0000E+00  0.0000E+00  0.0000E+00
     -7.728  0.0000E+00  0.0000E+00  0.0000E+00  0.0000E+00
     -7.700  0.0000E+00  0.0000E+00  0.0000E+00  0.0000E+00
     -7.672  0.0000E+00  0.0000E+00  0.0000E+00  0.0000E+00
     -7.645  0.0000E+00  0.0000E+00  0.0000E+00  0.0000E+00
     -7.617  0.0000E+00  0.0000E+00  0.0000E+00  0.0000E+00
     -7.589  0.0000E+00  0.0000E+00  0.0000E+00  0.0000E+00
     -7.561  0.0000E+00  0.0000E+00  0.0000E+00  0.0000E+00
     -7.533  0.0000E+00  0.0000E+00  0.0000E+00  0.0000E+00
     -7.506  0.0000E+00  0.0000E+00  0.0000E+00  0.0000E+00
     -7.478  0.0000E+00  0.0000E+00  0.0000E+00  0.0000E+00
     -7.450  0.0000E+00  0.0000E+00  0.0000E+00  0.0000E+00
     -7.422  0.5173E-07  0.0000E+00  0.1437E-08  0.0000E+00
     -7.395  0.1796E+00  0.0000E+00  0.4989E-02  0.0000E+00
     -7.367  0.3851E-03  0.0000E+00  0.5000E-02  0.0000E+00
     -7.339  0.0000E+00  0.0000E+00  0.5000E-02  0.0000E+00
     -7.311  0.0000E+00  0.0000E+00  0.5000E-02  0.0000E+00
     -7.283  0.0000E+00  0.0000E+00  0.5000E-02  0.0000E+00
     -7.256  0.0000E+00  0.0000E+00  0.5000E-02  0.0000E+00
     -7.228  0.0000E+00  0.0000E+00  0.5000E-02  0.0000E+00
     -7.200  0.0000E+00  0.0000E+00  0.5000E-02  0.0000E+00
     -7.172  0.0000E+00  0.0000E+00  0.5000E-02  0.0000E+00
     -7.145  0.0000E+00  0.0000E+00  0.5000E-02  0.0000E+00
     -7.117  0.0000E+00  0.0000E+00  0.5000E-02  0.0000E+00
     -7.089  0.0000E+00  0.0000E+00  0.5000E-02  0.0000E+00
     -7.061  0.0000E+00  0.0000E+00  0.5000E-02  0.0000E+00
     -7.034  0.0000E+00  0.0000E+00  0.5000E-02  0.0000E+00
     -7.006  0.0000E+00  0.0000E+00  0.5000E-02  0.0000E+00
     -6.978  0.0000E+00  0.0000E+00  0.5000E-02  0.0000E+00
     -6.950  0.0000E+00  0.0000E+00  0.5000E-02  0.0000E+00
     -6.922  0.0000E+00  0.0000E+00  0.5000E-02  0.0000E+00
     -6.895  0.0000E+00  0.0000E+00  0.5000E-02  0.0000E+00
     -6.867  0.0000E+00  0.0000E+00  0.5000E-02  0.0000E+00
     -6.839  0.0000E+00  0.0000E+00  0.5000E-02  0.0000E+00
     -6.811  0.0000E+00  0.0000E+00  0.5000E-02  0.0000E+00
     -6.784  0.0000E+00  0.0000E+00  0.5000E-02  0.0000E+00
     -6.756  0.0000E+00  0.0000E+00  0.5000E-02  0.0000E+00
     -6.728  0.0000E+00  0.0000E+00  0.5000E-02  0.0000E+00
     -6.700  0.0000E+00  0.0000E+00  0.5000E-02  0.0000E+00
     -6.672  0.0000E+00  0.0000E+00  0.5000E-02  0.0000E+00
     -6.645  0.0000E+00  0.2961E-07  0.5000E-02  0.8224E-09
     -6.617  0.0000E+00  0.1795E+00  0.5000E-02  0.4985E-02
     -6.589  0.0000E+00  0.5359E-03  0.5000E-02  0.5000E-02
     -6.561  0.0000E+00  0.0000E+00  0.5000E-02  0.5000E-02
     -6.534  0.0000E+00  0.0000E+00  0.5000E-02  0.5000E-02
     -6.506  0.0000E+00  0.0000E+00  0.5000E-02  0.5000E-02
     -6.478  0.0000E+00  0.0000E+00  0.5000E-02  0.5000E-02
     -6.450  0.0000E+00  0.0000E+00  0.5000E-02  0.5000E-02
     -6.422  0.0000E+00  0.0000E+00  0.5000E-02  0.5000E-02
     -6.395  0.1104E-10  0.0000E+00  0.5000E-02  0.5000E-02
     -6.367  0.3261E+00  0.0000E+00  0.1406E-01  0.5000E-02
     -6.339  0.3388E-01  0.0000E+00  0.1500E-01  0.5000E-02
     -6.311  0.0000E+00  0.0000E+00  0.1500E-01  0.5000E-02
     -6.284  0.0000E+00  0.0000E+00  0.1500E-01  0.5000E-02
     -6.256  0.0000E+00  0.0000E+00  0.1500E-01  0.5000E-02
     -6.228  0.0000E+00  0.0000E+00  0.1500E-01  0.5000E-02
     -6.200  0.0000E+00  0.0000E+00  0.1500E-01  0.5000E-02
     -6.172  0.0000E+00  0.0000E+00  0.1500E-01  0.5000E-02
     -6.145  0.0000E+00  0.0000E+00  0.1500E-01  0.5000E-02
     -6.117  0.0000E+00  0.6571E-08  0.1500E-01  0.5000E-02
     -6.089  0.0000E+00  0.3566E+00  0.1500E-01  0.1491E-01
     -6.061  0.0000E+00  0.3385E-02  0.1500E-01  0.1500E-01
     -6.034  0.0000E+00  0.0000E+00  0.1500E-01  0.1500E-01
     -6.006  0.0000E+00  0.0000E+00  0.1500E-01  0.1500E-01
     -5.978  0.0000E+00  0.0000E+00  0.1500E-01  0.1500E-01
     -5.950  0.0000E+00  0.0000E+00  0.1500E-01  0.1500E-01
     -5.922  0.0000E+00  0.0000E+00  0.1500E-01  0.1500E-01
     -5.895  0.0000E+00  0.0000E+00  0.1500E-01  0.1500E-01
     -5.867  0.0000E+00  0.0000E+00  0.1500E-01  0.1500E-01
     -5.839  0.0000E+00  0.0000E+00  0.1500E-01  0.1500E-01
     -5.811  0.0000E+00  0.0000E+00  0.1500E-01  0.1500E-01
     -5.784  0.0000E+00  0.0000E+00  0.1500E-01  0.1500E-01
     -5.756  0.0000E+00  0.0000E+00  0.1500E-01  0.1500E-01
     -5.728  0.0000E+00  0.0000E+00  0.1500E-01  0.1500E-01
     -5.700  0.0000E+00  0.0000E+00  0.1500E-01  0.1500E-01
     -5.672  0.0000E+00  0.0000E+00  0.1500E-01  0.1500E-01
     -5.645  0.0000E+00  0.0000E+00  0.1500E-01  0.1500E-01
     -5.617  0.0000E+00  0.0000E+00  0.1500E-01  0.1500E-01
     -5.589  0.0000E+00  0.0000E+00  0.1500E-01  0.1500E-01
     -5.561  0.0000E+00  0.0000E+00  0.1500E-01  0.1500E-01
     -5.534  0.0000E+00  0.0000E+00  0.1500E-01  0.1500E-01
     -5.506  0.0000E+00  0.0000E+00  0.1500E-01  0.1500E-01
     -5.478  0.5288E-01  0.0000E+00  0.1647E-01  0.1500E-01
     -5.450  0.3071E+00  0.0000E+00  0.2500E-01  0.1500E-01
     -5.422  0.0000E+00  0.0000E+00  0.2500E-01  0.1500E-01
     -5.395  0.0000E+00  0.0000E+00  0.2500E-01  0.1500E-01
     -5.367  0.0000E+00  0.0000E+00  0.2500E-01  0.1500E-01
     -5.339  0.0000E+00  0.0000E+00  0.2500E-01  0.1500E-01
     -5.311  0.0000E+00  0.0000E+00  0.2500E-01  0.1500E-01
     -5.284  0.2100E-02  0.0000E+00  0.2506E-01  0.1500E-01
     -5.256  0.1779E+00  0.0000E+00  0.3000E-01  0.1500E-01
     -5.228  0.0000E+00  0.0000E+00  0.3000E-01  0.1500E-01
     -5.200  0.0000E+00  0.0000E+00  0.3000E-01  0.1500E-01
     -5.172  0.0000E+00  0.0000E+00  0.3000E-01  0.1500E-01
     -5.145  0.3533E-12  0.0000E+00  0.3000E-01  0.1500E-01
     -5.117  0.2857E+00  0.0000E+00  0.3794E-01  0.1500E-01
     -5.089  0.7428E-01  0.0000E+00  0.4000E-01  0.1500E-01
     -5.061  0.0000E+00  0.4107E-14  0.4000E-01  0.1500E-01
     -5.034  0.0000E+00  0.2117E+00  0.4000E-01  0.2088E-01
     -5.006  0.0000E+00  0.1483E+00  0.4000E-01  0.2500E-01
     -4.978  0.0000E+00  0.0000E+00  0.4000E-01  0.2500E-01
     -4.950  0.0000E+00  0.0000E+00  0.4000E-01  0.2500E-01
     -4.922  0.0000E+00  0.0000E+00  0.4000E-01  0.2500E-01
     -4.895  0.3214E-06  0.0000E+00  0.4000E-01  0.2500E-01
     -4.867  0.5314E+00  0.0000E+00  0.5476E-01  0.2500E-01
     -4.839  0.8670E-02  0.0000E+00  0.5500E-01  0.2500E-01
     -4.811  0.0000E+00  0.0000E+00  0.5500E-01  0.2500E-01
     -4.784  0.0000E+00  0.0000E+00  0.5500E-01  0.2500E-01
     -4.756  0.0000E+00  0.0000E+00  0.5500E-01  0.2500E-01
     -4.728  0.0000E+00  0.0000E+00  0.5500E-01  0.2500E-01
     -4.700  0.0000E+00  0.6653E-02  0.5500E-01  0.2518E-01
     -4.673  0.0000E+00  0.3534E+00  0.5500E-01  0.3500E-01
     -4.645  0.0000E+00  0.5163E-01  0.5500E-01  0.3643E-01
     -4.617  0.0000E+00  0.3084E+00  0.5500E-01  0.4500E-01
     -4.589  0.0000E+00  0.0000E+00  0.5500E-01  0.4500E-01
     -4.561  0.0000E+00  0.0000E+00  0.5500E-01  0.4500E-01
     -4.534  0.0000E+00  0.0000E+00  0.5500E-01  0.4500E-01
     -4.506  0.0000E+00  0.0000E+00  0.5500E-01  0.4500E-01
     -4.478  0.0000E+00  0.0000E+00  0.5500E-01  0.4500E-01
     -4.450  0.0000E+00  0.0000E+00  0.5500E-01  0.4500E-01
     -4.423  0.0000E+00  0.0000E+00  0.5500E-01  0.4500E-01
     -4.395  0.0000E+00  0.0000E+00  0.5500E-01  0.4500E-01
     -4.367  0.0000E+00  0.0000E+00  0.5500E-01  0.4500E-01
     -4.339  0.0000E+00  0.0000E+00  0.5500E-01  0.4500E-01
     -4.311  0.0000E+00  0.0000E+00  0.5500E-01  0.4500E-01
     -4.284  0.0000E+00  0.7344E-11  0.5500E-01  0.4500E-01
     -4.256  0.0000E+00  0.1643E+00  0.5500E-01  0.4956E-01
     -4.228  0.0000E+00  0.2973E-01  0.5500E-01  0.5039E-01
     -4.200  0.0000E+00  0.1660E+00  0.5500E-01  0.5500E-01
     -4.173  0.0000E+00  0.0000E+00  0.5500E-01  0.5500E-01
     -4.145  0.0000E+00  0.0000E+00  0.5500E-01  0.5500E-01
     -4.117  0.0000E+00  0.0000E+00  0.5500E-01  0.5500E-01
     -4.089  0.0000E+00  0.0000E+00  0.5500E-01  0.5500E-01
     -4.061  0.0000E+00  0.0000E+00  0.5500E-01  0.5500E-01
     -4.034  0.0000E+00  0.0000E+00  0.5500E-01  0.5500E-01
     -4.006  0.0000E+00  0.0000E+00  0.5500E-01  0.5500E-01
     -3.978  0.0000E+00  0.0000E+00  0.5500E-01  0.5500E-01
     -3.950  0.0000E+00  0.0000E+00  0.5500E-01  0.5500E-01
     -3.923  0.0000E+00  0.0000E+00  0.5500E-01  0.5500E-01
     -3.895  0.0000E+00  0.0000E+00  0.5500E-01  0.5500E-01
     -3.867  0.0000E+00  0.0000E+00  0.5500E-01  0.5500E-01
     -3.839  0.0000E+00  0.0000E+00  0.5500E-01  0.5500E-01
     -3.811  0.0000E+00  0.0000E+00  0.5500E-01  0.5500E-01
     -3.784  0.0000E+00  0.0000E+00  0.5500E-01  0.5500E-01
     -3.756  0.0000E+00  0.0000E+00  0.5500E-01  0.5500E-01
     -3.728  0.0000E+00  0.0000E+00  0.5500E-01  0.5500E-01
     -3.700  0.0000E+00  0.0000E+00  0.5500E-01  0.5500E-01
     -3.673  0.0000E+00  0.0000E+00  0.5500E-01  0.5500E-01
     -3.645  0.0000E+00  0.0000E+00  0.5500E-01  0.5500E-01
     -3.617  0.0000E+00  0.0000E+00  0.5500E-01  0.5500E-01
     -3.589  0.0000E+00  0.0000E+00  0.5500E-01  0.5500E-01
     -3.561  0.0000E+00  0.0000E+00  0.5500E-01  0.5500E-01
     -3.534  0.0000E+00  0.0000E+00  0.5500E-01  0.5500E-01
     -3.506  0.0000E+00  0.0000E+00  0.5500E-01  0.5500E-01
     -3.478  0.0000E+00  0.0000E+00  0.5500E-01  0.5500E-01
     -3.450  0.0000E+00  0.0000E+00  0.5500E-01  0.5500E-01
     -3.423  0.0000E+00  0.0000E+00  0.5500E-01  0.5500E-01
     -3.395  0.0000E+00  0.0000E+00  0.5500E-01  0.5500E-01
     -3.367  0.0000E+00  0.0000E+00  0.5500E-01  0.5500E-01
     -3.339  0.0000E+00  0.0000E+00  0.5500E-01  0.5500E-01
     -3.311  0.0000E+00  0.0000E+00  0.5500E-01  0.5500E-01
     -3.284  0.0000E+00  0.0000E+00  0.5500E-01  0.5500E-01
     -3.256  0.0000E+00  0.0000E+00  0.5500E-01  0.5500E-01
     -3.228  0.0000E+00  0.0000E+00  0.5500E-01  0.5500E-01
     -3.200  0.0000E+00  0.0000E+00  0.5500E-01  0.5500E-01
     -3.173  0.0000E+00  0.0000E+00  0.5500E-01  0.5500E-01
     -3.145  0.0000E+00  0.0000E+00  0.5500E-01  0.5500E-01
     -3.117  0.0000E+00  0.0000E+00  0.5500E-01  0.5500E-01
     -3.089  0.0000E+00  0.0000E+00  0.5500E-01  0.5500E-01
     -3.061  0.0000E+00  0.0000E+00  0.5500E-01  0.5500E-01
     -3.034  0.0000E+00  0.0000E+00  0.5500E-01  0.5500E-01
     -3.006  0.0000E+00  0.0000E+00  0.5500E-01  0.5500E-01
     -2.978  0.0000E+00  0.0000E+00  0.5500E-01  0.5500E-01
     -2.950  0.0000E+00  0.0000E+00  0.5500E-01  0.5500E-01
     -2.923  0.0000E+00  0.0000E+00  0.5500E-01  0.5500E-01
     -2.895  0.0000E+00  0.0000E+00  0.5500E-01  0.5500E-01
     -2.867  0.0000E+00  0.0000E+00  0.5500E-01  0.5500E-01
     -2.839  0.0000E+00  0.0000E+00  0.5500E-01  0.5500E-01
     -2.811  0.0000E+00  0.0000E+00  0.5500E-01  0.5500E-01
     -2.784  0.0000E+00  0.0000E+00  0.5500E-01  0.5500E-01
     -2.756  0.2402E-11  0.0000E+00  0.5500E-01  0.5500E-01
     -2.728  0.1590E+00  0.0000E+00  0.5942E-01  0.5500E-01
     -2.700  0.2097E-01  0.0000E+00  0.6000E-01  0.5500E-01
     -2.673  0.0000E+00  0.0000E+00  0.6000E-01  0.5500E-01
     -2.645  0.0000E+00  0.0000E+00  0.6000E-01  0.5500E-01
     -2.617  0.0000E+00  0.0000E+00  0.6000E-01  0.5500E-01
     -2.589  0.0000E+00  0.0000E+00  0.6000E-01  0.5500E-01
     -2.561  0.0000E+00  0.0000E+00  0.6000E-01  0.5500E-01
     -2.534  0.0000E+00  0.0000E+00  0.6000E-01  0.5500E-01
     -2.506  0.0000E+00  0.0000E+00  0.6000E-01  0.5500E-01
     -2.478  0.0000E+00  0.0000E+00  0.6000E-01  0.5500E-01
     -2.450  0.0000E+00  0.0000E+00  0.6000E-01  0.5500E-01
     -2.423  0.0000E+00  0.0000E+00  0.6000E-01  0.5500E-01
     -2.395  0.0000E+00  0.0000E+00  0.6000E-01  0.5500E-01
     -2.367  0.0000E+00  0.2718E-14  0.6000E-01  0.5500E-01
     -2.339  0.0000E+00  0.1084E+00  0.6000E-01  0.5801E-01
     -2.312  0.0000E+00  0.7160E-01  0.6000E-01  0.6000E-01
     -2.284  0.0000E+00  0.0000E+00  0.6000E-01  0.6000E-01
     -2.256  0.0000E+00  0.0000E+00  0.6000E-01  0.6000E-01
     -2.228  0.0000E+00  0.0000E+00  0.6000E-01  0.6000E-01
     -2.200  0.0000E+00  0.0000E+00  0.6000E-01  0.6000E-01
     -2.173  0.0000E+00  0.0000E+00  0.6000E-01  0.6000E-01
     -2.145  0.0000E+00  0.0000E+00  0.6000E-01  0.6000E-01
     -2.117  0.0000E+00  0.0000E+00  0.6000E-01  0.6000E-01
     -2.089  0.0000E+00  0.0000E+00  0.6000E-01  0.6000E-01
     -2.062  0.0000E+00  0.0000E+00  0.6000E-01  0.6000E-01
     -2.034  0.0000E+00  0.0000E+00  0.6000E-01  0.6000E-01
     -2.006  0.0000E+00  0.0000E+00  0.6000E-01  0.6000E-01
     -1.978  0.0000E+00  0.0000E+00  0.6000E-01  0.6000E-01
     -1.950  0.0000E+00  0.0000E+00  0.6000E-01  0.6000E-01
     -1.923  0.0000E+00  0.0000E+00  0.6000E-01  0.6000E-01
     -1.895  0.0000E+00  0.0000E+00  0.6000E-01  0.6000E-01
     -1.867  0.0000E+00  0.0000E+00  0.6000E-01  0.6000E-01
     -1.839  0.0000E+00  0.0000E+00  0.6000E-01  0.6000E-01
     -1.812  0.0000E+00  0.0000E+00  0.6000E-01  0.6000E-01
     -1.784  0.0000E+00  0.0000E+00  0.6000E-01  0.6000E-01
     -1.756  0.0000E+00  0.0000E+00  0.6000E-01  0.6000E-01
     -1.728  0.0000E+00  0.0000E+00  0.6000E-01  0.6000E-01
     -1.700  0.0000E+00  0.0000E+00  0.6000E-01  0.6000E-01
     -1.673  0.0000E+00  0.0000E+00  0.6000E-01  0.6000E-01
     -1.645  0.0000E+00  0.0000E+00  0.6000E-01  0.6000E-01
     -1.617  0.0000E+00  0.0000E+00  0.6000E-01  0.6000E-01
     -1.589  0.0000E+00  0.0000E+00  0.6000E-01  0.6000E-01
     -1.562  0.0000E+00  0.0000E+00  0.6000E-01  0.6000E-01
     -1.534  0.0000E+00  0.0000E+00  0.6000E-01  0.6000E-01
     -1.506  0.0000E+00  0.0000E+00  0.6000E-01  0.6000E-01
     -1.478  0.0000E+00  0.0000E+00  0.6000E-01  0.6000E-01
     -1.450  0.0000E+00  0.0000E+00  0.6000E-01  0.6000E-01
     -1.423  0.0000E+00  0.0000E+00  0.6000E-01  0.6000E-01
     -1.395  0.0000E+00  0.0000E+00  0.6000E-01  0.6000E-01
     -1.367  0.0000E+00  0.0000E+00  0.6000E-01  0.6000E-01
     -1.339  0.0000E+00  0.0000E+00  0.6000E-01  0.6000E-01
     -1.312  0.0000E+00  0.0000E+00  0.6000E-01  0.6000E-01
     -1.284  0.0000E+00  0.0000E+00  0.6000E-01  0.6000E-01
     -1.256  0.0000E+00  0.0000E+00  0.6000E-01  0.6000E-01
     -1.228  0.0000E+00  0.0000E+00  0.6000E-01  0.6000E-01
     -1.200  0.0000E+00  0.0000E+00  0.6000E-01  0.6000E-01
     -1.173  0.0000E+00  0.0000E+00  0.6000E-01  0.6000E-01
     -1.145  0.0000E+00  0.0000E+00  0.6000E-01  0.6000E-01
     -1.117  0.3026E-13  0.0000E+00  0.6000E-01  0.6000E-01
     -1.089  0.2469E+00  0.0000E+00  0.6686E-01  0.6000E-01
     -1.062  0.1131E+00  0.0000E+00  0.7000E-01  0.6000E-01
     -1.034  0.0000E+00  0.0000E+00  0.7000E-01  0.6000E-01
     -1.006  0.0000E+00  0.0000E+00  0.7000E-01  0.6000E-01
     -0.978  0.0000E+00  0.0000E+00  0.7000E-01  0.6000E-01
     -0.950  0.0000E+00  0.0000E+00  0.7000E-01  0.6000E-01
     -0.923  0.0000E+00  0.0000E+00  0.7000E-01  0.6000E-01
     -0.895  0.0000E+00  0.0000E+00  0.7000E-01  0.6000E-01
     -0.867  0.0000E+00  0.0000E+00  0.7000E-01  0.6000E-01
     -0.839  0.0000E+00  0.0000E+00  0.7000E-01  0.6000E-01
     -0.812  0.0000E+00  0.0000E+00  0.7000E-01  0.6000E-01
     -0.784  0.0000E+00  0.0000E+00  0.7000E-01  0.6000E-01
     -0.756  0.0000E+00  0.0000E+00  0.7000E-01  0.6000E-01
     -0.728  0.0000E+00  0.0000E+00  0.7000E-01  0.6000E-01
     -0.700  0.0000E+00  0.0000E+00  0.7000E-01  0.6000E-01
     -0.673  0.0000E+00  0.0000E+00  0.7000E-01  0.6000E-01
     -0.645  0.0000E+00  0.2077E-05  0.7000E-01  0.6000E-01
     -0.617  0.0000E+00  0.3599E+00  0.7000E-01  0.7000E-01
     -0.589  0.0000E+00  0.0000E+00  0.7000E-01  0.7000E-01
     -0.562  0.0000E+00  0.0000E+00  0.7000E-01  0.7000E-01
     -0.534  0.2085E-12  0.0000E+00  0.7000E-01  0.7000E-01
     -0.506  0.1440E+00  0.0000E+00  0.7400E-01  0.7000E-01
     -0.478  0.3596E-01  0.0000E+00  0.7500E-01  0.7000E-01
     -0.450  0.0000E+00  0.0000E+00  0.7500E-01  0.7000E-01
     -0.423  0.0000E+00  0.0000E+00  0.7500E-01  0.7000E-01
     -0.395  0.0000E+00  0.0000E+00  0.7500E-01  0.7000E-01
     -0.367  0.0000E+00  0.0000E+00  0.7500E-01  0.7000E-01
     -0.339  0.0000E+00  0.0000E+00  0.7500E-01  0.7000E-01
     -0.312  0.0000E+00  0.0000E+00  0.7500E-01  0.7000E-01
     -0.284  0.0000E+00  0.0000E+00  0.7500E-01  0.7000E-01
     -0.256  0.0000E+00  0.3059E-07  0.7500E-01  0.7000E-01
     -0.228  0.0000E+00  0.1795E+00  0.7500E-01  0.7499E-01
     -0.200  0.0000E+00  0.5259E-03  0.7500E-01  0.7500E-01
     -0.173  0.0000E+00  0.0000E+00  0.7500E-01  0.7500E-01
     -0.145  0.0000E+00  0.0000E+00  0.7500E-01  0.7500E-01
     -0.117  0.0000E+00  0.0000E+00  0.7500E-01  0.7500E-01
     -0.089  0.0000E+00  0.0000E+00  0.7500E-01  0.7500E-01
     -0.062  0.0000E+00  0.0000E+00  0.7500E-01  0.7500E-01
     -0.034  0.0000E+00  0.0000E+00  0.7500E-01  0.7500E-01
     -0.006  0.0000E+00  0.0000E+00  0.7500E-01  0.7500E-01
      0.022  0.0000E+00  0.0000E+00  0.7500E-01  0.7500E-01
      0.049  0.9992E-17  0.0000E+00  0.7500E-01  0.7500E-01
      0.077  0.5797E-01  0.0000E+00  0.7661E-01  0.7500E-01
      0.105  0.1220E+00  0.0000E+00  0.8000E-01  0.7500E-01
      0.133  0.0000E+00  0.0000E+00  0.8000E-01  0.7500E-01
      0.161  0.0000E+00  0.3851E-03  0.8000E-01  0.7501E-01
      0.188  0.0000E+00  0.1796E+00  0.8000E-01  0.8000E-01
      0.216  0.0000E+00  0.0000E+00  0.8000E-01  0.8000E-01
      0.244  0.0000E+00  0.0000E+00  0.8000E-01  0.8000E-01
      0.272  0.0000E+00  0.0000E+00  0.8000E-01  0.8000E-01
      0.299  0.0000E+00  0.0000E+00  0.8000E-01  0.8000E-01
      0.327  0.0000E+00  0.0000E+00  0.8000E-01  0.8000E-01
      0.355  0.0000E+00  0.0000E+00  0.8000E-01  0.8000E-01
      0.383  0.0000E+00  0.0000E+00  0.8000E-01  0.8000E-01
      0.411  0.0000E+00  0.0000E+00  0.8000E-01  0.8000E-01
      0.438  0.0000E+00  0.0000E+00  0.8000E-01  0.8000E-01
      0.466  0.0000E+00  0.0000E+00  0.8000E-01  0.8000E-01
      0.494  0.0000E+00  0.0000E+00  0.8000E-01  0.8000E-01
      0.522  0.0000E+00  0.0000E+00  0.8000E-01  0.8000E-01
      0.549  0.0000E+00  0.0000E+00  0.8000E-01  0.8000E-01
      0.54946688     -7.78347016  301     -4.61000997      1.00000000
     -7.783  0.0000E+00  0.0000E+00  0.0000E+00  0.0000E+00  0.0000E+00  0.0000E+00  0.0000E+00  0.0000E+00
     -7.756  0.0000E+00  0.0000E+00  0.0000E+00  0.0000E+00  0.0000E+00  0.0000E+00  0.0000E+00  0.0000E+00
     -7.728  0.0000E+00  0.0000E+00  0.0000E+00  0.0000E+00  0.0000E+00  0.0000E+00  0.0000E+00  0.0000E+00
     -7.700  0.0000E+00  0.0000E+00  0.0000E+00  0.0000E+00  0.0000E+00  0.0000E+00  0.0000E+00  0.0000E+00
     -7.672  0.0000E+00  0.0000E+00  0.0000E+00  0.0000E+00  0.0000E+00  0.0000E+00  0.0000E+00  0.0000E+00
     -7.645  0.0000E+00  0.0000E+00  0.0000E+00  0.0000E+00  0.0000E+00  0.0000E+00  0.0000E+00  0.0000E+00
     -7.617  0.0000E+00  0.0000E+00  0.0000E+00  0.0000E+00  0.0000E+00  0.0000E+00  0.0000E+00  0.0000E+00
     -7.589  0.0000E+00  0.0000E+00  0.0000E+00  0.0000E+00  0.0000E+00  0.0000E+00  0.0000E+00  0.0000E+00
     -7.561  0.0000E+00  0.0000E+00  0.0000E+00  0.0000E+00  0.0000E+00  0.0000E+00  0.0000E+00  0.0000E+00
     -7.533  0.0000E+00  0.0000E+00  0.0000E+00  0.0000E+00  0.0000E+00  0.0000E+00  0.0000E+00  0.0000E+00
     -7.506  0.0000E+00  0.0000E+00  0.0000E+00  0.0000E+00  0.0000E+00  0.0000E+00  0.0000E+00  0.0000E+00
     -7.478  0.0000E+00  0.0000E+00  0.0000E+00  0.0000E+00  0.0000E+00  0.0000E+00  0.0000E+00  0.0000E+00
     -7.450  0.0000E+00  0.0000E+00  0.0000E+00  0.0000E+00  0.0000E+00  0.0000E+00  0.0000E+00  0.0000E+00
     -7.422  0.3215E-06  0.0000E+00  0.1201E-06  0.0000E+00  0.4718E-05  0.0000E+00  0.1222E-07  0.0000E+00
     -7.395  0.1116E+01  0.0000E+00  0.4170E+00  0.0000E+00  0.1638E+02  0.0000E+00  0.4243E-01  0.0000E+00
     -7.367  0.2393E-02  0.0000E+00  0.8941E-03  0.0000E+00  0.3512E-01  0.0000E+00  0.9097E-04  0.0000E+00
     -7.339  0.0000E+00  0.0000E+00  0.0000E+00  0.0000E+00  0.0000E+00  0.0000E+00  0.0000E+00  0.0000E+00
     -7.311  0.0000E+00  0.0000E+00  0.0000E+00  0.0000E+00  0.0000E+00  0.0000E+00  0.0000E+00  0.0000E+00
     -7.283  0.0000E+00  0.0000E+00  0.0000E+00  0.0000E+00  0.0000E+00  0.0000E+00  0.0000E+00  0.0000E+00
     -7.256  0.0000E+00  0.0000E+00  0.0000E+00  0.0000E+00  0.0000E+00  0.0000E+00  0.0000E+00  0.0000E+00
     -7.228  0.0000E+00  0.0000E+00  0.0000E+00  0.0000E+00  0.0000E+00  0.0000E+00  0.0000E+00  0.0000E+00
     -7.200  0.0000E+00  0.0000E+00  0.0000E+00  0.0000E+00  0.0000E+00  0.0000E+00  0.0000E+00  0.0000E+00
     -7.172  0.0000E+00  0.0000E+00  0.0000E+00  0.0000E+00  0.0000E+00  0.0000E+00  0.0000E+00  0.0000E+00
     -7.145  0.0000E+00  0.0000E+00  0.0000E+00  0.0000E+00  0.0000E+00  0.0000E+00  0.0000E+00  0.0000E+00
     -7.117  0.0000E+00  0.0000E+00  0.0000E+00  0.0000E+00  0.0000E+00  0.0000E+00  0.0000E+00  0.0000E+00
     -7.089  0.0000E+00  0.0000E+00  0.0000E+00  0.0000E+00  0.0000E+00  0.0000E+00  0.0000E+00  0.0000E+00
     -7.061  0.0000E+00  0.0000E+00  0.0000E+00  0.0000E+00  0.0000E+00  0.0000E+00  0.0000E+00  0.0000E+00
     -7.034  0.0000E+00  0.0000E+00  0.0000E+00  0.0000E+00  0.0000E+00  0.0000E+00  0.0000E+00  0.0000E+00
     -7.006  0.0000E+00  0.0000E+00  0.0000E+00  0.0000E+00  0.0000E+00  0.0000E+00  0.0000E+00  0.0000E+00
     -6.978  0.0000E+00  0.0000E+00  0.0000E+00  0.0000E+00  0.0000E+00  0.0000E+00  0.0000E+00  0.0000E+00
     -6.950  0.0000E+00  0.0000E+00  0.0000E+00  0.0000E+00  0.0000E+00  0.0000E+00  0.0000E+00  0.0000E+00
     -6.922  0.0000E+00  0.0000E+00  0.0000E+00  0.0000E+00  0.0000E+00  0.0000E+00  0.0000E+00  0.0000E+00
     -6.895  0.0000E+00  0.0000E+00  0.0000E+00  0.0000E+00  0.0000E+00  0.0000E+00  0.0000E+00  0.0000E+00
     -6.867  0.0000E+00  0.0000E+00  0.0000E+00  0.0000E+00  0.0000E+00  0.0000E+00  0.0000E+00  0.0000E+00
     -6.839  0.0000E+00  0.0000E+00  0.0000E+00  0.0000E+00  0.0000E+00  0.0000E+00  0.0000E+00  0.0000E+00
     -6.811  0.0000E+00  0.0000E+00  0.0000E+00  0.0000E+00  0.0000E+00  0.0000E+00  0.0000E+00  0.0000E+00
     -6.784  0.0000E+00  0.0000E+00  0.0000E+00  0.0000E+00  0.0000E+00  0.0000E+00  0.0000E+00  0.0000E+00
     -6.756  0.0000E+00  0.0000E+00  0.0000E+00  0.0000E+00  0.0000E+00  0.0000E+00  0.0000E+00  0.0000E+00
     -6.728  0.0000E+00  0.0000E+00  0.0000E+00  0.0000E+00  0.0000E+00  0.0000E+00  0.0000E+00  0.0000E+00
     -6.700  0.0000E+00  0.0000E+00  0.0000E+00  0.0000E+00  0.0000E+00  0.0000E+00  0.0000E+00  0.0000E+00
     -6.672  0.0000E+00  0.0000E+00  0.0000E+00  0.0000E+00  0.0000E+00  0.0000E+00  0.0000E+00  0.0000E+00
     -6.645  0.0000E+00  0.2764E-06  0.0000E+00  0.8577E-07  0.0000E+00  0.2567E-05  0.0000E+00  0.8813E-08
     -6.617  0.0000E+00  0.1675E+01  0.0000E+00  0.5199E+00  0.0000E+00  0.1556E+02  0.0000E+00  0.5342E-01
     -6.589  0.0000E+00  0.5002E-02  0.0000E+00  0.1552E-02  0.0000E+00  0.4646E-01  0.0000E+00  0.1595E-03
     -6.561  0.0000E+00  0.0000E+00  0.0000E+00  0.0000E+00  0.0000E+00  0.0000E+00  0.0000E+00  0.0000E+00
     -6.534  0.0000E+00  0.0000E+00  0.0000E+00  0.0000E+00  0.0000E+00  0.0000E+00  0.0000E+00  0.0000E+00
     -6.506  0.0000E+00  0.0000E+00  0.0000E+00  0.0000E+00  0.0000E+00  0.0000E+00  0.0000E+00  0.0000E+00
     -6.478  0.0000E+00  0.0000E+00  0.0000E+00  0.0000E+00  0.0000E+00  0.0000E+00  0.0000E+00  0.0000E+00
     -6.450  0.0000E+00  0.0000E+00  0.0000E+00  0.0000E+00  0.0000E+00  0.0000E+00  0.0000E+00  0.0000E+00
     -6.422  0.0000E+00  0.0000E+00  0.0000E+00  0.0000E+00  0.0000E+00  0.0000E+00  0.0000E+00  0.0000E+00
     -6.395  0.4674E-25  0.0000E+00  0.5722E-11  0.0000E+00  0.1009E-08  0.0000E+00  0.1427E-11  0.0000E+00
     -6.367  0.1380E-14  0.0000E+00  0.1690E+00  0.0000E+00  0.2980E+02  0.0000E+00  0.4215E-01  0.0000E+00
     -6.339  0.1434E-15  0.0000E+00  0.1755E-01  0.0000E+00  0.3096E+01  0.0000E+00  0.4378E-02  0.0000E+00
     -6.311  0.0000E+00  0.0000E+00  0.0000E+00  0.0000E+00  0.0000E+00  0.0000E+00  0.0000E+00  0.0000E+00
     -6.284  0.0000E+00  0.0000E+00  0.0000E+00  0.0000E+00  0.0000E+00  0.0000E+00  0.0000E+00  0.0000E+00
     -6.256  0.0000E+00  0.0000E+00  0.0000E+00  0.0000E+00  0.0000E+00  0.0000E+00  0.0000E+00  0.0000E+00
     -6.228  0.0000E+00  0.0000E+00  0.0000E+00  0.0000E+00  0.0000E+00  0.0000E+00  0.0000E+00  0.0000E+00
     -6.200  0.0000E+00  0.0000E+00  0.0000E+00  0.0000E+00  0.0000E+00  0.0000E+00  0.0000E+00  0.0000E+00
     -6.172  0.0000E+00  0.0000E+00  0.0000E+00  0.0000E+00  0.0000E+00  0.0000E+00  0.0000E+00  0.0000E+00
     -6.145  0.0000E+00  0.0000E+00  0.0000E+00  0.0000E+00  0.0000E+00  0.0000E+00  0.0000E+00  0.0000E+00
     -6.117  0.0000E+00  0.2861E-21  0.0000E+00  0.2728E-08  0.0000E+00  0.6037E-06  0.0000E+00  0.8477E-09
     -6.089  0.0000E+00  0.1553E-13  0.0000E+00  0.1481E+00  0.0000E+00  0.3277E+02  0.0000E+00  0.4601E-01
     -6.061  0.0000E+00  0.1474E-15  0.0000E+00  0.1406E-02  0.0000E+00  0.3110E+00  0.0000E+00  0.4367E-03
     -6.034  0.0000E+00  0.0000E+00  0.0000E+00  0.0000E+00  0.0000E+00  0.0000E+00  0.0000E+00  0.0000E+00
     -6.006  0.0000E+00  0.0000E+00  0.0000E+00  0.0000E+00  0.0000E+00  0.0000E+00  0.0000E+00  0.0000E+00
     -5.978  0.0000E+00  0.0000E+00  0.0000E+00  0.0000E+00  0.0000E+00  0.0000E+00  0.0000E+00  0.0000E+00
     -5.950  0.0000E+00  0.0000E+00  0.0000E+00  0.0000E+00  0.0000E+00  0.0000E+00  0.0000E+00  0.0000E+00
     -5.922  0.0000E+00  0.0000E+00  0.0000E+00  0.0000E+00  0.0000E+00  0.0000E+00  0.0000E+00  0.0000E+00
     -5.895  0.0000E+00  0.0000E+00  0.0000E+00  0.0000E+00  0.0000E+00  0.0000E+00  0.0000E+00  0.0000E+00
     -5.867  0.0000E+00  0.0000E+00  0.0000E+00  0.0000E+00  0.0000E+00  0.0000E+00  0.0000E+00  0.0000E+00
     -5.839  0.0000E+00  0.0000E+00  0.0000E+00  0.0000E+00  0.0000E+00  0.0000E+00  0.0000E+00  0.0000E+00
     -5.811  0.0000E+00  0.0000E+00  0.0000E+00  0.0000E+00  0.0000E+00  0.0000E+00  0.0000E+00  0.0000E+00
     -5.784  0.0000E+00  0.0000E+00  0.0000E+00  0.0000E+00  0.0000E+00  0.0000E+00  0.0000E+00  0.0000E+00
     -5.756  0.0000E+00  0.0000E+00  0.0000E+00  0.0000E+00  0.0000E+00  0.0000E+00  0.0000E+00  0.0000E+00
     -5.728  0.0000E+00  0.0000E+00  0.0000E+00  0.0000E+00  0.0000E+00  0.0000E+00  0.0000E+00  0.0000E+00
     -5.700  0.0000E+00  0.0000E+00  0.0000E+00  0.0000E+00  0.0000E+00  0.0000E+00  0.0000E+00  0.0000E+00
     -5.672  0.0000E+00  0.0000E+00  0.0000E+00  0.0000E+00  0.0000E+00  0.0000E+00  0.0000E+00  0.0000E+00
     -5.645  0.0000E+00  0.0000E+00  0.0000E+00  0.0000E+00  0.0000E+00  0.0000E+00  0.0000E+00  0.0000E+00
     -5.617  0.0000E+00  0.0000E+00  0.0000E+00  0.0000E+00  0.0000E+00  0.0000E+00  0.0000E+00  0.0000E+00
     -5.589  0.0000E+00  0.0000E+00  0.0000E+00  0.0000E+00  0.0000E+00  0.0000E+00  0.0000E+00  0.0000E+00
     -5.561  0.0000E+00  0.0000E+00  0.0000E+00  0.0000E+00  0.0000E+00  0.0000E+00  0.0000E+00  0.0000E+00
     -5.534  0.0000E+00  0.0000E+00  0.0000E+00  0.0000E+00  0.0000E+00  0.0000E+00  0.0000E+00  0.0000E+00
     -5.506  0.0000E+00  0.0000E+00  0.0000E+00  0.0000E+00  0.0000E+00  0.0000E+00  0.0000E+00  0.0000E+00
     -5.478  0.4311E-15  0.0000E+00  0.3156E-15  0.0000E+00  0.4836E+01  0.0000E+00  0.4960E-03  0.0000E+00
     -5.450  0.2509E-14  0.0000E+00  0.1836E-14  0.0000E+00  0.2809E+02  0.0000E+00  0.2881E-02  0.0000E+00
     -5.422  0.0000E+00  0.0000E+00  0.0000E+00  0.0000E+00  0.0000E+00  0.0000E+00  0.0000E+00  0.0000E+00
     -5.395  0.0000E+00  0.0000E+00  0.0000E+00  0.0000E+00  0.0000E+00  0.0000E+00  0.0000E+00  0.0000E+00
     -5.367  0.0000E+00  0.0000E+00  0.0000E+00  0.0000E+00  0.0000E+00  0.0000E+00  0.0000E+00  0.0000E+00
     -5.339  0.0000E+00  0.0000E+00  0.0000E+00  0.0000E+00  0.0000E+00  0.0000E+00  0.0000E+00  0.0000E+00
     -5.311  0.0000E+00  0.0000E+00  0.0000E+00  0.0000E+00  0.0000E+00  0.0000E+00  0.0000E+00  0.0000E+00
     -5.284  0.6969E-02  0.0000E+00  0.2100E-02  0.0000E+00  0.1829E+00  0.0000E+00  0.4401E-03  0.0000E+00
     -5.256  0.5905E+00  0.0000E+00  0.1779E+00  0.0000E+00  0.1550E+02  0.0000E+00  0.3729E-01  0.0000E+00
     -5.228  0.0000E+00  0.0000E+00  0.0000E+00  0.0000E+00  0.0000E+00  0.0000E+00  0.0000E+00  0.0000E+00
     -5.200  0.0000E+00  0.0000E+00  0.0000E+00  0.0000E+00  0.0000E+00  0.0000E+00  0.0000E+00  0.0000E+00
     -5.172  0.0000E+00  0.0000E+00  0.0000E+00  0.0000E+00  0.0000E+00  0.0000E+00  0.0000E+00  0.0000E+00
     -5.145  0.1910E-26  0.0000E+00  0.1060E-26  0.0000E+00  0.3324E-10  0.0000E+00  0.7358E-14  0.0000E+00
     -5.117  0.1555E-14  0.0000E+00  0.8546E-15  0.0000E+00  0.2688E+02  0.0000E+00  0.5950E-02  0.0000E+00
     -5.089  0.4048E-15  0.0000E+00  0.2220E-15  0.0000E+00  0.6988E+01  0.0000E+00  0.1547E-02  0.0000E+00
     -5.061  0.0000E+00  0.3425E-27  0.0000E+00  0.1189E-27  0.0000E+00  0.3755E-12  0.0000E+00  0.2687E-16
     -5.034  0.0000E+00  0.1757E-13  0.0000E+00  0.6134E-14  0.0000E+00  0.1936E+02  0.0000E+00  0.1386E-02
     -5.006  0.0000E+00  0.1229E-13  0.0000E+00  0.4296E-14  0.0000E+00  0.1356E+02  0.0000E+00  0.9703E-03
     -4.978  0.0000E+00  0.0000E+00  0.0000E+00  0.0000E+00  0.0000E+00  0.0000E+00  0.0000E+00  0.0000E+00
     -4.950  0.0000E+00  0.0000E+00  0.0000E+00  0.0000E+00  0.0000E+00  0.0000E+00  0.0000E+00  0.0000E+00
     -4.922  0.0000E+00  0.0000E+00  0.0000E+00  0.0000E+00  0.0000E+00  0.0000E+00  0.0000E+00  0.0000E+00
     -4.895  0.1297E-04  0.0000E+00  0.3506E-06  0.0000E+00  0.1987E-05  0.0000E+00  0.1196E-09  0.0000E+00
     -4.867  0.7278E+01  0.0000E+00  0.4225E+00  0.0000E+00  0.3376E+02  0.0000E+00  0.5188E-01  0.0000E+00
     -4.839  0.4653E-02  0.0000E+00  0.5628E-02  0.0000E+00  0.7962E+00  0.0000E+00  0.1263E-02  0.0000E+00
     -4.811  0.0000E+00  0.0000E+00  0.0000E+00  0.0000E+00  0.0000E+00  0.0000E+00  0.0000E+00  0.0000E+00
     -4.784  0.0000E+00  0.0000E+00  0.0000E+00  0.0000E+00  0.0000E+00  0.0000E+00  0.0000E+00  0.0000E+00
     -4.756  0.0000E+00  0.0000E+00  0.0000E+00  0.0000E+00  0.0000E+00  0.0000E+00  0.0000E+00  0.0000E+00
     -4.728  0.0000E+00  0.0000E+00  0.0000E+00  0.0000E+00  0.0000E+00  0.0000E+00  0.0000E+00  0.0000E+00
     -4.700  0.0000E+00  0.1065E-14  0.0000E+00  0.7932E-15  0.0000E+00  0.6248E+00  0.0000E+00  0.1613E-03
     -4.673  0.0000E+00  0.5653E-13  0.0000E+00  0.4207E-13  0.0000E+00  0.3319E+02  0.0000E+00  0.8567E-02
     -4.645  0.0000E+00  0.2234E-12  0.0000E+00  0.3317E-01  0.0000E+00  0.4804E+01  0.0000E+00  0.7626E-02
     -4.617  0.0000E+00  0.1334E-11  0.0000E+00  0.1981E+00  0.0000E+00  0.2869E+02  0.0000E+00  0.4555E-01
     -4.589  0.0000E+00  0.0000E+00  0.0000E+00  0.0000E+00  0.0000E+00  0.0000E+00  0.0000E+00  0.0000E+00
     -4.561  0.0000E+00  0.0000E+00  0.0000E+00  0.0000E+00  0.0000E+00  0.0000E+00  0.0000E+00  0.0000E+00
     -4.534  0.0000E+00  0.0000E+00  0.0000E+00  0.0000E+00  0.0000E+00  0.0000E+00  0.0000E+00  0.0000E+00
     -4.506  0.0000E+00  0.0000E+00  0.0000E+00  0.0000E+00  0.0000E+00  0.0000E+00  0.0000E+00  0.0000E+00
     -4.478  0.0000E+00  0.0000E+00  0.0000E+00  0.0000E+00  0.0000E+00  0.0000E+00  0.0000E+00  0.0000E+00
     -4.450  0.0000E+00  0.0000E+00  0.0000E+00  0.0000E+00  0.0000E+00  0.0000E+00  0.0000E+00  0.0000E+00
     -4.423  0.0000E+00  0.0000E+00  0.0000E+00  0.0000E+00  0.0000E+00  0.0000E+00  0.0000E+00  0.0000E+00
     -4.395  0.0000E+00  0.0000E+00  0.0000E+00  0.0000E+00  0.0000E+00  0.0000E+00  0.0000E+00  0.0000E+00
     -4.367  0.0000E+00  0.0000E+00  0.0000E+00  0.0000E+00  0.0000E+00  0.0000E+00  0.0000E+00  0.0000E+00
     -4.339  0.0000E+00  0.0000E+00  0.0000E+00  0.0000E+00  0.0000E+00  0.0000E+00  0.0000E+00  0.0000E+00
     -4.311  0.0000E+00  0.0000E+00  0.0000E+00  0.0000E+00  0.0000E+00  0.0000E+00  0.0000E+00  0.0000E+00
     -4.284  0.0000E+00  0.2427E-10  0.0000E+00  0.7292E-11  0.0000E+00  0.6361E-09  0.0000E+00  0.1487E-11
     -4.256  0.0000E+00  0.5432E+00  0.0000E+00  0.1632E+00  0.0000E+00  0.1423E+02  0.0000E+00  0.3327E-01
     -4.228  0.0000E+00  0.5686E+00  0.0000E+00  0.2417E-01  0.0000E+00  0.1500E+01  0.0000E+00  0.3180E-02
     -4.200  0.0000E+00  0.6106E+01  0.0000E+00  0.1016E+00  0.0000E+00  0.1669E+01  0.0000E+00  0.6065E-04
     -4.173  0.0000E+00  0.0000E+00  0.0000E+00  0.0000E+00  0.0000E+00  0.0000E+00  0.0000E+00  0.0000E+00
     -4.145  0.0000E+00  0.0000E+00  0.0000E+00  0.0000E+00  0.0000E+00  0.0000E+00  0.0000E+00  0.0000E+00
     -4.117  0.0000E+00  0.0000E+00  0.0000E+00  0.0000E+00  0.0000E+00  0.0000E+00  0.0000E+00  0.0000E+00
     -4.089  0.0000E+00  0.0000E+00  0.0000E+00  0.0000E+00  0.0000E+00  0.0000E+00  0.0000E+00  0.0000E+00
     -4.061  0.0000E+00  0.0000E+00  0.0000E+00  0.0000E+00  0.0000E+00  0.0000E+00  0.0000E+00  0.0000E+00
     -4.034  0.0000E+00  0.0000E+00  0.0000E+00  0.0000E+00  0.0000E+00  0.0000E+00  0.0000E+00  0.0000E+00
     -4.006  0.0000E+00  0.0000E+00  0.0000E+00  0.0000E+00  0.0000E+00  0.0000E+00  0.0000E+00  0.0000E+00
     -3.978  0.0000E+00  0.0000E+00  0.0000E+00  0.0000E+00  0.0000E+00  0.0000E+00  0.0000E+00  0.0000E+00
     -3.950  0.0000E+00  0.0000E+00  0.0000E+00  0.0000E+00  0.0000E+00  0.0000E+00  0.0000E+00  0.0000E+00
     -3.923  0.0000E+00  0.0000E+00  0.0000E+00  0.0000E+00  0.0000E+00  0.0000E+00  0.0000E+00  0.0000E+00
     -3.895  0.0000E+00  0.0000E+00  0.0000E+00  0.0000E+00  0.0000E+00  0.0000E+00  0.0000E+00  0.0000E+00
     -3.867  0.0000E+00  0.0000E+00  0.0000E+00  0.0000E+00  0.0000E+00  0.0000E+00  0.0000E+00  0.0000E+00
     -3.839  0.0000E+00  0.0000E+00  0.0000E+00  0.0000E+00  0.0000E+00  0.0000E+00  0.0000E+00  0.0000E+00
     -3.811  0.0000E+00  0.0000E+00  0.0000E+00  0.0000E+00  0.0000E+00  0.0000E+00  0.0000E+00  0.0000E+00
     -3.784  0.0000E+00  0.0000E+00  0.0000E+00  0.0000E+00  0.0000E+00  0.0000E+00  0.0000E+00  0.0000E+00
     -3.756  0.0000E+00  0.0000E+00  0.0000E+00  0.0000E+00  0.0000E+00  0.0000E+00  0.0000E+00  0.0000E+00
     -3.728  0.0000E+00  0.0000E+00  0.0000E+00  0.0000E+00  0.0000E+00  0.0000E+00  0.0000E+00  0.0000E+00
     -3.700  0.0000E+00  0.0000E+00  0.0000E+00  0.0000E+00  0.0000E+00  0.0000E+00  0.0000E+00  0.0000E+00
     -3.673  0.0000E+00  0.0000E+00  0.0000E+00  0.0000E+00  0.0000E+00  0.0000E+00  0.0000E+00  0.0000E+00
     -3.645  0.0000E+00  0.0000E+00  0.0000E+00  0.0000E+00  0.0000E+00  0.0000E+00  0.0000E+00  0.0000E+00
     -3.617  0.0000E+00  0.0000E+00  0.0000E+00  0.0000E+00  0.0000E+00  0.0000E+00  0.0000E+00  0.0000E+00
     -3.589  0.0000E+00  0.0000E+00  0.0000E+00  0.0000E+00  0.0000E+00  0.0000E+00  0.0000E+00  0.0000E+00
     -3.561  0.0000E+00  0.0000E+00  0.0000E+00  0.0000E+00  0.0000E+00  0.0000E+00  0.0000E+00  0.0000E+00
     -3.534  0.0000E+00  0.0000E+00  0.0000E+00  0.0000E+00  0.0000E+00  0.0000E+00  0.0000E+00  0.0000E+00
     -3.506  0.0000E+00  0.0000E+00  0.0000E+00  0.0000E+00  0.0000E+00  0.0000E+00  0.0000E+00  0.0000E+00
     -3.478  0.0000E+00  0.0000E+00  0.0000E+00  0.0000E+00  0.0000E+00  0.0000E+00  0.0000E+00  0.0000E+00
     -3.450  0.0000E+00  0.0000E+00  0.0000E+00  0.0000E+00  0.0000E+00  0.0000E+00  0.0000E+00  0.0000E+00
     -3.423  0.0000E+00  0.0000E+00  0.0000E+00  0.0000E+00  0.0000E+00  0.0000E+00  0.0000E+00  0.0000E+00
     -3.395  0.0000E+00  0.0000E+00  0.0000E+00  0.0000E+00  0.0000E+00  0.0000E+00  0.0000E+00  0.0000E+00
     -3.367  0.0000E+00  0.0000E+00  0.0000E+00  0.0000E+00  0.0000E+00  0.0000E+00  0.0000E+00  0.0000E+00
     -3.339  0.0000E+00  0.0000E+00  0.0000E+00  0.0000E+00  0.0000E+00  0.0000E+00  0.0000E+00  0.0000E+00
     -3.311  0.0000E+00  0.0000E+00  0.0000E+00  0.0000E+00  0.0000E+00  0.0000E+00  0.0000E+00  0.0000E+00
     -3.284  0.0000E+00  0.0000E+00  0.0000E+00  0.0000E+00  0.0000E+00  0.0000E+00  0.0000E+00  0.0000E+00
     -3.256  0.0000E+00  0.0000E+00  0.0000E+00  0.0000E+00  0.0000E+00  0.0000E+00  0.0000E+00  0.0000E+00
     -3.228  0.0000E+00  0.0000E+00  0.0000E+00  0.0000E+00  0.0000E+00  0.0000E+00  0.0000E+00  0.0000E+00
     -3.200  0.0000E+00  0.0000E+00  0.0000E+00  0.0000E+00  0.0000E+00  0.0000E+00  0.0000E+00  0.0000E+00
     -3.173  0.0000E+00  0.0000E+00  0.0000E+00  0.0000E+00  0.0000E+00  0.0000E+00  0.0000E+00  0.0000E+00
     -3.145  0.0000E+00  0.0000E+00  0.0000E+00  0.0000E+00  0.0000E+00  0.0000E+00  0.0000E+00  0.0000E+00
     -3.117  0.0000E+00  0.0000E+00  0.0000E+00  0.0000E+00  0.0000E+00  0.0000E+00  0.0000E+00  0.0000E+00
     -3.089  0.0000E+00  0.0000E+00  0.0000E+00  0.0000E+00  0.0000E+00  0.0000E+00  0.0000E+00  0.0000E+00
     -3.061  0.0000E+00  0.0000E+00  0.0000E+00  0.0000E+00  0.0000E+00  0.0000E+00  0.0000E+00  0.0000E+00
     -3.034  0.0000E+00  0.0000E+00  0.0000E+00  0.0000E+00  0.0000E+00  0.0000E+00  0.0000E+00  0.0000E+00
     -3.006  0.0000E+00  0.0000E+00  0.0000E+00  0.0000E+00  0.0000E+00  0.0000E+00  0.0000E+00  0.0000E+00
     -2.978  0.0000E+00  0.0000E+00  0.0000E+00  0.0000E+00  0.0000E+00  0.0000E+00  0.0000E+00  0.0000E+00
     -2.950  0.0000E+00  0.0000E+00  0.0000E+00  0.0000E+00  0.0000E+00  0.0000E+00  0.0000E+00  0.0000E+00
     -2.923  0.0000E+00  0.0000E+00  0.0000E+00  0.0000E+00  0.0000E+00  0.0000E+00  0.0000E+00  0.0000E+00
     -2.895  0.0000E+00  0.0000E+00  0.0000E+00  0.0000E+00  0.0000E+00  0.0000E+00  0.0000E+00  0.0000E+00
     -2.867  0.0000E+00  0.0000E+00  0.0000E+00  0.0000E+00  0.0000E+00  0.0000E+00  0.0000E+00  0.0000E+00
     -2.839  0.0000E+00  0.0000E+00  0.0000E+00  0.0000E+00  0.0000E+00  0.0000E+00  0.0000E+00  0.0000E+00
     -2.811  0.0000E+00  0.0000E+00  0.0000E+00  0.0000E+00  0.0000E+00  0.0000E+00  0.0000E+00  0.0000E+00
     -2.784  0.0000E+00  0.0000E+00  0.0000E+00  0.0000E+00  0.0000E+00  0.0000E+00  0.0000E+00  0.0000E+00
     -2.756  0.6315E-10  0.0000E+00  0.1525E-10  0.0000E+00  0.4957E-11  0.0000E+00  0.7777E-13  0.0000E+00
     -2.728  0.4181E+01  0.0000E+00  0.1009E+01  0.0000E+00  0.3282E+00  0.0000E+00  0.5148E-02  0.0000E+00
     -2.700  0.5514E+00  0.0000E+00  0.1331E+00  0.0000E+00  0.4328E-01  0.0000E+00  0.6790E-03  0.0000E+00
     -2.673  0.0000E+00  0.0000E+00  0.0000E+00  0.0000E+00  0.0000E+00  0.0000E+00  0.0000E+00  0.0000E+00
     -2.645  0.0000E+00  0.0000E+00  0.0000E+00  0.0000E+00  0.0000E+00  0.0000E+00  0.0000E+00  0.0000E+00
     -2.617  0.0000E+00  0.0000E+00  0.0000E+00  0.0000E+00  0.0000E+00  0.0000E+00  0.0000E+00  0.0000E+00
     -2.589  0.0000E+00  0.0000E+00  0.0000E+00  0.0000E+00  0.0000E+00  0.0000E+00  0.0000E+00  0.0000E+00
     -2.561  0.0000E+00  0.0000E+00  0.0000E+00  0.0000E+00  0.0000E+00  0.0000E+00  0.0000E+00  0.0000E+00
     -2.534  0.0000E+00  0.0000E+00  0.0000E+00  0.0000E+00  0.0000E+00  0.0000E+00  0.0000E+00  0.0000E+00
     -2.506  0.0000E+00  0.0000E+00  0.0000E+00  0.0000E+00  0.0000E+00  0.0000E+00  0.0000E+00  0.0000E+00
     -2.478  0.0000E+00  0.0000E+00  0.0000E+00  0.0000E+00  0.0000E+00  0.0000E+00  0.0000E+00  0.0000E+00
     -2.450  0.0000E+00  0.0000E+00  0.0000E+00  0.0000E+00  0.0000E+00  0.0000E+00  0.0000E+00  0.0000E+00
     -2.423  0.0000E+00  0.0000E+00  0.0000E+00  0.0000E+00  0.0000E+00  0.0000E+00  0.0000E+00  0.0000E+00
     -2.395  0.0000E+00  0.0000E+00  0.0000E+00  0.0000E+00  0.0000E+00  0.0000E+00  0.0000E+00  0.0000E+00
     -2.367  0.0000E+00  0.6760E-13  0.0000E+00  0.1719E-13  0.0000E+00  0.5338E-14  0.0000E+00  0.5221E-16
     -2.339  0.0000E+00  0.2696E+01  0.0000E+00  0.6857E+00  0.0000E+00  0.2129E+00  0.0000E+00  0.2082E-02
     -2.312  0.0000E+00  0.1781E+01  0.0000E+00  0.4529E+00  0.0000E+00  0.1406E+00  0.0000E+00  0.1375E-02
     -2.284  0.0000E+00  0.0000E+00  0.0000E+00  0.0000E+00  0.0000E+00  0.0000E+00  0.0000E+00  0.0000E+00
     -2.256  0.0000E+00  0.0000E+00  0.0000E+00  0.0000E+00  0.0000E+00  0.0000E+00  0.0000E+00  0.0000E+00
     -2.228  0.0000E+00  0.0000E+00  0.0000E+00  0.0000E+00  0.0000E+00  0.0000E+00  0.0000E+00  0.0000E+00
     -2.200  0.0000E+00  0.0000E+00  0.0000E+00  0.0000E+00  0.0000E+00  0.0000E+00  0.0000E+00  0.0000E+00
     -2.173  0.0000E+00  0.0000E+00  0.0000E+00  0.0000E+00  0.0000E+00  0.0000E+00  0.0000E+00  0.0000E+00
     -2.145  0.0000E+00  0.0000E+00  0.0000E+00  0.0000E+00  0.0000E+00  0.0000E+00  0.0000E+00  0.0000E+00
     -2.117  0.0000E+00  0.0000E+00  0.0000E+00  0.0000E+00  0.0000E+00  0.0000E+00  0.0000E+00  0.0000E+00
     -2.089  0.0000E+00  0.0000E+00  0.0000E+00  0.0000E+00  0.0000E+00  0.0000E+00  0.0000E+00  0.0000E+00
     -2.062  0.0000E+00  0.0000E+00  0.0000E+00  0.0000E+00  0.0000E+00  0.0000E+00  0.0000E+00  0.0000E+00
     -2.034  0.0000E+00  0.0000E+00  0.0000E+00  0.0000E+00  0.0000E+00  0.0000E+00  0.0000E+00  0.0000E+00
     -2.006  0.0000E+00  0.0000E+00  0.0000E+00  0.0000E+00  0.0000E+00  0.0000E+00  0.0000E+00  0.0000E+00
     -1.978  0.0000E+00  0.0000E+00  0.0000E+00  0.0000E+00  0.0000E+00  0.0000E+00  0.0000E+00  0.0000E+00
     -1.950  0.0000E+00  0.0000E+00  0.0000E+00  0.0000E+00  0.0000E+00  0.0000E+00  0.0000E+00  0.0000E+00
     -1.923  0.0000E+00  0.0000E+00  0.0000E+00  0.0000E+00  0.0000E+00  0.0000E+00  0.0000E+00  0.0000E+00
     -1.895  0.0000E+00  0.0000E+00  0.0000E+00  0.0000E+00  0.0000E+00  0.0000E+00  0.0000E+00  0.0000E+00
     -1.867  0.0000E+00  0.0000E+00  0.0000E+00  0.0000E+00  0.0000E+00  0.0000E+00  0.0000E+00  0.0000E+00
     -1.839  0.0000E+00  0.0000E+00  0.0000E+00  0.0000E+00  0.0000E+00  0.0000E+00  0.0000E+00  0.0000E+00
     -1.812  0.0000E+00  0.0000E+00  0.0000E+00  0.0000E+00  0.0000E+00  0.0000E+00  0.0000E+00  0.0000E+00
     -1.784  0.0000E+00  0.0000E+00  0.0000E+00  0.0000E+00  0.0000E+00  0.0000E+00  0.0000E+00  0.0000E+00
     -1.756  0.0000E+00  0.0000E+00  0.0000E+00  0.0000E+00  0.0000E+00  0.0000E+00  0.0000E+00  0.0000E+00
     -1.728  0.0000E+00  0.0000E+00  0.0000E+00  0.0000E+00  0.0000E+00  0.0000E+00  0.0000E+00  0.0000E+00
     -1.700  0.0000E+00  0.0000E+00  0.0000E+00  0.0000E+00  0.0000E+00  0.0000E+00  0.0000E+00  0.0000E+00
     -1.673  0.0000E+00  0.0000E+00  0.0000E+00  0.0000E+00  0.0000E+00  0.0000E+00  0.0000E+00  0.0000E+00
     -1.645  0.0000E+00  0.0000E+00  0.0000E+00  0.0000E+00  0.0000E+00  0.0000E+00  0.0000E+00  0.0000E+00
     -1.617  0.0000E+00  0.0000E+00  0.0000E+00  0.0000E+00  0.0000E+00  0.0000E+00  0.0000E+00  0.0000E+00
     -1.589  0.0000E+00  0.0000E+00  0.0000E+00  0.0000E+00  0.0000E+00  0.0000E+00  0.0000E+00  0.0000E+00
     -1.562  0.0000E+00  0.0000E+00  0.0000E+00  0.0000E+00  0.0000E+00  0.0000E+00  0.0000E+00  0.0000E+00
     -1.534  0.0000E+00  0.0000E+00  0.0000E+00  0.0000E+00  0.0000E+00  0.0000E+00  0.0000E+00  0.0000E+00
     -1.506  0.0000E+00  0.0000E+00  0.0000E+00  0.0000E+00  0.0000E+00  0.0000E+00  0.0000E+00  0.0000E+00
     -1.478  0.0000E+00  0.0000E+00  0.0000E+00  0.0000E+00  0.0000E+00  0.0000E+00  0.0000E+00  0.0000E+00
     -1.450  0.0000E+00  0.0000E+00  0.0000E+00  0.0000E+00  0.0000E+00  0.0000E+00  0.0000E+00  0.0000E+00
     -1.423  0.0000E+00  0.0000E+00  0.0000E+00  0.0000E+00  0.0000E+00  0.0000E+00  0.0000E+00  0.0000E+00
     -1.395  0.0000E+00  0.0000E+00  0.0000E+00  0.0000E+00  0.0000E+00  0.0000E+00  0.0000E+00  0.0000E+00
     -1.367  0.0000E+00  0.0000E+00  0.0000E+00  0.0000E+00  0.0000E+00  0.0000E+00  0.0000E+00  0.0000E+00
     -1.339  0.0000E+00  0.0000E+00  0.0000E+00  0.0000E+00  0.0000E+00  0.0000E+00  0.0000E+00  0.0000E+00
     -1.312  0.0000E+00  0.0000E+00  0.0000E+00  0.0000E+00  0.0000E+00  0.0000E+00  0.0000E+00  0.0000E+00
     -1.284  0.0000E+00  0.0000E+00  0.0000E+00  0.0000E+00  0.0000E+00  0.0000E+00  0.0000E+00  0.0000E+00
     -1.256  0.0000E+00  0.0000E+00  0.0000E+00  0.0000E+00  0.0000E+00  0.0000E+00  0.0000E+00  0.0000E+00
     -1.228  0.0000E+00  0.0000E+00  0.0000E+00  0.0000E+00  0.0000E+00  0.0000E+00  0.0000E+00  0.0000E+00
     -1.200  0.0000E+00  0.0000E+00  0.0000E+00  0.0000E+00  0.0000E+00  0.0000E+00  0.0000E+00  0.0000E+00
     -1.173  0.0000E+00  0.0000E+00  0.0000E+00  0.0000E+00  0.0000E+00  0.0000E+00  0.0000E+00  0.0000E+00
     -1.145  0.0000E+00  0.0000E+00  0.0000E+00  0.0000E+00  0.0000E+00  0.0000E+00  0.0000E+00  0.0000E+00
     -1.117  0.2803E-28  0.0000E+00  0.4022E-12  0.0000E+00  0.2345E-13  0.0000E+00  0.4355E-15  0.0000E+00
     -1.089  0.2288E-15  0.0000E+00  0.3283E+01  0.0000E+00  0.1914E+00  0.0000E+00  0.3554E-02  0.0000E+00
     -1.062  0.1048E-15  0.0000E+00  0.1503E+01  0.0000E+00  0.8763E-01  0.0000E+00  0.1627E-02  0.0000E+00
     -1.034  0.0000E+00  0.0000E+00  0.0000E+00  0.0000E+00  0.0000E+00  0.0000E+00  0.0000E+00  0.0000E+00
     -1.006  0.0000E+00  0.0000E+00  0.0000E+00  0.0000E+00  0.0000E+00  0.0000E+00  0.0000E+00  0.0000E+00
     -0.978  0.0000E+00  0.0000E+00  0.0000E+00  0.0000E+00  0.0000E+00  0.0000E+00  0.0000E+00  0.0000E+00
     -0.950  0.0000E+00  0.0000E+00  0.0000E+00  0.0000E+00  0.0000E+00  0.0000E+00  0.0000E+00  0.0000E+00
     -0.923  0.0000E+00  0.0000E+00  0.0000E+00  0.0000E+00  0.0000E+00  0.0000E+00  0.0000E+00  0.0000E+00
     -0.895  0.0000E+00  0.0000E+00  0.0000E+00  0.0000E+00  0.0000E+00  0.0000E+00  0.0000E+00  0.0000E+00
     -0.867  0.0000E+00  0.0000E+00  0.0000E+00  0.0000E+00  0.0000E+00  0.0000E+00  0.0000E+00  0.0000E+00
     -0.839  0.0000E+00  0.0000E+00  0.0000E+00  0.0000E+00  0.0000E+00  0.0000E+00  0.0000E+00  0.0000E+00
     -0.812  0.0000E+00  0.0000E+00  0.0000E+00  0.0000E+00  0.0000E+00  0.0000E+00  0.0000E+00  0.0000E+00
     -0.784  0.0000E+00  0.0000E+00  0.0000E+00  0.0000E+00  0.0000E+00  0.0000E+00  0.0000E+00  0.0000E+00
     -0.756  0.0000E+00  0.0000E+00  0.0000E+00  0.0000E+00  0.0000E+00  0.0000E+00  0.0000E+00  0.0000E+00
     -0.728  0.0000E+00  0.0000E+00  0.0000E+00  0.0000E+00  0.0000E+00  0.0000E+00  0.0000E+00  0.0000E+00
     -0.700  0.0000E+00  0.0000E+00  0.0000E+00  0.0000E+00  0.0000E+00  0.0000E+00  0.0000E+00  0.0000E+00
     -0.673  0.0000E+00  0.0000E+00  0.0000E+00  0.0000E+00  0.0000E+00  0.0000E+00  0.0000E+00  0.0000E+00
     -0.645  0.0000E+00  0.4553E-20  0.0000E+00  0.2531E-04  0.0000E+00  0.9935E-06  0.0000E+00  0.5205E-07
     -0.617  0.0000E+00  0.7889E-15  0.0000E+00  0.4386E+01  0.0000E+00  0.1722E+00  0.0000E+00  0.9019E-02
     -0.589  0.0000E+00  0.0000E+00  0.0000E+00  0.0000E+00  0.0000E+00  0.0000E+00  0.0000E+00  0.0000E+00
     -0.562  0.0000E+00  0.0000E+00  0.0000E+00  0.0000E+00  0.0000E+00  0.0000E+00  0.0000E+00  0.0000E+00
     -0.534  0.2087E-12  0.0000E+00  0.3108E-11  0.0000E+00  0.2479E-14  0.0000E+00  0.8704E-15  0.0000E+00
     -0.506  0.1442E+00  0.0000E+00  0.2147E+01  0.0000E+00  0.1712E-02  0.0000E+00  0.6012E-03  0.0000E+00
     -0.478  0.3599E-01  0.0000E+00  0.5360E+00  0.0000E+00  0.4275E-03  0.0000E+00  0.1501E-03  0.0000E+00
     -0.450  0.0000E+00  0.0000E+00  0.0000E+00  0.0000E+00  0.0000E+00  0.0000E+00  0.0000E+00  0.0000E+00
     -0.423  0.0000E+00  0.0000E+00  0.0000E+00  0.0000E+00  0.0000E+00  0.0000E+00  0.0000E+00  0.0000E+00
     -0.395  0.0000E+00  0.0000E+00  0.0000E+00  0.0000E+00  0.0000E+00  0.0000E+00  0.0000E+00  0.0000E+00
     -0.367  0.0000E+00  0.0000E+00  0.0000E+00  0.0000E+00  0.0000E+00  0.0000E+00  0.0000E+00  0.0000E+00
     -0.339  0.0000E+00  0.0000E+00  0.0000E+00  0.0000E+00  0.0000E+00  0.0000E+00  0.0000E+00  0.0000E+00
     -0.312  0.0000E+00  0.0000E+00  0.0000E+00  0.0000E+00  0.0000E+00  0.0000E+00  0.0000E+00  0.0000E+00
     -0.284  0.0000E+00  0.0000E+00  0.0000E+00  0.0000E+00  0.0000E+00  0.0000E+00  0.0000E+00  0.0000E+00
     -0.256  0.0000E+00  0.3957E-07  0.0000E+00  0.3562E-06  0.0000E+00  0.1341E-08  0.0000E+00  0.1149E-09
     -0.228  0.0000E+00  0.2322E+00  0.0000E+00  0.2090E+01  0.0000E+00  0.7869E-02  0.0000E+00  0.6741E-03
     -0.200  0.0000E+00  0.6804E-03  0.0000E+00  0.6124E-02  0.0000E+00  0.2305E-04  0.0000E+00  0.1975E-05
     -0.173  0.0000E+00  0.0000E+00  0.0000E+00  0.0000E+00  0.0000E+00  0.0000E+00  0.0000E+00  0.0000E+00
     -0.145  0.0000E+00  0.0000E+00  0.0000E+00  0.0000E+00  0.0000E+00  0.0000E+00  0.0000E+00  0.0000E+00
     -0.117  0.0000E+00  0.0000E+00  0.0000E+00  0.0000E+00  0.0000E+00  0.0000E+00  0.0000E+00  0.0000E+00
     -0.089  0.0000E+00  0.0000E+00  0.0000E+00  0.0000E+00  0.0000E+00  0.0000E+00  0.0000E+00  0.0000E+00
     -0.062  0.0000E+00  0.0000E+00  0.0000E+00  0.0000E+00  0.0000E+00  0.0000E+00  0.0000E+00  0.0000E+00
     -0.034  0.0000E+00  0.0000E+00  0.0000E+00  0.0000E+00  0.0000E+00  0.0000E+00  0.0000E+00  0.0000E+00
     -0.006  0.0000E+00  0.0000E+00  0.0000E+00  0.0000E+00  0.0000E+00  0.0000E+00  0.0000E+00  0.0000E+00
      0.022  0.0000E+00  0.0000E+00  0.0000E+00  0.0000E+00  0.0000E+00  0.0000E+00  0.0000E+00  0.0000E+00
      0.049  0.2931E-17  0.0000E+00  0.2834E-16  0.0000E+00  0.7195E-18  0.0000E+00  0.2389E-20  0.0000E+00
      0.077  0.1701E-01  0.0000E+00  0.1644E+00  0.0000E+00  0.4174E-02  0.0000E+00  0.1386E-04  0.0000E+00
      0.105  0.3580E-01  0.0000E+00  0.3462E+00  0.0000E+00  0.8788E-02  0.0000E+00  0.2917E-04  0.0000E+00
      0.133  0.0000E+00  0.0000E+00  0.0000E+00  0.0000E+00  0.0000E+00  0.0000E+00  0.0000E+00  0.0000E+00
      0.161  0.0000E+00  0.8040E-06  0.0000E+00  0.1572E-02  0.0000E+00  0.6070E-05  0.0000E+00  0.2686E-06
      0.188  0.0000E+00  0.3750E-03  0.0000E+00  0.7331E+00  0.0000E+00  0.2831E-02  0.0000E+00  0.1253E-03
      0.216  0.0000E+00  0.0000E+00  0.0000E+00  0.0000E+00  0.0000E+00  0.0000E+00  0.0000E+00  0.0000E+00
      0.244  0.0000E+00  0.0000E+00  0.0000E+00  0.0000E+00  0.0000E+00  0.0000E+00  0.0000E+00  0.0000E+00
      0.272  0.0000E+00  0.0000E+00  0.0000E+00  0.0000E+00  0.0000E+00  0.0000E+00  0.0000E+00  0.0000E+00
      0.299  0.0000E+00  0.0000E+00  0.0000E+00  0.0000E+00  0.0000E+00  0.0000E+00  0.0000E+00  0.0000E+00
      0.327  0.0000E+00  0.0000E+00  0.0000E+00  0.0000E+00  0.0000E+00  0.0000E+00  0.0000E+00  0.0000E+00
      0.355  0.0000E+00  0.0000E+00  0.0000E+00  0.0000E+00  0.0000E+00  0.0000E+00  0.0000E+00  0.0000E+00
      0.383  0.0000E+00  0.0000E+00  0.0000E+00  0.0000E+00  0.0000E+00  0.0000E+00  0.0000E+00  0.0000E+00
      0.411  0.0000E+00  0.0000E+00  0.0000E+00  0.0000E+00  0.0000E+00  0.0000E+00  0.0000E+00  0.0000E+00
      0.438  0.0000E+00  0.0000E+00  0.0000E+00  0.0000E+00  0.0000E+00  0.0000E+00  0.0000E+00  0.0000E+00
      0.466  0.0000E+00  0.0000E+00  0.0000E+00  0.0000E+00  0.0000E+00  0.0000E+00  0.0000E+00  0.0000E+00
      0.494  0.0000E+00  0.0000E+00  0.0000E+00  0.0000E+00  0.0000E+00  0.0000E+00  0.0000E+00  0.0000E+00
      0.522  0.0000E+00  0.0000E+00  0.0000E+00  0.0000E+00  0.0000E+00  0.0000E+00  0.0000E+00  0.0000E+00
      0.549  0.0000E+00  0.0000E+00  0.0000E+00  0.0000E+00  0.0000E+00  0.0000E+00  0.0000E+00  0.0000E+00
      0.54946688     -7.78347016  301     -4.61000997      1.00000000
     -7.783  0.0000E+00  0.0000E+00  0.0000E+00  0.0000E+00  0.0000E+00  0.0000E+00  0.0000E+00  0.0000E+00
     -7.756  0.0000E+00  0.0000E+00  0.0000E+00  0.0000E+00  0.0000E+00  0.0000E+00  0.0000E+00  0.0000E+00
     -7.728  0.0000E+00  0.0000E+00  0.0000E+00  0.0000E+00  0.0000E+00  0.0000E+00  0.0000E+00  0.0000E+00
     -7.700  0.0000E+00  0.0000E+00  0.0000E+00  0.0000E+00  0.0000E+00  0.0000E+00  0.0000E+00  0.0000E+00
     -7.672  0.0000E+00  0.0000E+00  0.0000E+00  0.0000E+00  0.0000E+00  0.0000E+00  0.0000E+00  0.0000E+00
     -7.645  0.0000E+00  0.0000E+00  0.0000E+00  0.0000E+00  0.0000E+00  0.0000E+00  0.0000E+00  0.0000E+00
     -7.617  0.0000E+00  0.0000E+00  0.0000E+00  0.0000E+00  0.0000E+00  0.0000E+00  0.0000E+00  0.0000E+00
     -7.589  0.0000E+00  0.0000E+00  0.0000E+00  0.0000E+00  0.0000E+00  0.0000E+00  0.0000E+00  0.0000E+00
     -7.561  0.0000E+00  0.0000E+00  0.0000E+00  0.0000E+00  0.0000E+00  0.0000E+00  0.0000E+00  0.0000E+00
     -7.533  0.0000E+00  0.0000E+00  0.0000E+00  0.0000E+00  0.0000E+00  0.0000E+00  0.0000E+00  0.0000E+00
     -7.506  0.0000E+00  0.0000E+00  0.0000E+00  0.0000E+00  0.0000E+00  0.0000E+00  0.0000E+00  0.0000E+00
     -7.478  0.0000E+00  0.0000E+00  0.0000E+00  0.0000E+00  0.0000E+00  0.0000E+00  0.0000E+00  0.0000E+00
     -7.450  0.0000E+00  0.0000E+00  0.0000E+00  0.0000E+00  0.0000E+00  0.0000E+00  0.0000E+00  0.0000E+00
     -7.422  0.3215E-06  0.0000E+00  0.1201E-06  0.0000E+00  0.4718E-05  0.0000E+00  0.1222E-07  0.0000E+00
     -7.395  0.1116E+01  0.0000E+00  0.4170E+00  0.0000E+00  0.1638E+02  0.0000E+00  0.4243E-01  0.0000E+00
     -7.367  0.2393E-02  0.0000E+00  0.8941E-03  0.0000E+00  0.3512E-01  0.0000E+00  0.9097E-04  0.0000E+00
     -7.339  0.0000E+00  0.0000E+00  0.0000E+00  0.0000E+00  0.0000E+00  0.0000E+00  0.0000E+00  0.0000E+00
     -7.311  0.0000E+00  0.0000E+00  0.0000E+00  0.0000E+00  0.0000E+00  0.0000E+00  0.0000E+00  0.0000E+00
     -7.283  0.0000E+00  0.0000E+00  0.0000E+00  0.0000E+00  0.0000E+00  0.0000E+00  0.0000E+00  0.0000E+00
     -7.256  0.0000E+00  0.0000E+00  0.0000E+00  0.0000E+00  0.0000E+00  0.0000E+00  0.0000E+00  0.0000E+00
     -7.228  0.0000E+00  0.0000E+00  0.0000E+00  0.0000E+00  0.0000E+00  0.0000E+00  0.0000E+00  0.0000E+00
     -7.200  0.0000E+00  0.0000E+00  0.0000E+00  0.0000E+00  0.0000E+00  0.0000E+00  0.0000E+00  0.0000E+00
     -7.172  0.0000E+00  0.0000E+00  0.0000E+00  0.0000E+00  0.0000E+00  0.0000E+00  0.0000E+00  0.0000E+00
     -7.145  0.0000E+00  0.0000E+00  0.0000E+00  0.0000E+00  0.0000E+00  0.0000E+00  0.0000E+00  0.0000E+00
     -7.117  0.0000E+00  0.0000E+00  0.0000E+00  0.0000E+00  0.0000E+00  0.0000E+00  0.0000E+00  0.0000E+00
     -7.089  0.0000E+00  0.0000E+00  0.0000E+00  0.0000E+00  0.0000E+00  0.0000E+00  0.0000E+00  0.0000E+00
     -7.061  0.0000E+00  0.0000E+00  0.0000E+00  0.0000E+00  0.0000E+00  0.0000E+00  0.0000E+00  0.0000E+00
     -7.034  0.0000E+00  0.0000E+00  0.0000E+00  0.0000E+00  0.0000E+00  0.0000E+00  0.0000E+00  0.0000E+00
     -7.006  0.0000E+00  0.0000E+00  0.0000E+00  0.0000E+00  0.0000E+00  0.0000E+00  0.0000E+00  0.0000E+00
     -6.978  0.0000E+00  0.0000E+00  0.0000E+00  0.0000E+00  0.0000E+00  0.0000E+00  0.0000E+00  0.0000E+00
     -6.950  0.0000E+00  0.0000E+00  0.0000E+00  0.0000E+00  0.0000E+00  0.0000E+00  0.0000E+00  0.0000E+00
     -6.922  0.0000E+00  0.0000E+00  0.0000E+00  0.0000E+00  0.0000E+00  0.0000E+00  0.0000E+00  0.0000E+00
     -6.895  0.0000E+00  0.0000E+00  0.0000E+00  0.0000E+00  0.0000E+00  0.0000E+00  0.0000E+00  0.0000E+00
     -6.867  0.0000E+00  0.0000E+00  0.0000E+00  0.0000E+00  0.0000E+00  0.0000E+00  0.0000E+00  0.0000E+00
     -6.839  0.0000E+00  0.0000E+00  0.0000E+00  0.0000E+00  0.0000E+00  0.0000E+00  0.0000E+00  0.0000E+00
     -6.811  0.0000E+00  0.0000E+00  0.0000E+00  0.0000E+00  0.0000E+00  0.0000E+00  0.0000E+00  0.0000E+00
     -6.784  0.0000E+00  0.0000E+00  0.0000E+00  0.0000E+00  0.0000E+00  0.0000E+00  0.0000E+00  0.0000E+00
     -6.756  0.0000E+00  0.0000E+00  0.0000E+00  0.0000E+00  0.0000E+00  0.0000E+00  0.0000E+00  0.0000E+00
     -6.728  0.0000E+00  0.0000E+00  0.0000E+00  0.0000E+00  0.0000E+00  0.0000E+00  0.0000E+00  0.0000E+00
     -6.700  0.0000E+00  0.0000E+00  0.0000E+00  0.0000E+00  0.0000E+00  0.0000E+00  0.0000E+00  0.0000E+00
     -6.672  0.0000E+00  0.0000E+00  0.0000E+00  0.0000E+00  0.0000E+00  0.0000E+00  0.0000E+00  0.0000E+00
     -6.645  0.0000E+00  0.2764E-06  0.0000E+00  0.8577E-07  0.0000E+00  0.2567E-05  0.0000E+00  0.8813E-08
     -6.617  0.0000E+00  0.1675E+01  0.0000E+00  0.5199E+00  0.0000E+00  0.1556E+02  0.0000E+00  0.5342E-01
     -6.589  0.0000E+00  0.5002E-02  0.0000E+00  0.1552E-02  0.0000E+00  0.4646E-01  0.0000E+00  0.1595E-03
     -6.561  0.0000E+00  0.0000E+00  0.0000E+00  0.0000E+00  0.0000E+00  0.0000E+00  0.0000E+00  0.0000E+00
     -6.534  0.0000E+00  0.0000E+00  0.0000E+00  0.0000E+00  0.0000E+00  0.0000E+00  0.0000E+00  0.0000E+00
     -6.506  0.0000E+00  0.0000E+00  0.0000E+00  0.0000E+00  0.0000E+00  0.0000E+00  0.0000E+00  0.0000E+00
     -6.478  0.0000E+00  0.0000E+00  0.0000E+00  0.0000E+00  0.0000E+00  0.0000E+00  0.0000E+00  0.0000E+00
     -6.450  0.0000E+00  0.0000E+00  0.0000E+00  0.0000E+00  0.0000E+00  0.0000E+00  0.0000E+00  0.0000E+00
     -6.422  0.0000E+00  0.0000E+00  0.0000E+00  0.0000E+00  0.0000E+00  0.0000E+00  0.0000E+00  0.0000E+00
     -6.395  0.4100E-25  0.0000E+00  0.5722E-11  0.0000E+00  0.1009E-08  0.0000E+00  0.1427E-11  0.0000E+00
     -6.367  0.1211E-14  0.0000E+00  0.1690E+00  0.0000E+00  0.2980E+02  0.0000E+00  0.4215E-01  0.0000E+00
     -6.339  0.1258E-15  0.0000E+00  0.1755E-01  0.0000E+00  0.3096E+01  0.0000E+00  0.4378E-02  0.0000E+00
     -6.311  0.0000E+00  0.0000E+00  0.0000E+00  0.0000E+00  0.0000E+00  0.0000E+00  0.0000E+00  0.0000E+00
     -6.284  0.0000E+00  0.0000E+00  0.0000E+00  0.0000E+00  0.0000E+00  0.0000E+00  0.0000E+00  0.0000E+00
     -6.256  0.0000E+00  0.0000E+00  0.0000E+00  0.0000E+00  0.0000E+00  0.0000E+00  0.0000E+00  0.0000E+00
     -6.228  0.0000E+00  0.0000E+00  0.0000E+00  0.0000E+00  0.0000E+00  0.0000E+00  0.0000E+00  0.0000E+00
     -6.200  0.0000E+00  0.0000E+00  0.0000E+00  0.0000E+00  0.0000E+00  0.0000E+00  0.0000E+00  0.0000E+00
     -6.172  0.0000E+00  0.0000E+00  0.0000E+00  0.0000E+00  0.0000E+00  0.0000E+00  0.0000E+00  0.0000E+00
     -6.145  0.0000E+00  0.0000E+00  0.0000E+00  0.0000E+00  0.0000E+00  0.0000E+00  0.0000E+00  0.0000E+00
     -6.117  0.0000E+00  0.2656E-21  0.0000E+00  0.2728E-08  0.0000E+00  0.6037E-06  0.0000E+00  0.8477E-09
     -6.089  0.0000E+00  0.1442E-13  0.0000E+00  0.1481E+00  0.0000E+00  0.3277E+02  0.0000E+00  0.4601E-01
     -6.061  0.0000E+00  0.1368E-15  0.0000E+00  0.1406E-02  0.0000E+00  0.3110E+00  0.0000E+00  0.4367E-03
     -6.034  0.0000E+00  0.0000E+00  0.0000E+00  0.0000E+00  0.0000E+00  0.0000E+00  0.0000E+00  0.0000E+00
     -6.006  0.0000E+00  0.0000E+00  0.0000E+00  0.0000E+00  0.0000E+00  0.0000E+00  0.0000E+00  0.0000E+00
     -5.978  0.0000E+00  0.0000E+00  0.0000E+00  0.0000E+00  0.0000E+00  0.0000E+00  0.0000E+00  0.0000E+00
     -5.950  0.0000E+00  0.0000E+00  0.0000E+00  0.0000E+00  0.0000E+00  0.0000E+00  0.0000E+00  0.0000E+00
     -5.922  0.0000E+00  0.0000E+00  0.0000E+00  0.0000E+00  0.0000E+00  0.0000E+00  0.0000E+00  0.0000E+00
     -5.895  0.0000E+00  0.0000E+00  0.0000E+00  0.0000E+00  0.0000E+00  0.0000E+00  0.0000E+00  0.0000E+00
     -5.867  0.0000E+00  0.0000E+00  0.0000E+00  0.0000E+00  0.0000E+00  0.0000E+00  0.0000E+00  0.0000E+00
     -5.839  0.0000E+00  0.0000E+00  0.0000E+00  0.0000E+00  0.0000E+00  0.0000E+00  0.0000E+00  0.0000E+00
     -5.811  0.0000E+00  0.0000E+00  0.0000E+00  0.0000E+00  0.0000E+00  0.0000E+00  0.0000E+00  0.0000E+00
     -5.784  0.0000E+00  0.0000E+00  0.0000E+00  0.0000E+00  0.0000E+00  0.0000E+00  0.0000E+00  0.0000E+00
     -5.756  0.0000E+00  0.0000E+00  0.0000E+00  0.0000E+00  0.0000E+00  0.0000E+00  0.0000E+00  0.0000E+00
     -5.728  0.0000E+00  0.0000E+00  0.0000E+00  0.0000E+00  0.0000E+00  0.0000E+00  0.0000E+00  0.0000E+00
     -5.700  0.0000E+00  0.0000E+00  0.0000E+00  0.0000E+00  0.0000E+00  0.0000E+00  0.0000E+00  0.0000E+00
     -5.672  0.0000E+00  0.0000E+00  0.0000E+00  0.0000E+00  0.0000E+00  0.0000E+00  0.0000E+00  0.0000E+00
     -5.645  0.0000E+00  0.0000E+00  0.0000E+00  0.0000E+00  0.0000E+00  0.0000E+00  0.0000E+00  0.0000E+00
     -5.617  0.0000E+00  0.0000E+00  0.0000E+00  0.0000E+00  0.0000E+00  0.0000E+00  0.0000E+00  0.0000E+00
     -5.589  0.0000E+00  0.0000E+00  0.0000E+00  0.0000E+00  0.0000E+00  0.0000E+00  0.0000E+00  0.0000E+00
     -5.561  0.0000E+00  0.0000E+00  0.0000E+00  0.0000E+00  0.0000E+00  0.0000E+00  0.0000E+00  0.0000E+00
     -5.534  0.0000E+00  0.0000E+00  0.0000E+00  0.0000E+00  0.0000E+00  0.0000E+00  0.0000E+00  0.0000E+00
     -5.506  0.0000E+00  0.0000E+00  0.0000E+00  0.0000E+00  0.0000E+00  0.0000E+00  0.0000E+00  0.0000E+00
     -5.478  0.5669E-15  0.0000E+00  0.3508E-15  0.0000E+00  0.4836E+01  0.0000E+00  0.4960E-03  0.0000E+00
     -5.450  0.3298E-14  0.0000E+00  0.2042E-14  0.0000E+00  0.2809E+02  0.0000E+00  0.2881E-02  0.0000E+00
     -5.422  0.0000E+00  0.0000E+00  0.0000E+00  0.0000E+00  0.0000E+00  0.0000E+00  0.0000E+00  0.0000E+00
     -5.395  0.0000E+00  0.0000E+00  0.0000E+00  0.0000E+00  0.0000E+00  0.0000E+00  0.0000E+00  0.0000E+00
     -5.367  0.0000E+00  0.0000E+00  0.0000E+00  0.0000E+00  0.0000E+00  0.0000E+00  0.0000E+00  0.0000E+00
     -5.339  0.0000E+00  0.0000E+00  0.0000E+00  0.0000E+00  0.0000E+00  0.0000E+00  0.0000E+00  0.0000E+00
     -5.311  0.0000E+00  0.0000E+00  0.0000E+00  0.0000E+00  0.0000E+00  0.0000E+00  0.0000E+00  0.0000E+00
     -5.284  0.6969E-02  0.0000E+00  0.2100E-02  0.0000E+00  0.1829E+00  0.0000E+00  0.4401E-03  0.0000E+00
     -5.256  0.5905E+00  0.0000E+00  0.1779E+00  0.0000E+00  0.1550E+02  0.0000E+00  0.3729E-01  0.0000E+00
     -5.228  0.0000E+00  0.0000E+00  0.0000E+00  0.0000E+00  0.0000E+00  0.0000E+00  0.0000E+00  0.0000E+00
     -5.200  0.0000E+00  0.0000E+00  0.0000E+00  0.0000E+00  0.0000E+00  0.0000E+00  0.0000E+00  0.0000E+00
     -5.172  0.0000E+00  0.0000E+00  0.0000E+00  0.0000E+00  0.0000E+00  0.0000E+00  0.0000E+00  0.0000E+00
     -5.145  0.3525E-26  0.0000E+00  0.1307E-26  0.0000E+00  0.3324E-10  0.0000E+00  0.7358E-14  0.0000E+00
     -5.117  0.2875E-14  0.0000E+00  0.1057E-14  0.0000E+00  0.2688E+02  0.0000E+00  0.5950E-02  0.0000E+00
     -5.089  0.7489E-15  0.0000E+00  0.2747E-15  0.0000E+00  0.6988E+01  0.0000E+00  0.1547E-02  0.0000E+00
     -5.061  0.0000E+00  0.4770E-28  0.0000E+00  0.1028E-27  0.0000E+00  0.3755E-12  0.0000E+00  0.2687E-16
     -5.034  0.0000E+00  0.2450E-14  0.0000E+00  0.5307E-14  0.0000E+00  0.1936E+02  0.0000E+00  0.1386E-02
     -5.006  0.0000E+00  0.1715E-14  0.0000E+00  0.3717E-14  0.0000E+00  0.1356E+02  0.0000E+00  0.9703E-03
     -4.978  0.0000E+00  0.0000E+00  0.0000E+00  0.0000E+00  0.0000E+00  0.0000E+00  0.0000E+00  0.0000E+00
     -4.950  0.0000E+00  0.0000E+00  0.0000E+00  0.0000E+00  0.0000E+00  0.0000E+00  0.0000E+00  0.0000E+00
     -4.922  0.0000E+00  0.0000E+00  0.0000E+00  0.0000E+00  0.0000E+00  0.0000E+00  0.0000E+00  0.0000E+00
     -4.895  0.1297E-04  0.0000E+00  0.3506E-06  0.0000E+00  0.1987E-05  0.0000E+00  0.1196E-09  0.0000E+00
     -4.867  0.7278E+01  0.0000E+00  0.4225E+00  0.0000E+00  0.3376E+02  0.0000E+00  0.5188E-01  0.0000E+00
     -4.839  0.4653E-02  0.0000E+00  0.5628E-02  0.0000E+00  0.7962E+00  0.0000E+00  0.1263E-02  0.0000E+00
     -4.811  0.0000E+00  0.0000E+00  0.0000E+00  0.0000E+00  0.0000E+00  0.0000E+00  0.0000E+00  0.0000E+00
     -4.784  0.0000E+00  0.0000E+00  0.0000E+00  0.0000E+00  0.0000E+00  0.0000E+00  0.0000E+00  0.0000E+00
     -4.756  0.0000E+00  0.0000E+00  0.0000E+00  0.0000E+00  0.0000E+00  0.0000E+00  0.0000E+00  0.0000E+00
     -4.728  0.0000E+00  0.0000E+00  0.0000E+00  0.0000E+00  0.0000E+00  0.0000E+00  0.0000E+00  0.0000E+00
     -4.700  0.0000E+00  0.2238E-17  0.0000E+00  0.8628E-15  0.0000E+00  0.6248E+00  0.0000E+00  0.1613E-03
     -4.673  0.0000E+00  0.1188E-15  0.0000E+00  0.4576E-13  0.0000E+00  0.3319E+02  0.0000E+00  0.8567E-02
     -4.645  0.0000E+00  0.4627E-12  0.0000E+00  0.3317E-01  0.0000E+00  0.4804E+01  0.0000E+00  0.7626E-02
     -4.617  0.0000E+00  0.2763E-11  0.0000E+00  0.1981E+00  0.0000E+00  0.2869E+02  0.0000E+00  0.4555E-01
     -4.589  0.0000E+00  0.0000E+00  0.0000E+00  0.0000E+00  0.0000E+00  0.0000E+00  0.0000E+00  0.0000E+00
     -4.561  0.0000E+00  0.0000E+00  0.0000E+00  0.0000E+00  0.0000E+00  0.0000E+00  0.0000E+00  0.0000E+00
     -4.534  0.0000E+00  0.0000E+00  0.0000E+00  0.0000E+00  0.0000E+00  0.0000E+00  0.0000E+00  0.0000E+00
     -4.506  0.0000E+00  0.0000E+00  0.0000E+00  0.0000E+00  0.0000E+00  0.0000E+00  0.0000E+00  0.0000E+00
     -4.478  0.0000E+00  0.0000E+00  0.0000E+00  0.0000E+00  0.0000E+00  0.0000E+00  0.0000E+00  0.0000E+00
     -4.450  0.0000E+00  0.0000E+00  0.0000E+00  0.0000E+00  0.0000E+00  0.0000E+00  0.0000E+00  0.0000E+00
     -4.423  0.0000E+00  0.0000E+00  0.0000E+00  0.0000E+00  0.0000E+00  0.0000E+00  0.0000E+00  0.0000E+00
     -4.395  0.0000E+00  0.0000E+00  0.0000E+00  0.0000E+00  0.0000E+00  0.0000E+00  0.0000E+00  0.0000E+00
     -4.367  0.0000E+00  0.0000E+00  0.0000E+00  0.0000E+00  0.0000E+00  0.0000E+00  0.0000E+00  0.0000E+00
     -4.339  0.0000E+00  0.0000E+00  0.0000E+00  0.0000E+00  0.0000E+00  0.0000E+00  0.0000E+00  0.0000E+00
     -4.311  0.0000E+00  0.0000E+00  0.0000E+00  0.0000E+00  0.0000E+00  0.0000E+00  0.0000E+00  0.0000E+00
     -4.284  0.0000E+00  0.2427E-10  0.0000E+00  0.7292E-11  0.0000E+00  0.6361E-09  0.0000E+00  0.1487E-11
     -4.256  0.0000E+00  0.5432E+00  0.0000E+00  0.1632E+00  0.0000E+00  0.1423E+02  0.0000E+00  0.3327E-01
     -4.228  0.0000E+00  0.5686E+00  0.0000E+00  0.2417E-01  0.0000E+00  0.1500E+01  0.0000E+00  0.3180E-02
     -4.200  0.0000E+00  0.6106E+01  0.0000E+00  0.1016E+00  0.0000E+00  0.1669E+01  0.0000E+00  0.6065E-04
     -4.173  0.0000E+00  0.0000E+00  0.0000E+00  0.0000E+00  0.0000E+00  0.0000E+00  0.0000E+00  0.0000E+00
     -4.145  0.0000E+00  0.0000E+00  0.0000E+00  0.0000E+00  0.0000E+00  0.0000E+00  0.0000E+00  0.0000E+00
     -4.117  0.0000E+00  0.0000E+00  0.0000E+00  0.0000E+00  0.0000E+00  0.0000E+00  0.0000E+00  0.0000E+00
     -4.089  0.0000E+00  0.0000E+00  0.0000E+00  0.0000E+00  0.0000E+00  0.0000E+00  0.0000E+00  0.0000E+00
     -4.061  0.0000E+00  0.0000E+00  0.0000E+00  0.0000E+00  0.0000E+00  0.0000E+00  0.0000E+00  0.0000E+00
     -4.034  0.0000E+00  0.0000E+00  0.0000E+00  0.0000E+00  0.0000E+00  0.0000E+00  0.0000E+00  0.0000E+00
     -4.006  0.0000E+00  0.0000E+00  0.0000E+00  0.0000E+00  0.0000E+00  0.0000E+00  0.0000E+00  0.0000E+00
     -3.978  0.0000E+00  0.0000E+00  0.0000E+00  0.0000E+00  0.0000E+00  0.0000E+00  0.0000E+00  0.0000E+00
     -3.950  0.0000E+00  0.0000E+00  0.0000E+00  0.0000E+00  0.0000E+00  0.0000E+00  0.0000E+00  0.0000E+00
     -3.923  0.0000E+00  0.0000E+00  0.0000E+00  0.0000E+00  0.0000E+00  0.0000E+00  0.0000E+00  0.0000E+00
     -3.895  0.0000E+00  0.0000E+00  0.0000E+00  0.0000E+00  0.0000E+00  0.0000E+00  0.0000E+00  0.0000E+00
     -3.867  0.0000E+00  0.0000E+00  0.0000E+00  0.0000E+00  0.0000E+00  0.0000E+00  0.0000E+00  0.0000E+00
     -3.839  0.0000E+00  0.0000E+00  0.0000E+00  0.0000E+00  0.0000E+00  0.0000E+00  0.0000E+00  0.0000E+00
     -3.811  0.0000E+00  0.0000E+00  0.0000E+00  0.0000E+00  0.0000E+00  0.0000E+00  0.0000E+00  0.0000E+00
     -3.784  0.0000E+00  0.0000E+00  0.0000E+00  0.0000E+00  0.0000E+00  0.0000E+00  0.0000E+00  0.0000E+00
     -3.756  0.0000E+00  0.0000E+00  0.0000E+00  0.0000E+00  0.0000E+00  0.0000E+00  0.0000E+00  0.0000E+00
     -3.728  0.0000E+00  0.0000E+00  0.0000E+00  0.0000E+00  0.0000E+00  0.0000E+00  0.0000E+00  0.0000E+00
     -3.700  0.0000E+00  0.0000E+00  0.0000E+00  0.0000E+00  0.0000E+00  0.0000E+00  0.0000E+00  0.0000E+00
     -3.673  0.0000E+00  0.0000E+00  0.0000E+00  0.0000E+00  0.0000E+00  0.0000E+00  0.0000E+00  0.0000E+00
     -3.645  0.0000E+00  0.0000E+00  0.0000E+00  0.0000E+00  0.0000E+00  0.0000E+00  0.0000E+00  0.0000E+00
     -3.617  0.0000E+00  0.0000E+00  0.0000E+00  0.0000E+00  0.0000E+00  0.0000E+00  0.0000E+00  0.0000E+00
     -3.589  0.0000E+00  0.0000E+00  0.0000E+00  0.0000E+00  0.0000E+00  0.0000E+00  0.0000E+00  0.0000E+00
     -3.561  0.0000E+00  0.0000E+00  0.0000E+00  0.0000E+00  0.0000E+00  0.0000E+00  0.0000E+00  0.0000E+00
     -3.534  0.0000E+00  0.0000E+00  0.0000E+00  0.0000E+00  0.0000E+00  0.0000E+00  0.0000E+00  0.0000E+00
     -3.506  0.0000E+00  0.0000E+00  0.0000E+00  0.0000E+00  0.0000E+00  0.0000E+00  0.0000E+00  0.0000E+00
     -3.478  0.0000E+00  0.0000E+00  0.0000E+00  0.0000E+00  0.0000E+00  0.0000E+00  0.0000E+00  0.0000E+00
     -3.450  0.0000E+00  0.0000E+00  0.0000E+00  0.0000E+00  0.0000E+00  0.0000E+00  0.0000E+00  0.0000E+00
     -3.423  0.0000E+00  0.0000E+00  0.0000E+00  0.0000E+00  0.0000E+00  0.0000E+00  0.0000E+00  0.0000E+00
     -3.395  0.0000E+00  0.0000E+00  0.0000E+00  0.0000E+00  0.0000E+00  0.0000E+00  0.0000E+00  0.0000E+00
     -3.367  0.0000E+00  0.0000E+00  0.0000E+00  0.0000E+00  0.0000E+00  0.0000E+00  0.0000E+00  0.0000E+00
     -3.339  0.0000E+00  0.0000E+00  0.0000E+00  0.0000E+00  0.0000E+00  0.0000E+00  0.0000E+00  0.0000E+00
     -3.311  0.0000E+00  0.0000E+00  0.0000E+00  0.0000E+00  0.0000E+00  0.0000E+00  0.0000E+00  0.0000E+00
     -3.284  0.0000E+00  0.0000E+00  0.0000E+00  0.0000E+00  0.0000E+00  0.0000E+00  0.0000E+00  0.0000E+00
     -3.256  0.0000E+00  0.0000E+00  0.0000E+00  0.0000E+00  0.0000E+00  0.0000E+00  0.0000E+00  0.0000E+00
     -3.228  0.0000E+00  0.0000E+00  0.0000E+00  0.0000E+00  0.0000E+00  0.0000E+00  0.0000E+00  0.0000E+00
     -3.200  0.0000E+00  0.0000E+00  0.0000E+00  0.0000E+00  0.0000E+00  0.0000E+00  0.0000E+00  0.0000E+00
     -3.173  0.0000E+00  0.0000E+00  0.0000E+00  0.0000E+00  0.0000E+00  0.0000E+00  0.0000E+00  0.0000E+00
     -3.145  0.0000E+00  0.0000E+00  0.0000E+00  0.0000E+00  0.0000E+00  0.0000E+00  0.0000E+00  0.0000E+00
     -3.117  0.0000E+00  0.0000E+00  0.0000E+00  0.0000E+00  0.0000E+00  0.0000E+00  0.0000E+00  0.0000E+00
     -3.089  0.0000E+00  0.0000E+00  0.0000E+00  0.0000E+00  0.0000E+00  0.0000E+00  0.0000E+00  0.0000E+00
     -3.061  0.0000E+00  0.0000E+00  0.0000E+00  0.0000E+00  0.0000E+00  0.0000E+00  0.0000E+00  0.0000E+00
     -3.034  0.0000E+00  0.0000E+00  0.0000E+00  0.0000E+00  0.0000E+00  0.0000E+00  0.0000E+00  0.0000E+00
     -3.006  0.0000E+00  0.0000E+00  0.0000E+00  0.0000E+00  0.0000E+00  0.0000E+00  0.0000E+00  0.0000E+00
     -2.978  0.0000E+00  0.0000E+00  0.0000E+00  0.0000E+00  0.0000E+00  0.0000E+00  0.0000E+00  0.0000E+00
     -2.950  0.0000E+00  0.0000E+00  0.0000E+00  0.0000E+00  0.0000E+00  0.0000E+00  0.0000E+00  0.0000E+00
     -2.923  0.0000E+00  0.0000E+00  0.0000E+00  0.0000E+00  0.0000E+00  0.0000E+00  0.0000E+00  0.0000E+00
     -2.895  0.0000E+00  0.0000E+00  0.0000E+00  0.0000E+00  0.0000E+00  0.0000E+00  0.0000E+00  0.0000E+00
     -2.867  0.0000E+00  0.0000E+00  0.0000E+00  0.0000E+00  0.0000E+00  0.0000E+00  0.0000E+00  0.0000E+00
     -2.839  0.0000E+00  0.0000E+00  0.0000E+00  0.0000E+00  0.0000E+00  0.0000E+00  0.0000E+00  0.0000E+00
     -2.811  0.0000E+00  0.0000E+00  0.0000E+00  0.0000E+00  0.0000E+00  0.0000E+00  0.0000E+00  0.0000E+00
     -2.784  0.0000E+00  0.0000E+00  0.0000E+00  0.0000E+00  0.0000E+00  0.0000E+00  0.0000E+00  0.0000E+00
     -2.756  0.6315E-10  0.0000E+00  0.1525E-10  0.0000E+00  0.4957E-11  0.0000E+00  0.7777E-13  0.0000E+00
     -2.728  0.4181E+01  0.0000E+00  0.1009E+01  0.0000E+00  0.3282E+00  0.0000E+00  0.5148E-02  0.0000E+00
     -2.700  0.5514E+00  0.0000E+00  0.1331E+00  0.0000E+00  0.4328E-01  0.0000E+00  0.6790E-03  0.0000E+00
     -2.673  0.0000E+00  0.0000E+00  0.0000E+00  0.0000E+00  0.0000E+00  0.0000E+00  0.0000E+00  0.0000E+00
     -2.645  0.0000E+00  0.0000E+00  0.0000E+00  0.0000E+00  0.0000E+00  0.0000E+00  0.0000E+00  0.0000E+00
     -2.617  0.0000E+00  0.0000E+00  0.0000E+00  0.0000E+00  0.0000E+00  0.0000E+00  0.0000E+00  0.0000E+00
     -2.589  0.0000E+00  0.0000E+00  0.0000E+00  0.0000E+00  0.0000E+00  0.0000E+00  0.0000E+00  0.0000E+00
     -2.561  0.0000E+00  0.0000E+00  0.0000E+00  0.0000E+00  0.0000E+00  0.0000E+00  0.0000E+00  0.0000E+00
     -2.534  0.0000E+00  0.0000E+00  0.0000E+00  0.0000E+00  0.0000E+00  0.0000E+00  0.0000E+00  0.0000E+00
     -2.506  0.0000E+00  0.0000E+00  0.0000E+00  0.0000E+00  0.0000E+00  0.0000E+00  0.0000E+00  0.0000E+00
     -2.478  0.0000E+00  0.0000E+00  0.0000E+00  0.0000E+00  0.0000E+00  0.0000E+00  0.0000E+00  0.0000E+00
     -2.450  0.0000E+00  0.0000E+00  0.0000E+00  0.0000E+00  0.0000E+00  0.0000E+00  0.0000E+00  0.0000E+00
     -2.423  0.0000E+00  0.0000E+00  0.0000E+00  0.0000E+00  0.0000E+00  0.0000E+00  0.0000E+00  0.0000E+00
     -2.395  0.0000E+00  0.0000E+00  0.0000E+00  0.0000E+00  0.0000E+00  0.0000E+00  0.0000E+00  0.0000E+00
     -2.367  0.0000E+00  0.6760E-13  0.0000E+00  0.1719E-13  0.0000E+00  0.5338E-14  0.0000E+00  0.5221E-16
     -2.339  0.0000E+00  0.2696E+01  0.0000E+00  0.6857E+00  0.0000E+00  0.2129E+00  0.0000E+00  0.2082E-02
     -2.312  0.0000E+00  0.1781E+01  0.0000E+00  0.4529E+00  0.0000E+00  0.1406E+00  0.0000E+00  0.1375E-02
     -2.284  0.0000E+00  0.0000E+00  0.0000E+00  0.0000E+00  0.0000E+00  0.0000E+00  0.0000E+00  0.0000E+00
     -2.256  0.0000E+00  0.0000E+00  0.0000E+00  0.0000E+00  0.0000E+00  0.0000E+00  0.0000E+00  0.0000E+00
     -2.228  0.0000E+00  0.0000E+00  0.0000E+00  0.0000E+00  0.0000E+00  0.0000E+00  0.0000E+00  0.0000E+00
     -2.200  0.0000E+00  0.0000E+00  0.0000E+00  0.0000E+00  0.0000E+00  0.0000E+00  0.0000E+00  0.0000E+00
     -2.173  0.0000E+00  0.0000E+00  0.0000E+00  0.0000E+00  0.0000E+00  0.0000E+00  0.0000E+00  0.0000E+00
     -2.145  0.0000E+00  0.0000E+00  0.0000E+00  0.0000E+00  0.0000E+00  0.0000E+00  0.0000E+00  0.0000E+00
     -2.117  0.0000E+00  0.0000E+00  0.0000E+00  0.0000E+00  0.0000E+00  0.0000E+00  0.0000E+00  0.0000E+00
     -2.089  0.0000E+00  0.0000E+00  0.0000E+00  0.0000E+00  0.0000E+00  0.0000E+00  0.0000E+00  0.0000E+00
     -2.062  0.0000E+00  0.0000E+00  0.0000E+00  0.0000E+00  0.0000E+00  0.0000E+00  0.0000E+00  0.0000E+00
     -2.034  0.0000E+00  0.0000E+00  0.0000E+00  0.0000E+00  0.0000E+00  0.0000E+00  0.0000E+00  0.0000E+00
     -2.006  0.0000E+00  0.0000E+00  0.0000E+00  0.0000E+00  0.0000E+00  0.0000E+00  0.0000E+00  0.0000E+00
     -1.978  0.0000E+00  0.0000E+00  0.0000E+00  0.0000E+00  0.0000E+00  0.0000E+00  0.0000E+00  0.0000E+00
     -1.950  0.0000E+00  0.0000E+00  0.0000E+00  0.0000E+00  0.0000E+00  0.0000E+00  0.0000E+00  0.0000E+00
     -1.923  0.0000E+00  0.0000E+00  0.0000E+00  0.0000E+00  0.0000E+00  0.0000E+00  0.0000E+00  0.0000E+00
     -1.895  0.0000E+00  0.0000E+00  0.0000E+00  0.0000E+00  0.0000E+00  0.0000E+00  0.0000E+00  0.0000E+00
     -1.867  0.0000E+00  0.0000E+00  0.0000E+00  0.0000E+00  0.0000E+00  0.0000E+00  0.0000E+00  0.0000E+00
     -1.839  0.0000E+00  0.0000E+00  0.0000E+00  0.0000E+00  0.0000E+00  0.0000E+00  0.0000E+00  0.0000E+00
     -1.812  0.0000E+00  0.0000E+00  0.0000E+00  0.0000E+00  0.0000E+00  0.0000E+00  0.0000E+00  0.0000E+00
     -1.784  0.0000E+00  0.0000E+00  0.0000E+00  0.0000E+00  0.0000E+00  0.0000E+00  0.0000E+00  0.0000E+00
     -1.756  0.0000E+00  0.0000E+00  0.0000E+00  0.0000E+00  0.0000E+00  0.0000E+00  0.0000E+00  0.0000E+00
     -1.728  0.0000E+00  0.0000E+00  0.0000E+00  0.0000E+00  0.0000E+00  0.0000E+00  0.0000E+00  0.0000E+00
     -1.700  0.0000E+00  0.0000E+00  0.0000E+00  0.0000E+00  0.0000E+00  0.0000E+00  0.0000E+00  0.0000E+00
     -1.673  0.0000E+00  0.0000E+00  0.0000E+00  0.0000E+00  0.0000E+00  0.0000E+00  0.0000E+00  0.0000E+00
     -1.645  0.0000E+00  0.0000E+00  0.0000E+00  0.0000E+00  0.0000E+00  0.0000E+00  0.0000E+00  0.0000E+00
     -1.617  0.0000E+00  0.0000E+00  0.0000E+00  0.0000E+00  0.0000E+00  0.0000E+00  0.0000E+00  0.0000E+00
     -1.589  0.0000E+00  0.0000E+00  0.0000E+00  0.0000E+00  0.0000E+00  0.0000E+00  0.0000E+00  0.0000E+00
     -1.562  0.0000E+00  0.0000E+00  0.0000E+00  0.0000E+00  0.0000E+00  0.0000E+00  0.0000E+00  0.0000E+00
     -1.534  0.0000E+00  0.0000E+00  0.0000E+00  0.0000E+00  0.0000E+00  0.0000E+00  0.0000E+00  0.0000E+00
     -1.506  0.0000E+00  0.0000E+00  0.0000E+00  0.0000E+00  0.0000E+00  0.0000E+00  0.0000E+00  0.0000E+00
     -1.478  0.0000E+00  0.0000E+00  0.0000E+00  0.0000E+00  0.0000E+00  0.0000E+00  0.0000E+00  0.0000E+00
     -1.450  0.0000E+00  0.0000E+00  0.0000E+00  0.0000E+00  0.0000E+00  0.0000E+00  0.0000E+00  0.0000E+00
     -1.423  0.0000E+00  0.0000E+00  0.0000E+00  0.0000E+00  0.0000E+00  0.0000E+00  0.0000E+00  0.0000E+00
     -1.395  0.0000E+00  0.0000E+00  0.0000E+00  0.0000E+00  0.0000E+00  0.0000E+00  0.0000E+00  0.0000E+00
     -1.367  0.0000E+00  0.0000E+00  0.0000E+00  0.0000E+00  0.0000E+00  0.0000E+00  0.0000E+00  0.0000E+00
     -1.339  0.0000E+00  0.0000E+00  0.0000E+00  0.0000E+00  0.0000E+00  0.0000E+00  0.0000E+00  0.0000E+00
     -1.312  0.0000E+00  0.0000E+00  0.0000E+00  0.0000E+00  0.0000E+00  0.0000E+00  0.0000E+00  0.0000E+00
     -1.284  0.0000E+00  0.0000E+00  0.0000E+00  0.0000E+00  0.0000E+00  0.0000E+00  0.0000E+00  0.0000E+00
     -1.256  0.0000E+00  0.0000E+00  0.0000E+00  0.0000E+00  0.0000E+00  0.0000E+00  0.0000E+00  0.0000E+00
     -1.228  0.0000E+00  0.0000E+00  0.0000E+00  0.0000E+00  0.0000E+00  0.0000E+00  0.0000E+00  0.0000E+00
     -1.200  0.0000E+00  0.0000E+00  0.0000E+00  0.0000E+00  0.0000E+00  0.0000E+00  0.0000E+00  0.0000E+00
     -1.173  0.0000E+00  0.0000E+00  0.0000E+00  0.0000E+00  0.0000E+00  0.0000E+00  0.0000E+00  0.0000E+00
     -1.145  0.0000E+00  0.0000E+00  0.0000E+00  0.0000E+00  0.0000E+00  0.0000E+00  0.0000E+00  0.0000E+00
     -1.117  0.3133E-28  0.0000E+00  0.4022E-12  0.0000E+00  0.2345E-13  0.0000E+00  0.4355E-15  0.0000E+00
     -1.089  0.2557E-15  0.0000E+00  0.3283E+01  0.0000E+00  0.1914E+00  0.0000E+00  0.3554E-02  0.0000E+00
     -1.062  0.1171E-15  0.0000E+00  0.1503E+01  0.0000E+00  0.8763E-01  0.0000E+00  0.1627E-02  0.0000E+00
     -1.034  0.0000E+00  0.0000E+00  0.0000E+00  0.0000E+00  0.0000E+00  0.0000E+00  0.0000E+00  0.0000E+00
     -1.006  0.0000E+00  0.0000E+00  0.0000E+00  0.0000E+00  0.0000E+00  0.0000E+00  0.0000E+00  0.0000E+00
     -0.978  0.0000E+00  0.0000E+00  0.0000E+00  0.0000E+00  0.0000E+00  0.0000E+00  0.0000E+00  0.0000E+00
     -0.950  0.0000E+00  0.0000E+00  0.0000E+00  0.0000E+00  0.0000E+00  0.0000E+00  0.0000E+00  0.0000E+00
     -0.923  0.0000E+00  0.0000E+00  0.0000E+00  0.0000E+00  0.0000E+00  0.0000E+00  0.0000E+00  0.0000E+00
     -0.895  0.0000E+00  0.0000E+00  0.0000E+00  0.0000E+00  0.0000E+00  0.0000E+00  0.0000E+00  0.0000E+00
     -0.867  0.0000E+00  0.0000E+00  0.0000E+00  0.0000E+00  0.0000E+00  0.0000E+00  0.0000E+00  0.0000E+00
     -0.839  0.0000E+00  0.0000E+00  0.0000E+00  0.0000E+00  0.0000E+00  0.0000E+00  0.0000E+00  0.0000E+00
     -0.812  0.0000E+00  0.0000E+00  0.0000E+00  0.0000E+00  0.0000E+00  0.0000E+00  0.0000E+00  0.0000E+00
     -0.784  0.0000E+00  0.0000E+00  0.0000E+00  0.0000E+00  0.0000E+00  0.0000E+00  0.0000E+00  0.0000E+00
     -0.756  0.0000E+00  0.0000E+00  0.0000E+00  0.0000E+00  0.0000E+00  0.0000E+00  0.0000E+00  0.0000E+00
     -0.728  0.0000E+00  0.0000E+00  0.0000E+00  0.0000E+00  0.0000E+00  0.0000E+00  0.0000E+00  0.0000E+00
     -0.700  0.0000E+00  0.0000E+00  0.0000E+00  0.0000E+00  0.0000E+00  0.0000E+00  0.0000E+00  0.0000E+00
     -0.673  0.0000E+00  0.0000E+00  0.0000E+00  0.0000E+00  0.0000E+00  0.0000E+00  0.0000E+00  0.0000E+00
     -0.645  0.0000E+00  0.1758E-20  0.0000E+00  0.2531E-04  0.0000E+00  0.9935E-06  0.0000E+00  0.5205E-07
     -0.617  0.0000E+00  0.3047E-15  0.0000E+00  0.4386E+01  0.0000E+00  0.1722E+00  0.0000E+00  0.9019E-02
     -0.589  0.0000E+00  0.0000E+00  0.0000E+00  0.0000E+00  0.0000E+00  0.0000E+00  0.0000E+00  0.0000E+00
     -0.562  0.0000E+00  0.0000E+00  0.0000E+00  0.0000E+00  0.0000E+00  0.0000E+00  0.0000E+00  0.0000E+00
     -0.534  0.2087E-12  0.0000E+00  0.3108E-11  0.0000E+00  0.2479E-14  0.0000E+00  0.8704E-15  0.0000E+00
     -0.506  0.1442E+00  0.0000E+00  0.2147E+01  0.0000E+00  0.1712E-02  0.0000E+00  0.6012E-03  0.0000E+00
     -0.478  0.3599E-01  0.0000E+00  0.5360E+00  0.0000E+00  0.4275E-03  0.0000E+00  0.1501E-03  0.0000E+00
     -0.450  0.0000E+00  0.0000E+00  0.0000E+00  0.0000E+00  0.0000E+00  0.0000E+00  0.0000E+00  0.0000E+00
     -0.423  0.0000E+00  0.0000E+00  0.0000E+00  0.0000E+00  0.0000E+00  0.0000E+00  0.0000E+00  0.0000E+00
     -0.395  0.0000E+00  0.0000E+00  0.0000E+00  0.0000E+00  0.0000E+00  0.0000E+00  0.0000E+00  0.0000E+00
     -0.367  0.0000E+00  0.0000E+00  0.0000E+00  0.0000E+00  0.0000E+00  0.0000E+00  0.0000E+00  0.0000E+00
     -0.339  0.0000E+00  0.0000E+00  0.0000E+00  0.0000E+00  0.0000E+00  0.0000E+00  0.0000E+00  0.0000E+00
     -0.312  0.0000E+00  0.0000E+00  0.0000E+00  0.0000E+00  0.0000E+00  0.0000E+00  0.0000E+00  0.0000E+00
     -0.284  0.0000E+00  0.0000E+00  0.0000E+00  0.0000E+00  0.0000E+00  0.0000E+00  0.0000E+00  0.0000E+00
     -0.256  0.0000E+00  0.3957E-07  0.0000E+00  0.3562E-06  0.0000E+00  0.1341E-08  0.0000E+00  0.1149E-09
     -0.228  0.0000E+00  0.2322E+00  0.0000E+00  0.2090E+01  0.0000E+00  0.7868E-02  0.0000E+00  0.6741E-03
     -0.200  0.0000E+00  0.6804E-03  0.0000E+00  0.6124E-02  0.0000E+00  0.2305E-04  0.0000E+00  0.1975E-05
     -0.173  0.0000E+00  0.0000E+00  0.0000E+00  0.0000E+00  0.0000E+00  0.0000E+00  0.0000E+00  0.0000E+00
     -0.145  0.0000E+00  0.0000E+00  0.0000E+00  0.0000E+00  0.0000E+00  0.0000E+00  0.0000E+00  0.0000E+00
     -0.117  0.0000E+00  0.0000E+00  0.0000E+00  0.0000E+00  0.0000E+00  0.0000E+00  0.0000E+00  0.0000E+00
     -0.089  0.0000E+00  0.0000E+00  0.0000E+00  0.0000E+00  0.0000E+00  0.0000E+00  0.0000E+00  0.0000E+00
     -0.062  0.0000E+00  0.0000E+00  0.0000E+00  0.0000E+00  0.0000E+00  0.0000E+00  0.0000E+00  0.0000E+00
     -0.034  0.0000E+00  0.0000E+00  0.0000E+00  0.0000E+00  0.0000E+00  0.0000E+00  0.0000E+00  0.0000E+00
     -0.006  0.0000E+00  0.0000E+00  0.0000E+00  0.0000E+00  0.0000E+00  0.0000E+00  0.0000E+00  0.0000E+00
      0.022  0.0000E+00  0.0000E+00  0.0000E+00  0.0000E+00  0.0000E+00  0.0000E+00  0.0000E+00  0.0000E+00
      0.049  0.2931E-17  0.0000E+00  0.2834E-16  0.0000E+00  0.7195E-18  0.0000E+00  0.2389E-20  0.0000E+00
      0.077  0.1701E-01  0.0000E+00  0.1644E+00  0.0000E+00  0.4174E-02  0.0000E+00  0.1386E-04  0.0000E+00
      0.105  0.3580E-01  0.0000E+00  0.3462E+00  0.0000E+00  0.8788E-02  0.0000E+00  0.2918E-04  0.0000E+00
      0.133  0.0000E+00  0.0000E+00  0.0000E+00  0.0000E+00  0.0000E+00  0.0000E+00  0.0000E+00  0.0000E+00
      0.161  0.0000E+00  0.8039E-06  0.0000E+00  0.1572E-02  0.0000E+00  0.6070E-05  0.0000E+00  0.2686E-06
      0.188  0.0000E+00  0.3750E-03  0.0000E+00  0.7331E+00  0.0000E+00  0.2831E-02  0.0000E+00  0.1253E-03
      0.216  0.0000E+00  0.0000E+00  0.0000E+00  0.0000E+00  0.0000E+00  0.0000E+00  0.0000E+00  0.0000E+00
      0.244  0.0000E+00  0.0000E+00  0.0000E+00  0.0000E+00  0.0000E+00  0.0000E+00  0.0000E+00  0.0000E+00
      0.272  0.0000E+00  0.0000E+00  0.0000E+00  0.0000E+00  0.0000E+00  0.0000E+00  0.0000E+00  0.0000E+00
      0.299  0.0000E+00  0.0000E+00  0.0000E+00  0.0000E+00  0.0000E+00  0.0000E+00  0.0000E+00  0.0000E+00
      0.327  0.0000E+00  0.0000E+00  0.0000E+00  0.0000E+00  0.0000E+00  0.0000E+00  0.0000E+00  0.0000E+00
      0.355  0.0000E+00  0.0000E+00  0.0000E+00  0.0000E+00  0.0000E+00  0.0000E+00  0.0000E+00  0.0000E+00
      0.383  0.0000E+00  0.0000E+00  0.0000E+00  0.0000E+00  0.0000E+00  0.0000E+00  0.0000E+00  0.0000E+00
      0.411  0.0000E+00  0.0000E+00  0.0000E+00  0.0000E+00  0.0000E+00  0.0000E+00  0.0000E+00  0.0000E+00
      0.438  0.0000E+00  0.0000E+00  0.0000E+00  0.0000E+00  0.0000E+00  0.0000E+00  0.0000E+00  0.0000E+00
      0.466  0.0000E+00  0.0000E+00  0.0000E+00  0.0000E+00  0.0000E+00  0.0000E+00  0.0000E+00  0.0000E+00
      0.494  0.0000E+00  0.0000E+00  0.0000E+00  0.0000E+00  0.0000E+00  0.0000E+00  0.0000E+00  0.0000E+00
      0.522  0.0000E+00  0.0000E+00  0.0000E+00  0.0000E+00  0.0000E+00  0.0000E+00  0.0000E+00  0.0000E+00
      0.549  0.0000E+00  0.0000E+00  0.0000E+00  0.0000E+00  0.0000E+00  0.0000E+00  0.0000E+00  0.0000E+00
