    2    2  200    2
  0.2456500E+04  0.1700000E-08  0.1700000E-08  0.1700000E-08  0.5000000E-15
  1.000000000000000E-004
  CAR 
 CuPd                                    
     20      1     16
 
  0.0000000E+00  0.0000000E+00  0.0000000E+00  0.1000000E+01
    1       -7.404700     -6.626583
    2       -6.371523     -6.097413
    3       -6.371523     -6.097413
    4       -5.474317     -5.034392
    5       -5.474307     -5.034385
    6       -5.275570     -4.692910
    7       -5.119831     -4.692905
    8       -5.119822     -4.640965
    9       -4.878330     -4.640965
   10       -4.873948     -4.260664
   11       -4.873948     -4.223069
   12       -2.732372     -2.340201
   13       -1.091057     -0.629413
   14       -1.091057     -0.629413
   15       -0.509017     -0.238020
   16        0.078900      0.170697
