       N       E                     dE             d eps       ncg     rms          rms(c)
DAV:   1     0.151380077870E+03    0.15138E+03   -0.26838E+03    64   0.628E+02
DAV:   2     0.104030719361E+03   -0.47349E+02   -0.46222E+02   128   0.994E+01
DAV:   3     0.596857794323E+02   -0.44345E+02   -0.40364E+02   128   0.139E+02
DAV:   4     0.113389091785E+02   -0.48347E+02   -0.47118E+02   128   0.223E+02
DAV:   5     0.236302240787E+01   -0.89759E+01   -0.89639E+01   120   0.118E+02
DAV:   6    -0.286972795219E+01   -0.52328E+01   -0.52318E+01   128   0.259E+01
DAV:   7    -0.469293355013E+01   -0.18232E+01   -0.18228E+01   112   0.234E+01
DAV:   8    -0.471229898978E+01   -0.19365E-01   -0.19365E-01   120   0.257E+00    0.825E+00
DAV:   9    -0.462299790812E+01    0.89301E-01   -0.28702E-02   128   0.208E+00    0.716E+00
DAV:  10    -0.430117271429E+01    0.32183E+00   -0.74220E-01   112   0.847E+00    0.452E+00
DAV:  11    -0.421637968376E+01    0.84793E-01   -0.46653E-02   128   0.242E+00    0.492E+00
DAV:  12    -0.414531619824E+01    0.71063E-01   -0.76904E-03   120   0.965E-01    0.534E+00
DAV:  13    -0.434968369481E+01   -0.20437E+00   -0.52223E-01   120   0.111E+01    0.281E+00
DAV:  14    -0.434584921814E+01    0.38345E-02   -0.96874E-03   112   0.157E+00    0.301E+00
DAV:  15    -0.428605501145E+01    0.59794E-01   -0.18709E-01   104   0.624E+00    0.167E+00
DAV:  16    -0.428572516028E+01    0.32985E-03   -0.18627E-02   112   0.184E+00    0.115E+00
DAV:  17    -0.427974666713E+01    0.59785E-02   -0.97596E-02   128   0.478E+00    0.606E-01
DAV:  18    -0.428170739024E+01   -0.19607E-02   -0.58385E-03   120   0.972E-01    0.368E-01
DAV:  19    -0.428043749366E+01    0.12699E-02   -0.88429E-04   120   0.616E-01    0.350E-01
DAV:  20    -0.427899612338E+01    0.14414E-02   -0.47027E-03   112   0.141E+00    0.203E-01
DAV:  21    -0.427896760991E+01    0.28513E-04   -0.23488E-04   120   0.153E-01    0.162E-01
DAV:  22    -0.427894191394E+01    0.25696E-04   -0.10390E-03    80   0.230E-01    0.803E-02
DAV:  23    -0.427895757642E+01   -0.15662E-04   -0.18726E-04   120   0.157E-01    0.805E-02
DAV:  24    -0.427892254823E+01    0.35028E-04   -0.23365E-04   112   0.403E-01    0.444E-02
DAV:  25    -0.427890485133E+01    0.17697E-04   -0.13969E-04   112   0.103E-01    0.355E-02
DAV:  26    -0.427892346007E+01   -0.18609E-04   -0.78394E-06    64   0.667E-02    0.267E-02
DAV:  27    -0.427893520707E+01   -0.11747E-04   -0.29000E-05    88   0.434E-02    0.743E-03
DAV:  28    -0.427893554312E+01   -0.33606E-06   -0.33670E-06   104   0.197E-02
   1 F= -.42789355E+01 E0= -.42789355E+01  d E =-.427894E+01  mag=     2.0017
       N       E                     dE             d eps       ncg     rms          rms(c)
DAV:   1    -0.427921390817E+01   -0.27870E-03   -0.43368E-01    96   0.231E+01    0.910E-02
DAV:   2    -0.427909484848E+01    0.11906E-03   -0.89804E-04    64   0.262E-01    0.860E-02
DAV:   3    -0.427915921856E+01   -0.64370E-04   -0.18293E-04   120   0.190E-01    0.717E-02
DAV:   4    -0.427927594763E+01   -0.11673E-03   -0.11312E-04    80   0.240E-01    0.501E-02
DAV:   5    -0.427932268655E+01   -0.46739E-04   -0.41584E-06    80   0.340E-02    0.458E-02
DAV:   6    -0.427935813427E+01   -0.35448E-04   -0.73334E-05    88   0.279E-01    0.115E-02
DAV:   7    -0.427934593604E+01    0.12198E-04   -0.13760E-06    56   0.271E-02    0.106E-02
DAV:   8    -0.427936307503E+01   -0.17139E-04   -0.84241E-06    72   0.552E-02    0.561E-03
DAV:   9    -0.427936347011E+01   -0.39508E-06   -0.25527E-06    64   0.191E-02
   2 F= -.42793635E+01 E0= -.42793635E+01  d E =-.427927E-03  mag=     1.9999
       N       E                     dE             d eps       ncg     rms          rms(c)
DAV:   1    -0.427937701794E+01   -0.13943E-04   -0.17630E-02    96   0.465E+00    0.185E-02
DAV:   2    -0.427935842252E+01    0.18595E-04   -0.35001E-05    64   0.527E-02    0.179E-02
DAV:   3    -0.427936342610E+01   -0.50036E-05   -0.74971E-06   112   0.344E-02    0.153E-02
DAV:   4    -0.427937682981E+01   -0.13404E-04   -0.44094E-06    64   0.376E-02    0.107E-02
DAV:   5    -0.427937998320E+01   -0.31534E-05   -0.52319E-07    64   0.191E-02    0.103E-02
DAV:   6    -0.427938478603E+01   -0.48028E-05   -0.61632E-07    56   0.336E-02    0.361E-03
DAV:   7    -0.427938593153E+01   -0.11455E-05   -0.27576E-07    56   0.133E-02    0.174E-03
DAV:   8    -0.427938623161E+01   -0.30008E-06   -0.12940E-07    48   0.158E-02
   3 F= -.42793862E+01 E0= -.42793862E+01  d E =-.450688E-03  mag=     2.0000
