CuPd                                    
   1.00000000000000     
    17.0000000000000000    0.0000000000000000    0.0000000000000000
     0.0000000000000000   17.0000000000000000    0.0000000000000000
     0.0000000000000000    0.0000000000000000   17.0000000000000000
   Pd
     2
Direct
  0.0000000000000000  0.0000000000000000  0.9274159187933927
  0.0000000000000000  0.0000000000000000  0.0725840812066073
 
  0.00000000E+00  0.00000000E+00  0.00000000E+00
  0.00000000E+00  0.00000000E+00  0.00000000E+00
