PROCAR new format
# of k-points:    1         # of bands:  16         # of ions:   2

 k-point    1 :    0.00000000 0.00000000 0.00000000     weight = 1.00000000

band   1 # energy   -7.40470030 # occ.  1.00000000
 
ion      s      p      d      f    tot
  1  0.031  0.012  0.456  0.001  0.500
  2  0.031  0.012  0.456  0.001  0.500
tot  0.062  0.023  0.912  0.002  1.000
 
band   2 # energy   -6.37152347 # occ.  1.00000000
 
ion      s      p      d      f    tot
  1  0.000  0.003  0.457  0.001  0.460
  2  0.000  0.003  0.457  0.001  0.460
tot  0.000  0.005  0.914  0.001  0.920
 
band   3 # energy   -6.37152347 # occ.  1.00000000
 
ion      s      p      d      f    tot
  1  0.000  0.003  0.457  0.001  0.460
  2  0.000  0.003  0.457  0.001  0.460
tot  0.000  0.005  0.914  0.001  0.920
 
band   4 # energy   -5.47431715 # occ.  1.00000000
 
ion      s      p      d      f    tot
  1  0.000  0.000  0.457  0.000  0.457
  2  0.000  0.000  0.457  0.000  0.457
tot  0.000  0.000  0.915  0.000  0.915
 
band   5 # energy   -5.47430735 # occ.  1.00000000
 
ion      s      p      d      f    tot
  1  0.000  0.000  0.457  0.000  0.457
  2  0.000  0.000  0.457  0.000  0.457
tot  0.000  0.000  0.915  0.000  0.915
 
band   6 # energy   -5.27557040 # occ.  1.00000000
 
ion      s      p      d      f    tot
  1  0.017  0.005  0.436  0.001  0.458
  2  0.017  0.005  0.436  0.001  0.458
tot  0.033  0.010  0.871  0.002  0.916
 
band   7 # energy   -5.11983136 # occ.  1.00000000
 
ion      s      p      d      f    tot
  1  0.000  0.000  0.470  0.000  0.470
  2  0.000  0.000  0.470  0.000  0.470
tot  0.000  0.000  0.941  0.000  0.941
 
band   8 # energy   -5.11982233 # occ.  1.00000000
 
ion      s      p      d      f    tot
  1  0.000  0.000  0.470  0.000  0.470
  2  0.000  0.000  0.470  0.000  0.470
tot  0.000  0.000  0.941  0.000  0.941
 
band   9 # energy   -4.87832997 # occ.  1.00000000
 
ion      s      p      d      f    tot
  1  0.202  0.005  0.030  0.000  0.238
  2  0.202  0.005  0.030  0.000  0.238
tot  0.405  0.011  0.060  0.000  0.475
 
band  10 # energy   -4.87394822 # occ.  1.00000000
 
ion      s      p      d      f    tot
  1  0.000  0.003  0.465  0.001  0.469
  2  0.000  0.003  0.465  0.001  0.469
tot  0.000  0.006  0.930  0.001  0.938
 
band  11 # energy   -4.87394822 # occ.  1.00000000
 
ion      s      p      d      f    tot
  1  0.000  0.003  0.465  0.001  0.469
  2  0.000  0.003  0.465  0.001  0.469
tot  0.000  0.006  0.930  0.001  0.938
 
band  12 # energy   -2.73237153 # occ.  0.00000000
 
ion      s      p      d      f    tot
  1  0.131  0.032  0.010  0.000  0.174
  2  0.131  0.032  0.010  0.000  0.174
tot  0.263  0.063  0.021  0.000  0.347
 
band  13 # energy   -1.09105655 # occ.  0.00000000
 
ion      s      p      d      f    tot
  1  0.000  0.066  0.004  0.000  0.070
  2  0.000  0.066  0.004  0.000  0.070
tot  0.000  0.133  0.008  0.000  0.141
 
band  14 # energy   -1.09105655 # occ.  0.00000000
 
ion      s      p      d      f    tot
  1  0.000  0.066  0.004  0.000  0.070
  2  0.000  0.066  0.004  0.000  0.070
tot  0.000  0.133  0.008  0.000  0.141
 
band  15 # energy   -0.50901691 # occ.  0.00000000
 
ion      s      p      d      f    tot
  1  0.005  0.075  0.000  0.000  0.080
  2  0.005  0.075  0.000  0.000  0.080
tot  0.010  0.149  0.000  0.000  0.159
 
band  16 # energy    0.07890049 # occ.  0.00000000
 
ion      s      p      d      f    tot
  1  0.001  0.014  0.000  0.000  0.016
  2  0.001  0.014  0.000  0.000  0.016
tot  0.003  0.028  0.001  0.000  0.032
 
# of k-points:    1         # of bands:  16         # of ions:   2

 k-point    1 :    0.00000000 0.00000000 0.00000000     weight = 1.00000000

band   1 # energy   -6.62658281 # occ.  1.00000000
 
ion      s      p      d      f    tot
  1  0.047  0.014  0.433  0.001  0.496
  2  0.047  0.014  0.433  0.001  0.496
tot  0.093  0.029  0.867  0.003  0.992
 
band   2 # energy   -6.09741261 # occ.  1.00000000
 
ion      s      p      d      f    tot
  1  0.000  0.002  0.459  0.001  0.462
  2  0.000  0.002  0.459  0.001  0.462
tot  0.000  0.004  0.919  0.001  0.924
 
band   3 # energy   -6.09741260 # occ.  1.00000000
 
ion      s      p      d      f    tot
  1  0.000  0.002  0.459  0.001  0.462
  2  0.000  0.002  0.459  0.001  0.462
tot  0.000  0.004  0.919  0.001  0.924
 
band   4 # energy   -5.03439193 # occ.  1.00000000
 
ion      s      p      d      f    tot
  1  0.000  0.000  0.457  0.000  0.457
  2  0.000  0.000  0.457  0.000  0.457
tot  0.000  0.000  0.914  0.000  0.914
 
band   5 # energy   -5.03438512 # occ.  1.00000000
 
ion      s      p      d      f    tot
  1  0.000  0.000  0.457  0.000  0.457
  2  0.000  0.000  0.457  0.000  0.457
tot  0.000  0.000  0.914  0.000  0.914
 
band   6 # energy   -4.69290961 # occ.  1.00000000
 
ion      s      p      d      f    tot
  1  0.000  0.000  0.470  0.000  0.470
  2  0.000  0.000  0.470  0.000  0.470
tot  0.000  0.000  0.939  0.000  0.939
 
band   7 # energy   -4.69290534 # occ.  1.00000000
 
ion      s      p      d      f    tot
  1  0.000  0.000  0.470  0.000  0.470
  2  0.000  0.000  0.470  0.000  0.470
tot  0.000  0.000  0.939  0.000  0.939
 
band   8 # energy   -4.64096491 # occ.  1.00000000
 
ion      s      p      d      f    tot
  1  0.000  0.003  0.465  0.001  0.469
  2  0.000  0.003  0.465  0.001  0.469
tot  0.000  0.006  0.930  0.001  0.938
 
band   9 # energy   -4.64096490 # occ.  1.00000000
 
ion      s      p      d      f    tot
  1  0.000  0.003  0.465  0.001  0.469
  2  0.000  0.003  0.465  0.001  0.469
tot  0.000  0.006  0.930  0.001  0.938
 
band  10 # energy   -4.26066400 # occ.  0.00000000
 
ion      s      p      d      f    tot
  1  0.017  0.005  0.433  0.001  0.456
  2  0.017  0.005  0.433  0.001  0.456
tot  0.033  0.010  0.866  0.002  0.911
 
band  11 # energy   -4.22306873 # occ.  0.00000000
 
ion      s      p      d      f    tot
  1  0.184  0.003  0.050  0.000  0.237
  2  0.184  0.003  0.050  0.000  0.237
tot  0.368  0.006  0.101  0.000  0.475
 
band  12 # energy   -2.34020064 # occ.  0.00000000
 
ion      s      p      d      f    tot
  1  0.124  0.032  0.010  0.000  0.166
  2  0.124  0.032  0.010  0.000  0.166
tot  0.249  0.063  0.020  0.000  0.332
 
band  13 # energy   -0.62941348 # occ.  0.00000000
 
ion      s      p      d      f    tot
  1  0.000  0.061  0.002  0.000  0.063
  2  0.000  0.061  0.002  0.000  0.063
tot  0.000  0.122  0.005  0.000  0.127
 
band  14 # energy   -0.62941348 # occ.  0.00000000
 
ion      s      p      d      f    tot
  1  0.000  0.061  0.002  0.000  0.063
  2  0.000  0.061  0.002  0.000  0.063
tot  0.000  0.122  0.005  0.000  0.127
 
band  15 # energy   -0.23801954 # occ.  0.00000000
 
ion      s      p      d      f    tot
  1  0.006  0.058  0.000  0.000  0.065
  2  0.006  0.058  0.000  0.000  0.065
tot  0.013  0.116  0.000  0.000  0.130
 
band  16 # energy    0.17069701 # occ.  0.00000000
 
ion      s      p      d      f    tot
  1  0.000  0.020  0.000  0.000  0.020
  2  0.000  0.020  0.000  0.000  0.020
tot  0.000  0.041  0.000  0.000  0.041
 
