    2    2  200    2
  0.2456500E+04  0.1700000E-08  0.1700000E-08  0.1700000E-08  0.5000000E-15
  1.000000000000000E-004
  CAR 
 Cd                                      
     24      1     18
 
  0.0000000E+00  0.0000000E+00  0.0000000E+00  0.1000000E+01
    1      -11.779598    -11.779663   1.000000   1.000000
    2      -11.715847    -11.715912   1.000000   1.000000
    3      -11.715847    -11.715912   1.000000   1.000000
    4      -11.687878    -11.687987   1.000000   1.000000
    5      -11.687867    -11.687973   1.000000   1.000000
    6      -11.677715    -11.677823   1.000000   1.000000
    7      -11.677704    -11.677810   1.000000   1.000000
    8      -11.636453    -11.636518   1.000000   1.000000
    9      -11.636453    -11.636518   1.000000   1.000000
   10      -11.587375    -11.587439   1.000000   1.000000
   11       -6.242216     -6.242351   1.000000   1.000000
   12       -5.041244     -5.041335   1.000000   1.000000
   13       -1.622598     -1.622698   0.000000   0.000000
   14       -1.561845     -1.562255   0.000000   0.000000
   15       -1.561845     -1.562255   0.000000   0.000000
   16       -0.565103     -0.565288   0.000000   0.000000
   17       -0.565103     -0.565288   0.000000   0.000000
   18       -0.042832     -0.042025   0.000000   0.000000
