       N       E                     dE             d eps       ncg     rms          rms(c)
DAV:   1     0.263104209278E+03    0.26310E+03   -0.36272E+03    72   0.661E+02
DAV:   2     0.145565935502E+03   -0.11754E+03   -0.11285E+03   144   0.131E+02
DAV:   3     0.284239790946E+02   -0.11714E+03   -0.11305E+03   136   0.104E+02
DAV:   4     0.125982857535E+01   -0.27164E+02   -0.27107E+02    86   0.850E+01
DAV:   5     0.378946555191E+00   -0.88088E+00   -0.88074E+00   104   0.214E+01
DAV:   6     0.361366464339E+00   -0.17580E-01   -0.17578E-01   104   0.380E+00
DAV:   7     0.361216521095E+00   -0.14994E-03   -0.14993E-03   102   0.277E-01
DAV:   8     0.361210543661E+00   -0.59774E-05   -0.59773E-05   112   0.677E-02    0.655E+00
DAV:   9     0.311801751186E+00   -0.49409E-01   -0.64688E-04    84   0.222E-01    0.592E+00
DAV:  10     0.910581238581E-01   -0.22074E+00   -0.34077E-02    74   0.953E-01    0.765E-01
DAV:  11     0.911907321815E-01    0.13261E-03   -0.77678E-04   110   0.270E-01    0.719E-01
DAV:  12     0.924434964277E-01    0.12528E-02   -0.32668E-03    92   0.498E-01    0.498E-01
DAV:  13     0.929692947916E-01    0.52580E-03   -0.31793E-03    92   0.494E-01    0.445E-01
DAV:  14     0.921441401078E-01   -0.82515E-03   -0.85872E-04    84   0.206E-01    0.121E-01
DAV:  15     0.921657788112E-01    0.21639E-04   -0.40726E-05   100   0.494E-02    0.107E-01
DAV:  16     0.923282495023E-01    0.16247E-03   -0.81762E-04    76   0.240E-01    0.309E-02
DAV:  17     0.923287399755E-01    0.49047E-06   -0.14515E-05   108   0.334E-02    0.249E-02
DAV:  18     0.923282402346E-01   -0.49974E-06   -0.86507E-06    72   0.434E-02
   1 F= 0.92328240E-01 E0= 0.92328240E-01  d E =0.923282E-01  mag=    -0.0013
       N       E                     dE             d eps       ncg     rms          rms(c)
DAV:   1     0.513285026154E-01   -0.41000E-01   -0.43664E+01   108   0.884E+01    0.408E-01
DAV:   2     0.334125462141E-01   -0.17916E-01   -0.18116E-01    88   0.363E+00    0.170E-01
DAV:   3     0.330323641274E-01   -0.38018E-03   -0.30444E-03    96   0.416E-01    0.157E-01
DAV:   4     0.330816862183E-01    0.49322E-04   -0.23024E-04   104   0.118E-01    0.144E-01
DAV:   5     0.330667696708E-01   -0.14917E-04   -0.17089E-03    96   0.321E-01    0.941E-02
DAV:   6     0.330658656908E-01   -0.90398E-06   -0.49485E-05    86   0.287E-02    0.847E-02
DAV:   7     0.331391908753E-01    0.73325E-04   -0.20941E-04    96   0.164E-01    0.383E-02
DAV:   8     0.331384580495E-01   -0.73283E-06   -0.61417E-06    70   0.153E-02
   2 F= 0.33138458E-01 E0= 0.33138458E-01  d E =-.591898E-01  mag=     0.0001
       N       E                     dE             d eps       ncg     rms          rms(c)
DAV:   1     0.215295074388E+00    0.18216E+00   -0.28991E+02   108   0.224E+02    0.300E+00
DAV:   2    -0.467000312938E-01   -0.26200E+00   -0.26462E+00    72   0.165E+01    0.367E-01
DAV:   3    -0.521163447165E-01   -0.54163E-02   -0.47607E-02   108   0.169E+00    0.314E-01
DAV:   4    -0.522013331997E-01   -0.84988E-04   -0.11016E-03    92   0.193E-01    0.314E-01
DAV:   5    -0.519347652403E-01    0.26657E-03   -0.26097E-03    88   0.399E-01    0.221E-01
DAV:   6    -0.522684063035E-01   -0.33364E-03   -0.17504E-03   104   0.312E-01    0.160E-01
DAV:   7    -0.523418513067E-01   -0.73445E-04   -0.58869E-05    96   0.624E-02    0.168E-01
DAV:   8    -0.520890916996E-01    0.25276E-03   -0.16825E-03    88   0.482E-01    0.211E-02
DAV:   9    -0.520907928067E-01   -0.17011E-05   -0.61269E-05   100   0.433E-02    0.190E-02
DAV:  10    -0.520905518001E-01    0.24101E-06   -0.10261E-06    68   0.123E-02
   3 F= -.52090552E-01 E0= -.52090552E-01  d E =-.144419E+00  mag=    -0.0003
       N       E                     dE             d eps       ncg     rms          rms(c)
DAV:   1     0.211514016016E+01    0.21672E+01   -0.12229E+03   108   0.435E+02    0.156E+01
DAV:   2    -0.632431598765E-01   -0.21784E+01   -0.22073E+01    72   0.489E+01    0.684E-01
DAV:   3    -0.879921849778E-01   -0.24749E-01   -0.21039E-01    92   0.388E+00    0.521E-01
DAV:   4    -0.890397696949E-01   -0.10476E-02   -0.67706E-03    92   0.546E-01    0.559E-01
DAV:   5    -0.889646473083E-01    0.75122E-04   -0.70418E-04   104   0.237E-01    0.491E-01
DAV:   6    -0.893522234128E-01   -0.38758E-03   -0.63366E-03    88   0.612E-01    0.215E-01
DAV:   7    -0.893949504239E-01   -0.42727E-04   -0.32251E-04    78   0.930E-02    0.199E-01
DAV:   8    -0.895746798969E-01   -0.17973E-03   -0.19606E-03    88   0.539E-01    0.483E-02
DAV:   9    -0.895866561459E-01   -0.11976E-04   -0.35861E-04    94   0.151E-01    0.413E-02
DAV:  10    -0.895829729088E-01    0.36832E-05   -0.26563E-05    92   0.459E-02    0.329E-02
DAV:  11    -0.895790241552E-01    0.39488E-05   -0.36938E-05    76   0.486E-02    0.113E-02
DAV:  12    -0.895799552163E-01   -0.93106E-06   -0.20783E-06    60   0.210E-02
   4 F= -.89579955E-01 E0= -.89579955E-01  d E =-.181908E+00  mag=     0.0000
