 vasp.5.4.4.18Apr17-6-g9f103f2a35 (build Feb 27 2020 20:42:00) gamma-only       
  
 executed on             LinuxIFC date 2022.07.03  11:12:19
 running on    8 total cores
 distrk:  each k-point on    8 cores,    1 groups
 distr:  one band on NCORES_PER_BAND=   4 cores,    2 groups


--------------------------------------------------------------------------------------------------------


 INCAR:
 POTCAR:    PAW Cd_GW 18May2010                   
 POTCAR:    PAW Cd_GW 18May2010                   
  local pseudopotential read in
  partial core-charges read in
  partial kinetic energy density read in
  kinetic energy density of atom read in
  atomic valenz-charges read in
  non local Contribution for L=           2  read in
    real space projection operators read in
  non local Contribution for L=           2  read in
    real space projection operators read in
  non local Contribution for L=           0  read in
    real space projection operators read in
  non local Contribution for L=           0  read in
    real space projection operators read in
  non local Contribution for L=           1  read in
    real space projection operators read in
  non local Contribution for L=           1  read in
    real space projection operators read in
  non local Contribution for L=           3  read in
    real space projection operators read in
  non local Contribution for L=           3  read in
    real space projection operators read in
    PAW grid and wavefunctions read in
 
   number of l-projection  operators is LMAX  =           8
   number of lm-projection operators is LMMAX =          32
 

 ----------------------------------------------------------------------------- 
|                                                                             |
|  ADVICE TO THIS USER RUNNING 'VASP/VAMP'   (HEAR YOUR MASTER'S VOICE ...):  |
|                                                                             |
|      You have a (more or less) 'small supercell' and for smaller cells      |
|      it is recommended  to use the reciprocal-space projection scheme!      |
|      The real space optimization is not  efficient for small cells and it   |
|      is also less accurate ...                                              |
|      Therefore set LREAL=.FALSE. in the  INCAR file                         |
|                                                                             |
 ----------------------------------------------------------------------------- 

 Optimization of the real space projectors (new method)

 maximal supplied QI-value         = 14.36
 optimisation between [QCUT,QGAM] = [ 11.35, 22.84] = [ 36.05,146.02] Ry 
 Optimized for a Real-space Cutoff    1.52 Angstroem

   l    n(q)    QCUT    max X(q) W(low)/X(q) W(high)/X(q)  e(spline) 
   2      9    11.346    58.407    0.18E-03    0.98E-04    0.25E-06
   2      9    11.346    57.882    0.18E-03    0.10E-03    0.26E-06
   0     10    11.346    15.543    0.53E-04    0.26E-04    0.23E-06
   0     10    11.346    11.688    0.43E-04    0.25E-04    0.23E-06
   1     10    11.346     5.784    0.15E-03    0.22E-04    0.23E-06
   1     10    11.346     4.474    0.94E-04    0.13E-04    0.15E-06
   3      9    11.346    19.874    0.24E-03    0.42E-03    0.37E-06
   3      9    11.346    17.509    0.24E-03    0.42E-03    0.36E-06
  PAW Cd_GW 18May2010                   :
 energy of atom  1       EATOM=-1293.1815
 kinetic energy error for atom=    0.0054 (will be added to EATOM!!)
 
 
 POSCAR: Cd                                      
  positions in cartesian coordinates
  No initial velocities read in
 exchange correlation table for  LEXCH =        8
   RHO(1)=    0.500       N(1)  =     2000
   RHO(2)=  100.500       N(2)  =     4000
 


--------------------------------------------------------------------------------------------------------


 ion  position               nearest neighbor table
   1  0.000  0.000  0.917-   2 2.81
   2  0.000  0.000  0.083-   1 2.81
 
  LATTYP: Found a simple cubic cell.
 ALAT       =    17.0000000000
  
  Lattice vectors:
  
 A1 = (  17.0000000000,   0.0000000000,   0.0000000000)
 A2 = (   0.0000000000,  17.0000000000,   0.0000000000)
 A3 = (   0.0000000000,   0.0000000000,  17.0000000000)


Analysis of symmetry for initial positions (statically):
=====================================================================
 Subroutine PRICEL returns:
 Original cell was already a primitive cell.
 

 Routine SETGRP: Setting up the symmetry group for a 
 simple cubic supercell.


 Subroutine GETGRP returns: Found 16 space group operations
 (whereof 16 operations were pure point group operations)
 out of a pool of 48 trial point group operations.


The static configuration has the point symmetry D_4h.


Analysis of symmetry for dynamics (positions and initial velocities):
=====================================================================
 Subroutine PRICEL returns:
 Original cell was already a primitive cell.
 

 Routine SETGRP: Setting up the symmetry group for a 
 simple cubic supercell.


 Subroutine GETGRP returns: Found 16 space group operations
 (whereof 16 operations were pure point group operations)
 out of a pool of 48 trial point group operations.


The dynamic configuration has the point symmetry D_4h.


Analysis of structural, dynamic, and magnetic symmetry:
=====================================================================
 Subroutine PRICEL returns:
 Original cell was already a primitive cell.
 

 Routine SETGRP: Setting up the symmetry group for a 
 simple cubic supercell.


 Subroutine GETGRP returns: Found 16 space group operations
 (whereof 16 operations were pure point group operations)
 out of a pool of 48 trial point group operations.


The magnetic configuration has the point symmetry D_4h.


 Subroutine INISYM returns: Found 16 space group operations
 (whereof 16 operations are pure point group operations),
 and found     1 'primitive' translations

 
 
 KPOINTS: XXX                          ! Comment l

Automatic generation of k-mesh.
Space group operators:
 irot       det(A)        alpha          n_x          n_y          n_z        tau_x        tau_y        tau_z
    1     1.000000     0.000000     1.000000     0.000000     0.000000     0.000000     0.000000     0.000000
    2    -1.000000     0.000000     1.000000     0.000000     0.000000     0.000000     0.000000     0.000000
    3     1.000000    90.000000     0.000000     0.000000    -1.000000     0.000000     0.000000     0.000000
    4    -1.000000    90.000000     0.000000     0.000000    -1.000000     0.000000     0.000000     0.000000
    5     1.000000   180.000000     0.000000     0.000000     1.000000     0.000000     0.000000     0.000000
    6    -1.000000   180.000000     0.000000     0.000000     1.000000     0.000000     0.000000     0.000000
    7     1.000000    90.000000     0.000000     0.000000     1.000000     0.000000     0.000000     0.000000
    8    -1.000000    90.000000     0.000000     0.000000     1.000000     0.000000     0.000000     0.000000
    9     1.000000   180.000000     1.000000     0.000000     0.000000     0.000000     0.000000     0.000000
   10    -1.000000   180.000000     1.000000     0.000000     0.000000     0.000000     0.000000     0.000000
   11     1.000000   180.000000     0.707107     0.707107     0.000000     0.000000     0.000000     0.000000
   12    -1.000000   180.000000     0.707107     0.707107     0.000000     0.000000     0.000000     0.000000
   13     1.000000   180.000000     0.000000     1.000000     0.000000     0.000000     0.000000     0.000000
   14    -1.000000   180.000000     0.000000     1.000000     0.000000     0.000000     0.000000     0.000000
   15     1.000000   180.000000     0.707107    -0.707107     0.000000     0.000000     0.000000     0.000000
   16    -1.000000   180.000000     0.707107    -0.707107     0.000000     0.000000     0.000000     0.000000
 
 Subroutine IBZKPT returns following result:
 ===========================================
 
 Found      1 irreducible k-points:
 
 Following reciprocal coordinates:
            Coordinates               Weight
  0.000000  0.000000  0.000000      1.000000
 
 Following cartesian coordinates:
            Coordinates               Weight
  0.000000  0.000000  0.000000      1.000000
 


--------------------------------------------------------------------------------------------------------




 Dimension of arrays:
   k-points           NKPTS =      1   k-points in BZ     NKDIM =      1   number of bands    NBANDS=     18
   number of dos      NEDOS =    301   number of ions     NIONS =      2
   non local maximal  LDIM  =      8   non local SUM 2l+1 LMDIM =     32
   total plane-waves  NPLWV = 884736
   max r-space proj   IRMAX =   2691   max aug-charges    IRDMAX=  74009
   dimension x,y,z NGX =    96 NGY =   96 NGZ =   96
   dimension x,y,z NGXF=   192 NGYF=  192 NGZF=  192
   support grid    NGXF=   384 NGYF=  384 NGZF=  384
   ions per type =               2
   NGX,Y,Z   is equivalent  to a cutoff of   9.39,  9.39,  9.39 a.u.
   NGXF,Y,Z  is equivalent  to a cutoff of  18.78, 18.78, 18.78 a.u.

 SYSTEM =  Cd                                      
 POSCAR =  Cd                                      

 Startparameter for this run:
   NWRITE =      1    write-flag & timer
   PREC   = normal    normal or accurate (medium, high low for compatibility)
   ISTART =      0    job   : 0-new  1-cont  2-samecut
   ICHARG =      2    charge: 1-file 2-atom 10-const
   ISPIN  =      2    spin polarized calculation?
   LNONCOLLINEAR =      F non collinear calculations
   LSORBIT =      F    spin-orbit coupling
   INIWAV =      1    electr: 0-lowe 1-rand  2-diag
   LASPH  =      T    aspherical Exc in radial PAW
   METAGGA=      F    non-selfconsistent MetaGGA calc.

 Electronic Relaxation 1
   ENCUT  =  500.0 eV  36.75 Ry    6.06 a.u.  30.99 30.99 30.99*2*pi/ulx,y,z
   ENINI  =  500.0     initial cutoff
   ENAUG  =  591.2 eV  augmentation charge cutoff
   NELM   =    120;   NELMIN=  6; NELMDL= -8     # of ELM steps 
   EDIFF  = 0.1E-05   stopping-criterion for ELM
   LREAL  =      T    real-space projection
   NLSPLINE    = F    spline interpolate recip. space projectors
   LCOMPAT=      F    compatible to vasp.4.4
   GGA_COMPAT  = T    GGA compatible to vasp.4.4-vasp.4.6
   LMAXPAW     = -100 max onsite density
   LMAXMIX     =    2 max onsite mixed and CHGCAR
   VOSKOWN=      0    Vosko Wilk Nusair interpolation
   ROPT   =   -0.00050
 Ionic relaxation
   EDIFFG = -.1E-01   stopping-criterion for IOM
   NSW    =    200    number of steps for IOM
   NBLOCK =      1;   KBLOCK =    200    inner block; outer block 
   IBRION =      2    ionic relax: 0-MD 1-quasi-New 2-CG
   NFREE  =      1    steps in history (QN), initial steepest desc. (CG)
   ISIF   =      0    stress and relaxation
   IWAVPR =     11    prediction:  0-non 1-charg 2-wave 3-comb
   ISYM   =      2    0-nonsym 1-usesym 2-fastsym
   LCORR  =      T    Harris-Foulkes like correction to forces

   POTIM  = 0.5000    time-step for ionic-motion
   TEIN   =    0.0    initial temperature
   TEBEG  =    0.0;   TEEND  =   0.0 temperature during run
   SMASS  =  -3.00    Nose mass-parameter (am)
   estimated Nose-frequenzy (Omega)   =  0.10E-29 period in steps =****** mass=  -0.660E-26a.u.
   SCALEE = 1.0000    scale energy and forces
   NPACO  =    256;   APACO  = 16.0  distance and # of slots for P.C.
   PSTRESS=    0.0 pullay stress

  Mass of Ions in am
   POMASS = 112.41
  Ionic Valenz
   ZVAL   =  12.00
  Atomic Wigner-Seitz radii
   RWIGS  =  -1.00
  virtual crystal weights 
   VCA    =   1.00
   NELECT =      24.0000    total number of electrons
   NUPDOWN=      -1.0000    fix difference up-down

 DOS related values:
   EMIN   =  10.00;   EMAX   =-10.00  energy-range for DOS
   EFERMI =   0.00
   ISMEAR =     0;   SIGMA  =   0.01  broadening in eV -4-tet -1-fermi 0-gaus

 Electronic relaxation 2 (details)
   IALGO  =     38    algorithm
   LDIAG  =      T    sub-space diagonalisation (order eigenvalues)
   LSUBROT=      F    optimize rotation matrix (better conditioning)
   TURBO    =      0    0=normal 1=particle mesh
   IRESTART =      0    0=no restart 2=restart with 2 vectors
   NREBOOT  =      0    no. of reboots
   NMIN     =      0    reboot dimension
   EREF     =   0.00    reference energy to select bands
   IMIX   =      4    mixing-type and parameters
     AMIX     =   0.02;   BMIX     =  0.00
     AMIX_MAG =   0.10;   BMIX_MAG =  0.00
     AMIN     =   0.02
     WC   =   100.;   INIMIX=   1;  MIXPRE=   1;  MAXMIX= -45

 Intra band minimization:
   WEIMIN = 0.0010     energy-eigenvalue tresh-hold
   EBREAK =  0.14E-07  absolut break condition
   DEPER  =   0.30     relativ break condition  

   TIME   =   0.40     timestep for ELM

  volume/ion in A,a.u.               =    2456.50     16577.28
  Fermi-wavevector in a.u.,A,eV,Ry     =   0.277777  0.524922  1.049827  0.077160
  Thomas-Fermi vector in A             =   1.123834
 
 Write flags
   LWAVE        =      F    write WAVECAR
   LDOWNSAMPLE  =      F    k-point downsampling of WAVECAR
   LCHARG       =      F    write CHGCAR
   LVTOT        =      F    write LOCPOT, total local potential
   LVHAR        =      F    write LOCPOT, Hartree potential only
   LELF         =      F    write electronic localiz. function (ELF)
   LORBIT       =     10    0 simple, 1 ext, 2 COOP (PROOUT), +10 PAW based schemes


 Dipole corrections
   LMONO  =      F    monopole corrections only (constant potential shift)
   LDIPOL =      F    correct potential (dipole corrections)
   IDIPOL =      0    1-x, 2-y, 3-z, 4-all directions 
   EPSILON=  1.0000000 bulk dielectric constant

 Exchange correlation treatment:
   GGA     =    --    GGA type
   LEXCH   =     8    internal setting for exchange type
   VOSKOWN=      0    Vosko Wilk Nusair interpolation
   LHFCALC =     F    Hartree Fock is set to
   LHFONE  =     F    Hartree Fock one center treatment
   AEXX    =    0.0000 exact exchange contribution

 Linear response parameters
   LEPSILON=     F    determine dielectric tensor
   LRPA    =     F    only Hartree local field effects (RPA)
   LNABLA  =     F    use nabla operator in PAW spheres
   LVEL    =     F    velocity operator in full k-point grid
   LINTERFAST=   F  fast interpolation
   KINTER  =     0    interpolate to denser k-point grid
   CSHIFT  =0.1000    complex shift for real part using Kramers Kronig
   OMEGAMAX=  -1.0    maximum frequency
   DEG_THRESHOLD= 0.2000000E-02 threshold for treating states as degnerate
   RTIME   =   -0.100 relaxation time in fs
  (WPLASMAI=    0.000 imaginary part of plasma frequency in eV, 0.658/RTIME)
   DFIELD  = 0.0000000 0.0000000 0.0000000 field for delta impulse in time
 
 Orbital magnetization related:
   ORBITALMAG=     F  switch on orbital magnetization
   LCHIMAG   =     F  perturbation theory with respect to B field
   DQ        =  0.001000  dq finite difference perturbation B field
   LLRAUG    =     F  two centre corrections for induced B field



--------------------------------------------------------------------------------------------------------


 conjugate gradient relaxation of ions
 charge density and potential will be updated during run
 spin polarized calculation
 Variant of blocked Davidson
 Davidson routine will perform the subspace rotation
 perform sub-space diagonalisation
    after iterative eigenvector-optimisation
 modified Broyden-mixing scheme, WC =      100.0
 initial mixing is a Kerker type mixing with AMIX =  0.0200 and BMIX =      0.0000
 Hartree-type preconditioning will be used
 using additional bands            6
 real space projection scheme for non local part
 use partial core corrections
 calculate Harris-corrections to forces 
   (improved forces if not selfconsistent)
 use gradient corrections 
 use of overlap-Matrix (Vanderbilt PP)
 Gauss-broadening in eV      SIGMA  =   0.01


--------------------------------------------------------------------------------------------------------


  energy-cutoff  :      500.00
  volume of cell :     4913.00
      direct lattice vectors                 reciprocal lattice vectors
    17.000000000  0.000000000  0.000000000     0.058823529  0.000000000  0.000000000
     0.000000000 17.000000000  0.000000000     0.000000000  0.058823529  0.000000000
     0.000000000  0.000000000 17.000000000     0.000000000  0.000000000  0.058823529

  length of vectors
    17.000000000 17.000000000 17.000000000     0.058823529  0.058823529  0.058823529


 
 k-points in units of 2pi/SCALE and weight: XXX                          ! Comment l
   0.00000000  0.00000000  0.00000000       1.000
 
 k-points in reciprocal lattice and weights: XXX                          ! Comment l
   0.00000000  0.00000000  0.00000000       1.000
 
 position of ions in fractional coordinates (direct lattice) 
   0.00000000  0.00000000  0.91747059
   0.00000000  0.00000000  0.08252941
 
 position of ions in cartesian coordinates  (Angst):
   0.00000000  0.00000000 15.59700000
   0.00000000  0.00000000  1.40300000
 


--------------------------------------------------------------------------------------------------------


 use parallel FFT for orbitals z direction half grid
 k-point  1 :   0.0000 0.0000 0.0000  plane waves:   62145

 maximum and minimum number of plane-waves per node :     15539    15530

 maximum number of plane-waves:     62145
 maximum index in each direction: 
   IXMAX=   30   IYMAX=   30   IZMAX=   30
   IXMIN=  -30   IYMIN=  -30   IZMIN=    0


 real space projection operators:
  total allocation   :       1274.50 KBytes
  max/ min on nodes  :        331.00        312.50


 parallel 3D FFT for wavefunctions:
    minimum data exchange during FFTs selected (reduces bandwidth)
 parallel 3D FFT for charge:
    minimum data exchange during FFTs selected (reduces bandwidth)


 total amount of memory used by VASP MPI-rank0   251156. kBytes
=======================================================================

   base      :      30000. kBytes
   nonlr-proj:        384. kBytes
   fftplans  :     134259. kBytes
   grid      :      81985. kBytes
   one-center:         49. kBytes
   wavefun   :       4479. kBytes
 
     INWAV:  cpu time    0.0000: real time    0.0001
 Broyden mixing: mesh for mixing (old mesh)
   NGX = 61   NGY = 61   NGZ = 61
  (NGX  =192   NGY  =192   NGZ  =192)
  gives a total of 226981 points

 initial charge density was supplied:
 charge density of overlapping atoms calculated
 number of electron      24.0000000 magnetization       2.0000000
 keeping initial charge density in first step


--------------------------------------------------------------------------------------------------------


 Maximum index for non-local projection operator          625
 Maximum index for augmentation-charges         8978 (set IRDMAX)


--------------------------------------------------------------------------------------------------------


 First call to EWALD:  gamma=   0.104
 Maximum number of real-space cells 3x 3x 3
 Maximum number of reciprocal cells 3x 3x 3

    FEWALD:  cpu time    0.0030: real time    0.0027


--------------------------------------- Iteration      1(   1)  ---------------------------------------


    POTLOK:  cpu time    3.5075: real time    4.5763
    SETDIJ:  cpu time    3.3225: real time    3.3312
     EDDAV:  cpu time    3.2775: real time    3.2950
       DOS:  cpu time    0.0010: real time    0.0004
    --------------------------------------------
      LOOP:  cpu time   10.1085: real time   11.2030

 eigenvalue-minimisations  :    72
 total energy-change (2. order) : 0.2631042E+03  (-0.3627180E+03)
 number of electron      24.0000000 magnetization       2.0000000
 augmentation part       24.0000000 magnetization       2.0000000

 Free energy of the ion-electron system (eV)
  ---------------------------------------------------
  alpha Z        PSCENC =         1.20945365
  Ewald energy   TEWEN  =        54.06310733
  -Hartree energ DENC   =     -2421.72294800
  -exchange      EXHF   =         0.00000000
  -V(xc)+E(xc)   XCENC  =         7.75173080
  PAW double counting   =      2356.37325836    -2325.64604307
  entropy T*S    EENTRO =        -0.00000000
  eigenvalues    EBANDS =         4.72341038
  atomic energy  EATOM  =      2586.35223983
  Solvation  Ediel_sol  =         0.00000000
  ---------------------------------------------------
  free energy    TOTEN  =       263.10420928 eV

  energy without entropy =      263.10420928  energy(sigma->0) =      263.10420928


--------------------------------------------------------------------------------------------------------




--------------------------------------- Iteration      1(   2)  ---------------------------------------


     EDDAV:  cpu time    5.7461: real time    6.1126
       DOS:  cpu time    0.0000: real time    0.0002
    --------------------------------------------
      LOOP:  cpu time    5.7461: real time    6.1128

 eigenvalue-minimisations  :   144
 total energy-change (2. order) :-0.1175383E+03  (-0.1128513E+03)
 number of electron      24.0000000 magnetization       2.0000000
 augmentation part       24.0000000 magnetization       2.0000000

 Free energy of the ion-electron system (eV)
  ---------------------------------------------------
  alpha Z        PSCENC =         1.20945365
  Ewald energy   TEWEN  =        54.06310733
  -Hartree energ DENC   =     -2421.72294800
  -exchange      EXHF   =         0.00000000
  -V(xc)+E(xc)   XCENC  =         7.75173080
  PAW double counting   =      2356.37325836    -2325.64604307
  entropy T*S    EENTRO =        -0.00000000
  eigenvalues    EBANDS =      -112.81486340
  atomic energy  EATOM  =      2586.35223983
  Solvation  Ediel_sol  =         0.00000000
  ---------------------------------------------------
  free energy    TOTEN  =       145.56593550 eV

  energy without entropy =      145.56593550  energy(sigma->0) =      145.56593550


--------------------------------------------------------------------------------------------------------




--------------------------------------- Iteration      1(   3)  ---------------------------------------


     EDDAV:  cpu time    5.4412: real time    5.4617
       DOS:  cpu time    0.0000: real time    0.0001
    --------------------------------------------
      LOOP:  cpu time    5.4412: real time    5.4618

 eigenvalue-minimisations  :   136
 total energy-change (2. order) :-0.1171420E+03  (-0.1130469E+03)
 number of electron      24.0000000 magnetization       2.0000000
 augmentation part       24.0000000 magnetization       2.0000000

 Free energy of the ion-electron system (eV)
  ---------------------------------------------------
  alpha Z        PSCENC =         1.20945365
  Ewald energy   TEWEN  =        54.06310733
  -Hartree energ DENC   =     -2421.72294800
  -exchange      EXHF   =         0.00000000
  -V(xc)+E(xc)   XCENC  =         7.75173080
  PAW double counting   =      2356.37325836    -2325.64604307
  entropy T*S    EENTRO =        -0.00000000
  eigenvalues    EBANDS =      -229.95681980
  atomic energy  EATOM  =      2586.35223983
  Solvation  Ediel_sol  =         0.00000000
  ---------------------------------------------------
  free energy    TOTEN  =        28.42397909 eV

  energy without entropy =       28.42397909  energy(sigma->0) =       28.42397909


--------------------------------------------------------------------------------------------------------




--------------------------------------- Iteration      1(   4)  ---------------------------------------


     EDDAV:  cpu time    3.7924: real time    3.8124
       DOS:  cpu time    0.0010: real time    0.0001
    --------------------------------------------
      LOOP:  cpu time    3.7934: real time    3.8125

 eigenvalue-minimisations  :    86
 total energy-change (2. order) :-0.2716415E+02  (-0.2710654E+02)
 number of electron      24.0000000 magnetization       2.0000000
 augmentation part       24.0000000 magnetization       2.0000000

 Free energy of the ion-electron system (eV)
  ---------------------------------------------------
  alpha Z        PSCENC =         1.20945365
  Ewald energy   TEWEN  =        54.06310733
  -Hartree energ DENC   =     -2421.72294800
  -exchange      EXHF   =         0.00000000
  -V(xc)+E(xc)   XCENC  =         7.75173080
  PAW double counting   =      2356.37325836    -2325.64604307
  entropy T*S    EENTRO =        -0.00000000
  eigenvalues    EBANDS =      -257.12097032
  atomic energy  EATOM  =      2586.35223983
  Solvation  Ediel_sol  =         0.00000000
  ---------------------------------------------------
  free energy    TOTEN  =         1.25982858 eV

  energy without entropy =        1.25982858  energy(sigma->0) =        1.25982858


--------------------------------------------------------------------------------------------------------




--------------------------------------- Iteration      1(   5)  ---------------------------------------


     EDDAV:  cpu time    4.4193: real time    4.4472
       DOS:  cpu time    0.0000: real time    0.0002
    --------------------------------------------
      LOOP:  cpu time    4.4193: real time    4.4475

 eigenvalue-minimisations  :   104
 total energy-change (2. order) :-0.8808820E+00  (-0.8807371E+00)
 number of electron      24.0000000 magnetization       2.0000000
 augmentation part       24.0000000 magnetization       2.0000000

 Free energy of the ion-electron system (eV)
  ---------------------------------------------------
  alpha Z        PSCENC =         1.20945365
  Ewald energy   TEWEN  =        54.06310733
  -Hartree energ DENC   =     -2421.72294800
  -exchange      EXHF   =         0.00000000
  -V(xc)+E(xc)   XCENC  =         7.75173080
  PAW double counting   =      2356.37325836    -2325.64604307
  entropy T*S    EENTRO =        -0.00000000
  eigenvalues    EBANDS =      -258.00185234
  atomic energy  EATOM  =      2586.35223983
  Solvation  Ediel_sol  =         0.00000000
  ---------------------------------------------------
  free energy    TOTEN  =         0.37894656 eV

  energy without entropy =        0.37894656  energy(sigma->0) =        0.37894656


--------------------------------------------------------------------------------------------------------




--------------------------------------- Iteration      1(   6)  ---------------------------------------


     EDDAV:  cpu time    4.4123: real time    6.3307
       DOS:  cpu time    0.0000: real time    0.0001
    --------------------------------------------
      LOOP:  cpu time    4.4123: real time    6.3308

 eigenvalue-minimisations  :   104
 total energy-change (2. order) :-0.1758009E-01  (-0.1757789E-01)
 number of electron      24.0000000 magnetization       2.0000000
 augmentation part       24.0000000 magnetization       2.0000000

 Free energy of the ion-electron system (eV)
  ---------------------------------------------------
  alpha Z        PSCENC =         1.20945365
  Ewald energy   TEWEN  =        54.06310733
  -Hartree energ DENC   =     -2421.72294800
  -exchange      EXHF   =         0.00000000
  -V(xc)+E(xc)   XCENC  =         7.75173080
  PAW double counting   =      2356.37325836    -2325.64604307
  entropy T*S    EENTRO =        -0.00000000
  eigenvalues    EBANDS =      -258.01943243
  atomic energy  EATOM  =      2586.35223983
  Solvation  Ediel_sol  =         0.00000000
  ---------------------------------------------------
  free energy    TOTEN  =         0.36136646 eV

  energy without entropy =        0.36136646  energy(sigma->0) =        0.36136646


--------------------------------------------------------------------------------------------------------




--------------------------------------- Iteration      1(   7)  ---------------------------------------


     EDDAV:  cpu time    4.3423: real time    4.5936
       DOS:  cpu time    0.0010: real time    0.0002
    --------------------------------------------
      LOOP:  cpu time    4.3433: real time    4.5938

 eigenvalue-minimisations  :   102
 total energy-change (2. order) :-0.1499432E-03  (-0.1499257E-03)
 number of electron      24.0000000 magnetization       2.0000000
 augmentation part       24.0000000 magnetization       2.0000000

 Free energy of the ion-electron system (eV)
  ---------------------------------------------------
  alpha Z        PSCENC =         1.20945365
  Ewald energy   TEWEN  =        54.06310733
  -Hartree energ DENC   =     -2421.72294800
  -exchange      EXHF   =         0.00000000
  -V(xc)+E(xc)   XCENC  =         7.75173080
  PAW double counting   =      2356.37325836    -2325.64604307
  entropy T*S    EENTRO =        -0.00000000
  eigenvalues    EBANDS =      -258.01958238
  atomic energy  EATOM  =      2586.35223983
  Solvation  Ediel_sol  =         0.00000000
  ---------------------------------------------------
  free energy    TOTEN  =         0.36121652 eV

  energy without entropy =        0.36121652  energy(sigma->0) =        0.36121652


--------------------------------------------------------------------------------------------------------




--------------------------------------- Iteration      1(   8)  ---------------------------------------


     EDDAV:  cpu time    4.6943: real time    4.7055
       DOS:  cpu time    0.0010: real time    0.0006
    CHARGE:  cpu time    2.3846: real time    2.3906
    MIXING:  cpu time    0.1000: real time    0.1012
    --------------------------------------------
      LOOP:  cpu time    7.1799: real time    7.1980

 eigenvalue-minimisations  :   112
 total energy-change (2. order) :-0.5977433E-05  (-0.5977270E-05)
 number of electron      23.9999999 magnetization       1.8000000
 augmentation part       12.1211388 magnetization       1.8198911

 Broyden mixing:
  rms(total) = 0.65531E+00    rms(broyden)= 0.65530E+00
  rms(prec ) = 0.65609E+00
  weight for this iteration     100.00

 Free energy of the ion-electron system (eV)
  ---------------------------------------------------
  alpha Z        PSCENC =         1.20945365
  Ewald energy   TEWEN  =        54.06310733
  -Hartree energ DENC   =     -2421.72294800
  -exchange      EXHF   =         0.00000000
  -V(xc)+E(xc)   XCENC  =         7.75173080
  PAW double counting   =      2356.37325836    -2325.64604307
  entropy T*S    EENTRO =        -0.00000000
  eigenvalues    EBANDS =      -258.01958836
  atomic energy  EATOM  =      2586.35223983
  Solvation  Ediel_sol  =         0.00000000
  ---------------------------------------------------
  free energy    TOTEN  =         0.36121054 eV

  energy without entropy =        0.36121054  energy(sigma->0) =        0.36121054


--------------------------------------------------------------------------------------------------------




--------------------------------------- Iteration      1(   9)  ---------------------------------------


    POTLOK:  cpu time    3.6015: real time    3.6117
    SETDIJ:  cpu time    3.3225: real time    3.3288
     EDDAV:  cpu time    3.7334: real time    3.7481
       DOS:  cpu time    0.0010: real time    0.0009
    CHARGE:  cpu time    2.4496: real time    2.4587
    MIXING:  cpu time    0.0990: real time    0.0997
    --------------------------------------------
      LOOP:  cpu time   13.2070: real time   13.2478

 eigenvalue-minimisations  :    84
 total energy-change (2. order) :-0.4940879E-01  (-0.6468829E-04)
 number of electron      23.9999999 magnetization      -0.0443899
 augmentation part       12.1218513 magnetization      -0.0263868

 Broyden mixing:
  rms(total) = 0.59228E+00    rms(broyden)= 0.59228E+00
  rms(prec ) = 0.59310E+00
  weight for this iteration     100.00

 eigenvalues of (default mixing * dielectric matrix)
  average eigenvalue GAMMA=  10.2216
 10.2216

 Free energy of the ion-electron system (eV)
  ---------------------------------------------------
  alpha Z        PSCENC =         1.20945365
  Ewald energy   TEWEN  =        54.06310733
  -Hartree energ DENC   =     -2421.59471843
  -exchange      EXHF   =         0.00000000
  -V(xc)+E(xc)   XCENC  =         7.71738910
  PAW double counting   =      2356.67573763    -2325.95976106
  entropy T*S    EENTRO =        -0.00000000
  eigenvalues    EBANDS =      -258.15164629
  atomic energy  EATOM  =      2586.35223983
  Solvation  Ediel_sol  =         0.00000000
  ---------------------------------------------------
  free energy    TOTEN  =         0.31180175 eV

  energy without entropy =        0.31180175  energy(sigma->0) =        0.31180175


--------------------------------------------------------------------------------------------------------




--------------------------------------- Iteration      1(  10)  ---------------------------------------


    POTLOK:  cpu time    4.0454: real time    5.1943
    SETDIJ:  cpu time    3.2385: real time    3.6239
     EDDAV:  cpu time    3.3935: real time    3.3990
       DOS:  cpu time    0.0000: real time    0.0004
    CHARGE:  cpu time    2.4266: real time    2.4323
    MIXING:  cpu time    0.1080: real time    0.1075
    --------------------------------------------
      LOOP:  cpu time   13.2120: real time   14.7574

 eigenvalue-minimisations  :    74
 total energy-change (2. order) :-0.2207436E+00  (-0.3407660E-02)
 number of electron      23.9999999 magnetization      -0.0345287
 augmentation part       12.1288458 magnetization      -0.0339618

 Broyden mixing:
  rms(total) = 0.76464E-01    rms(broyden)= 0.76464E-01
  rms(prec ) = 0.79922E-01
  weight for this iteration     100.00

 eigenvalues of (default mixing * dielectric matrix)
  average eigenvalue GAMMA=   9.7309
  9.2595 10.2023

 Free energy of the ion-electron system (eV)
  ---------------------------------------------------
  alpha Z        PSCENC =         1.20945365
  Ewald energy   TEWEN  =        54.06310733
  -Hartree energ DENC   =     -2420.34266866
  -exchange      EXHF   =         0.00000000
  -V(xc)+E(xc)   XCENC  =         7.54422253
  PAW double counting   =      2359.78987453    -2329.19308532
  entropy T*S    EENTRO =        -0.00000000
  eigenvalues    EBANDS =      -259.33208576
  atomic energy  EATOM  =      2586.35223983
  Solvation  Ediel_sol  =         0.00000000
  ---------------------------------------------------
  free energy    TOTEN  =         0.09105812 eV

  energy without entropy =        0.09105812  energy(sigma->0) =        0.09105812


--------------------------------------------------------------------------------------------------------




--------------------------------------- Iteration      1(  11)  ---------------------------------------


    POTLOK:  cpu time    3.5775: real time    4.9417
    SETDIJ:  cpu time    3.3265: real time    3.3298
     EDDAV:  cpu time    4.5903: real time    4.5970
       DOS:  cpu time    0.0010: real time    0.0004
    CHARGE:  cpu time    2.4286: real time    2.4396
    MIXING:  cpu time    0.1180: real time    0.1173
    --------------------------------------------
      LOOP:  cpu time   14.0419: real time   15.4259

 eigenvalue-minimisations  :   110
 total energy-change (2. order) : 0.1326083E-03  (-0.7767793E-04)
 number of electron      23.9999999 magnetization       0.0326671
 augmentation part       12.1297497 magnetization       0.0334989

 Broyden mixing:
  rms(total) = 0.71947E-01    rms(broyden)= 0.71947E-01
  rms(prec ) = 0.75195E-01
  weight for this iteration     100.00

 eigenvalues of (default mixing * dielectric matrix)
  average eigenvalue GAMMA=   7.6231
 11.6135 10.0512  1.2046

 Free energy of the ion-electron system (eV)
  ---------------------------------------------------
  alpha Z        PSCENC =         1.20945365
  Ewald energy   TEWEN  =        54.06310733
  -Hartree energ DENC   =     -2420.16411792
  -exchange      EXHF   =         0.00000000
  -V(xc)+E(xc)   XCENC  =         7.53928112
  PAW double counting   =      2360.43424824    -2329.86726889
  entropy T*S    EENTRO =        -0.00000000
  eigenvalues    EBANDS =      -259.47575263
  atomic energy  EATOM  =      2586.35223983
  Solvation  Ediel_sol  =         0.00000000
  ---------------------------------------------------
  free energy    TOTEN  =         0.09119073 eV

  energy without entropy =        0.09119073  energy(sigma->0) =        0.09119073


--------------------------------------------------------------------------------------------------------




--------------------------------------- Iteration      1(  12)  ---------------------------------------


    POTLOK:  cpu time    3.5885: real time    4.2942
    SETDIJ:  cpu time    3.2915: real time    3.2964
     EDDAV:  cpu time    3.9174: real time    3.9394
       DOS:  cpu time    0.0000: real time    0.0003
    CHARGE:  cpu time    2.4296: real time    2.4347
    MIXING:  cpu time    0.1300: real time    0.1304
    --------------------------------------------
      LOOP:  cpu time   13.3570: real time   14.0955

 eigenvalue-minimisations  :    92
 total energy-change (2. order) : 0.1252764E-02  (-0.3266849E-03)
 number of electron      23.9999999 magnetization       0.0780094
 augmentation part       12.1365214 magnetization       0.0769421

 Broyden mixing:
  rms(total) = 0.49837E-01    rms(broyden)= 0.49837E-01
  rms(prec ) = 0.51179E-01
  weight for this iteration     100.00

 eigenvalues of (default mixing * dielectric matrix)
  average eigenvalue GAMMA=  10.3635
 27.6658 10.1881  0.9005  2.6995

 Free energy of the ion-electron system (eV)
  ---------------------------------------------------
  alpha Z        PSCENC =         1.20945365
  Ewald energy   TEWEN  =        54.06310733
  -Hartree energ DENC   =     -2418.82115717
  -exchange      EXHF   =         0.00000000
  -V(xc)+E(xc)   XCENC  =         7.50337723
  PAW double counting   =      2365.42620919    -2335.09064897
  entropy T*S    EENTRO =        -0.00000000
  eigenvalues    EBANDS =      -260.55013759
  atomic energy  EATOM  =      2586.35223983
  Solvation  Ediel_sol  =         0.00000000
  ---------------------------------------------------
  free energy    TOTEN  =         0.09244350 eV

  energy without entropy =        0.09244350  energy(sigma->0) =        0.09244350


--------------------------------------------------------------------------------------------------------




--------------------------------------- Iteration      1(  13)  ---------------------------------------


    POTLOK:  cpu time    3.5815: real time    5.3253
    SETDIJ:  cpu time    3.2895: real time    3.3023
     EDDAV:  cpu time    3.9464: real time    3.9546
       DOS:  cpu time    0.0010: real time    0.0005
    CHARGE:  cpu time    2.4236: real time    2.4303
    MIXING:  cpu time    0.1340: real time    0.1339
    --------------------------------------------
      LOOP:  cpu time   13.3760: real time   15.1468

 eigenvalue-minimisations  :    92
 total energy-change (2. order) : 0.5257984E-03  (-0.3179284E-03)
 number of electron      23.9999999 magnetization      -0.0049753
 augmentation part       12.1427312 magnetization      -0.0073014

 Broyden mixing:
  rms(total) = 0.44541E-01    rms(broyden)= 0.44541E-01
  rms(prec ) = 0.44774E-01
  weight for this iteration     100.00

 eigenvalues of (default mixing * dielectric matrix)
  average eigenvalue GAMMA=  14.9182
 51.5699 10.9735 10.0268  0.9763  1.0443

 Free energy of the ion-electron system (eV)
  ---------------------------------------------------
  alpha Z        PSCENC =         1.20945365
  Ewald energy   TEWEN  =        54.06310733
  -Hartree energ DENC   =     -2417.52272013
  -exchange      EXHF   =         0.00000000
  -V(xc)+E(xc)   XCENC  =         7.47100501
  PAW double counting   =      2370.81928973    -2340.73940392
  entropy T*S    EENTRO =        -0.00000000
  eigenvalues    EBANDS =      -261.56000220
  atomic energy  EATOM  =      2586.35223983
  Solvation  Ediel_sol  =         0.00000000
  ---------------------------------------------------
  free energy    TOTEN  =         0.09296929 eV

  energy without entropy =        0.09296929  energy(sigma->0) =        0.09296929


--------------------------------------------------------------------------------------------------------




--------------------------------------- Iteration      1(  14)  ---------------------------------------


    POTLOK:  cpu time    3.5945: real time    4.1063
    SETDIJ:  cpu time    3.2495: real time    3.2839
     EDDAV:  cpu time    3.7014: real time    3.7058
       DOS:  cpu time    0.0000: real time    0.0002
    CHARGE:  cpu time    2.4166: real time    2.4249
    MIXING:  cpu time    0.1400: real time    0.1396
    --------------------------------------------
      LOOP:  cpu time   13.1020: real time   13.6608

 eigenvalue-minimisations  :    84
 total energy-change (2. order) :-0.8251547E-03  (-0.8587233E-04)
 number of electron      23.9999999 magnetization      -0.0094412
 augmentation part       12.1410595 magnetization      -0.0092920

 Broyden mixing:
  rms(total) = 0.12071E-01    rms(broyden)= 0.12071E-01
  rms(prec ) = 0.12593E-01
  weight for this iteration     100.00

 eigenvalues of (default mixing * dielectric matrix)
  average eigenvalue GAMMA=  13.7280
 54.3662 11.4462 10.1064  4.4374  1.0058  1.0058

 Free energy of the ion-electron system (eV)
  ---------------------------------------------------
  alpha Z        PSCENC =         1.20945365
  Ewald energy   TEWEN  =        54.06310733
  -Hartree energ DENC   =     -2417.56060561
  -exchange      EXHF   =         0.00000000
  -V(xc)+E(xc)   XCENC  =         7.47384342
  PAW double counting   =      2373.32393878    -2343.38966473
  entropy T*S    EENTRO =        -0.00000000
  eigenvalues    EBANDS =      -261.38016854
  atomic energy  EATOM  =      2586.35223983
  Solvation  Ediel_sol  =         0.00000000
  ---------------------------------------------------
  free energy    TOTEN  =         0.09214414 eV

  energy without entropy =        0.09214414  energy(sigma->0) =        0.09214414


--------------------------------------------------------------------------------------------------------




--------------------------------------- Iteration      1(  15)  ---------------------------------------


    POTLOK:  cpu time    4.1494: real time    6.2540
    SETDIJ:  cpu time    3.2695: real time    3.2737
     EDDAV:  cpu time    4.1864: real time    4.1925
       DOS:  cpu time    0.0000: real time    0.0005
    CHARGE:  cpu time    2.3796: real time    2.3850
    MIXING:  cpu time    0.1580: real time    0.1576
    --------------------------------------------
      LOOP:  cpu time   14.1428: real time   16.2632

 eigenvalue-minimisations  :   100
 total energy-change (2. order) : 0.2163870E-04  (-0.4072618E-05)
 number of electron      23.9999999 magnetization       0.0038350
 augmentation part       12.1404911 magnetization       0.0040953

 Broyden mixing:
  rms(total) = 0.10738E-01    rms(broyden)= 0.10738E-01
  rms(prec ) = 0.11281E-01
  weight for this iteration     100.00

 eigenvalues of (default mixing * dielectric matrix)
  average eigenvalue GAMMA=  13.6838
 50.4673 21.4856 10.0152 10.8642  1.0080  1.0080  0.9382

 Free energy of the ion-electron system (eV)
  ---------------------------------------------------
  alpha Z        PSCENC =         1.20945365
  Ewald energy   TEWEN  =        54.06310733
  -Hartree energ DENC   =     -2417.60614990
  -exchange      EXHF   =         0.00000000
  -V(xc)+E(xc)   XCENC  =         7.47552256
  PAW double counting   =      2373.74093311    -2343.83273142
  entropy T*S    EENTRO =        -0.00000000
  eigenvalues    EBANDS =      -261.31020936
  atomic energy  EATOM  =      2586.35223983
  Solvation  Ediel_sol  =         0.00000000
  ---------------------------------------------------
  free energy    TOTEN  =         0.09216578 eV

  energy without entropy =        0.09216578  energy(sigma->0) =        0.09216578


--------------------------------------------------------------------------------------------------------




--------------------------------------- Iteration      1(  16)  ---------------------------------------


    POTLOK:  cpu time    3.6055: real time    3.6139
    SETDIJ:  cpu time    3.2775: real time    3.2811
     EDDAV:  cpu time    3.3795: real time    3.4084
       DOS:  cpu time    0.0010: real time    0.0006
    CHARGE:  cpu time    2.3796: real time    2.3847
    MIXING:  cpu time    0.1660: real time    0.1665
    --------------------------------------------
      LOOP:  cpu time   12.8091: real time   12.8553

 eigenvalue-minimisations  :    76
 total energy-change (2. order) : 0.1624707E-03  (-0.8176248E-04)
 number of electron      23.9999999 magnetization       0.0016768
 augmentation part       12.1363848 magnetization       0.0016201

 Broyden mixing:
  rms(total) = 0.30943E-02    rms(broyden)= 0.30942E-02
  rms(prec ) = 0.31921E-02
  weight for this iteration     100.00

 eigenvalues of (default mixing * dielectric matrix)
  average eigenvalue GAMMA=  12.0958
 49.6608 21.8119 10.8881 10.0140  1.0037  1.0208  1.0688  1.2982

 Free energy of the ion-electron system (eV)
  ---------------------------------------------------
  alpha Z        PSCENC =         1.20945365
  Ewald energy   TEWEN  =        54.06310733
  -Hartree energ DENC   =     -2418.18511696
  -exchange      EXHF   =         0.00000000
  -V(xc)+E(xc)   XCENC  =         7.49177790
  PAW double counting   =      2373.76378119    -2343.88274429
  entropy T*S    EENTRO =        -0.00000000
  eigenvalues    EBANDS =      -260.72017040
  atomic energy  EATOM  =      2586.35223983
  Solvation  Ediel_sol  =         0.00000000
  ---------------------------------------------------
  free energy    TOTEN  =         0.09232825 eV

  energy without entropy =        0.09232825  energy(sigma->0) =        0.09232825


--------------------------------------------------------------------------------------------------------




--------------------------------------- Iteration      1(  17)  ---------------------------------------


    POTLOK:  cpu time    3.5935: real time    4.3818
    SETDIJ:  cpu time    3.2965: real time    3.3049
     EDDAV:  cpu time    4.5103: real time    4.5312
       DOS:  cpu time    0.0010: real time    0.0010
    CHARGE:  cpu time    2.4146: real time    2.4260
    MIXING:  cpu time    0.1820: real time    0.1819
    --------------------------------------------
      LOOP:  cpu time   13.9979: real time   14.8269

 eigenvalue-minimisations  :   108
 total energy-change (2. order) : 0.4904732E-06  (-0.1451514E-05)
 number of electron      23.9999999 magnetization      -0.0009676
 augmentation part       12.1364993 magnetization      -0.0009891

 Broyden mixing:
  rms(total) = 0.24946E-02    rms(broyden)= 0.24946E-02
  rms(prec ) = 0.25883E-02
  weight for this iteration     100.00

 eigenvalues of (default mixing * dielectric matrix)
  average eigenvalue GAMMA=  12.9340
 50.5375 25.9151 15.0922 10.0208 10.8725  1.0226  0.9952  0.9952  0.9551

 Free energy of the ion-electron system (eV)
  ---------------------------------------------------
  alpha Z        PSCENC =         1.20945365
  Ewald energy   TEWEN  =        54.06310733
  -Hartree energ DENC   =     -2418.17859201
  -exchange      EXHF   =         0.00000000
  -V(xc)+E(xc)   XCENC  =         7.49151963
  PAW double counting   =      2373.67937001    -2343.79320572
  entropy T*S    EENTRO =        -0.00000000
  eigenvalues    EBANDS =      -260.73156398
  atomic energy  EATOM  =      2586.35223983
  Solvation  Ediel_sol  =         0.00000000
  ---------------------------------------------------
  free energy    TOTEN  =         0.09232874 eV

  energy without entropy =        0.09232874  energy(sigma->0) =        0.09232874


--------------------------------------------------------------------------------------------------------




--------------------------------------- Iteration      1(  18)  ---------------------------------------


    POTLOK:  cpu time    3.5865: real time    5.8262
    SETDIJ:  cpu time    3.2885: real time    3.2937
     EDDAV:  cpu time    3.2435: real time    3.2967
       DOS:  cpu time    0.0000: real time    0.0001
    --------------------------------------------
      LOOP:  cpu time   10.1185: real time   12.4167

 eigenvalue-minimisations  :    72
 total energy-change (2. order) :-0.4997410E-06  (-0.8650711E-06)
 number of electron      23.9999999 magnetization      -0.0009676
 augmentation part       12.1364993 magnetization      -0.0009891

 Free energy of the ion-electron system (eV)
  ---------------------------------------------------
  alpha Z        PSCENC =         1.20945365
  Ewald energy   TEWEN  =        54.06310733
  -Hartree energ DENC   =     -2418.17485041
  -exchange      EXHF   =         0.00000000
  -V(xc)+E(xc)   XCENC  =         7.49158537
  PAW double counting   =      2373.81639267    -2343.93893939
  entropy T*S    EENTRO =        -0.00000000
  eigenvalues    EBANDS =      -260.72666080
  atomic energy  EATOM  =      2586.35223983
  Solvation  Ediel_sol  =         0.00000000
  ---------------------------------------------------
  free energy    TOTEN  =         0.09232824 eV

  energy without entropy =        0.09232824  energy(sigma->0) =        0.09232824


--------------------------------------------------------------------------------------------------------




 average (electrostatic) potential at core
  the test charge radii are     1.1405
  (the norm of the test charge is              1.0000)
       1 -75.9329       2 -75.9329
 
 
 
 E-fermi :  -4.5873     XC(G=0):  -0.3387     alpha+bet : -0.0868


 spin component 1

 k-point     1 :       0.0000    0.0000    0.0000
  band No.  band energies     occupation 
      1     -12.3596      1.00000
      2     -12.0766      1.00000
      3     -12.0766      1.00000
      4     -11.8869      1.00000
      5     -11.8869      1.00000
      6     -11.8239      1.00000
      7     -11.8239      1.00000
      8     -11.6652      1.00000
      9     -11.6652      1.00000
     10     -11.5192      1.00000
     11      -6.9639      1.00000
     12      -4.6155      1.00000
     13      -1.8912      0.00000
     14      -1.8912      0.00000
     15      -1.5694      0.00000
     16      -0.2695      0.00000
     17      -0.2695      0.00000
     18      -0.0262      0.00000

 spin component 2

 k-point     1 :       0.0000    0.0000    0.0000
  band No.  band energies     occupation 
      1     -12.3598      1.00000
      2     -12.0766      1.00000
      3     -12.0766      1.00000
      4     -11.8869      1.00000
      5     -11.8869      1.00000
      6     -11.8239      1.00000
      7     -11.8239      1.00000
      8     -11.6652      1.00000
      9     -11.6652      1.00000
     10     -11.5192      1.00000
     11      -6.9639      1.00000
     12      -4.6153      1.00000
     13      -1.8913      0.00000
     14      -1.8913      0.00000
     15      -1.5690      0.00000
     16      -0.2693      0.00000
     17      -0.2693      0.00000
     18      -0.0257      0.00000


--------------------------------------------------------------------------------------------------------


 soft charge-density along one line, spin component           1
         0         1         2         3         4         5         6         7         8         9
 total charge-density along one line
 
 soft charge-density along one line, spin component           2
         0         1         2         3         4         5         6         7         8         9
 total charge-density along one line
 
 pseudopotential strength for first ion, spin component:           1
-16.208   0.000  -0.000   0.000  -0.000 -15.807   0.000  -0.000
  0.000 -16.199   0.000   0.000   0.000   0.000 -15.799   0.000
 -0.000   0.000 -16.198   0.000   0.000  -0.000   0.000 -15.798
  0.000   0.000   0.000 -16.199  -0.000   0.000   0.000   0.000
 -0.000   0.000   0.000  -0.000 -16.208  -0.000   0.000   0.000
-15.807   0.000  -0.000   0.000  -0.000 -15.395   0.000  -0.000
  0.000 -15.799   0.000   0.000   0.000   0.000 -15.387   0.000
 -0.000   0.000 -15.798   0.000   0.000  -0.000   0.000 -15.386
  0.000   0.000   0.000 -15.799  -0.000   0.000   0.000   0.000
 -0.000   0.000   0.000  -0.000 -15.807  -0.000   0.000   0.000
 -0.000  -0.000   0.003  -0.000  -0.000  -0.000  -0.000   0.003
 -0.000  -0.000  -0.005  -0.000   0.000  -0.000  -0.000  -0.005
 -0.000   0.005   0.000  -0.000   0.000  -0.000   0.005   0.000
 -0.000   0.000   0.007   0.000  -0.000  -0.000   0.000   0.007
 -0.000  -0.000   0.000   0.005  -0.000  -0.000  -0.000   0.000
  0.000  -0.002  -0.000   0.000  -0.000   0.000  -0.002  -0.000
  0.000   0.000  -0.003   0.000   0.000   0.000   0.000  -0.003
  0.000   0.000  -0.000  -0.002   0.000   0.000   0.000  -0.000
  0.000   0.000   0.000   0.000   0.000   0.000   0.000   0.000
 -0.008  -0.000  -0.000  -0.000   0.000  -0.007  -0.000  -0.000
 -0.000  -0.009   0.000   0.000   0.000  -0.000  -0.008   0.000
 -0.000   0.000  -0.010   0.000  -0.000  -0.000   0.000  -0.009
 -0.000   0.000   0.000  -0.009  -0.000  -0.000   0.000   0.000
  0.000   0.000   0.000  -0.000  -0.008   0.000   0.000   0.000
 -0.000  -0.000  -0.000  -0.000   0.000  -0.000  -0.000  -0.000
 -0.000  -0.000  -0.000  -0.000  -0.000  -0.000  -0.000  -0.000
  0.013   0.000   0.000   0.000  -0.000   0.012   0.000   0.000
  0.000   0.015  -0.000  -0.000  -0.000   0.000   0.014  -0.000
  0.000  -0.000   0.017  -0.000   0.000   0.000  -0.000   0.016
  0.000  -0.000  -0.000   0.015   0.000   0.000  -0.000  -0.000
 -0.000  -0.000  -0.000   0.000   0.013  -0.000  -0.000  -0.000
  0.000   0.000   0.000   0.000  -0.000   0.000   0.000   0.000
 pseudopotential strength for first ion, spin component:           2
-16.208   0.000  -0.000   0.000  -0.000 -15.807   0.000  -0.000
  0.000 -16.199   0.000   0.000   0.000   0.000 -15.799   0.000
 -0.000   0.000 -16.198   0.000   0.000  -0.000   0.000 -15.798
  0.000   0.000   0.000 -16.199  -0.000   0.000   0.000   0.000
 -0.000   0.000   0.000  -0.000 -16.208  -0.000   0.000   0.000
-15.807   0.000  -0.000   0.000  -0.000 -15.395   0.000  -0.000
  0.000 -15.799   0.000   0.000   0.000   0.000 -15.387   0.000
 -0.000   0.000 -15.798   0.000   0.000  -0.000   0.000 -15.386
  0.000   0.000   0.000 -15.799  -0.000   0.000   0.000   0.000
 -0.000   0.000   0.000  -0.000 -15.807  -0.000   0.000   0.000
 -0.000  -0.000   0.003  -0.000  -0.000  -0.000  -0.000   0.003
 -0.000  -0.000  -0.005  -0.000   0.000  -0.000  -0.000  -0.005
 -0.000   0.005   0.000  -0.000   0.000  -0.000   0.005   0.000
 -0.000   0.000   0.007   0.000  -0.000  -0.000   0.000   0.007
 -0.000  -0.000   0.000   0.005  -0.000  -0.000  -0.000   0.000
  0.000  -0.002  -0.000   0.000  -0.000   0.000  -0.002  -0.000
  0.000   0.000  -0.003   0.000   0.000   0.000   0.000  -0.003
  0.000   0.000  -0.000  -0.002   0.000   0.000   0.000  -0.000
  0.000   0.000   0.000   0.000   0.000   0.000   0.000   0.000
 -0.008  -0.000  -0.000  -0.000   0.000  -0.007  -0.000  -0.000
 -0.000  -0.009   0.000   0.000   0.000  -0.000  -0.008   0.000
 -0.000   0.000  -0.010   0.000  -0.000  -0.000   0.000  -0.009
 -0.000   0.000   0.000  -0.009  -0.000  -0.000   0.000   0.000
  0.000   0.000   0.000  -0.000  -0.008   0.000   0.000   0.000
 -0.000  -0.000  -0.000  -0.000   0.000  -0.000  -0.000  -0.000
 -0.000  -0.000  -0.000  -0.000  -0.000  -0.000  -0.000  -0.000
  0.013   0.000   0.000   0.000  -0.000   0.012   0.000   0.000
  0.000   0.015  -0.000  -0.000  -0.000   0.000   0.014  -0.000
  0.000  -0.000   0.016  -0.000   0.000   0.000  -0.000   0.016
  0.000  -0.000  -0.000   0.015   0.000   0.000  -0.000  -0.000
 -0.000  -0.000  -0.000   0.000   0.013  -0.000  -0.000  -0.000
  0.000   0.000   0.000   0.000  -0.000   0.000   0.000   0.000
 total augmentation occupancy for first ion, spin component:           1
  2.057   0.000   0.000  -0.000  -0.000  -0.030  -0.000   0.000  -0.000   0.000   0.000   0.000  -0.000   0.000  -0.000  -0.000
  0.000   2.037   0.000   0.000   0.000   0.000  -0.046  -0.000   0.000   0.000  -0.000  -0.000   0.003   0.000   0.000  -0.001
  0.000   0.000   2.584   0.000   0.000   0.000   0.000  -0.618   0.000   0.000  -0.167  -0.009  -0.000  -0.224   0.000  -0.000
 -0.000   0.000   0.000   2.037   0.000   0.000   0.000   0.000  -0.046  -0.000  -0.000  -0.000   0.000   0.000   0.003   0.000
 -0.000   0.000   0.000   0.000   2.057  -0.000  -0.000   0.000   0.000  -0.030   0.000   0.000   0.000   0.000   0.000   0.000
 -0.030   0.000   0.000   0.000  -0.000   0.002   0.000   0.000  -0.000   0.000   0.000   0.000  -0.000   0.000  -0.000  -0.000
 -0.000  -0.046   0.000   0.000  -0.000   0.000   0.051   0.000   0.000  -0.000   0.000   0.000   0.007  -0.000   0.000   0.000
  0.000   0.000  -0.618   0.000   0.000   0.000   0.000   0.646   0.000   0.000   0.154   0.010   0.000   0.229  -0.000   0.000
 -0.000   0.000   0.000  -0.046   0.000  -0.000   0.000   0.000   0.051   0.000   0.000  -0.000   0.000   0.000   0.007  -0.000
  0.000   0.000   0.000  -0.000  -0.030   0.000  -0.000   0.000   0.000   0.002   0.000   0.000   0.000   0.000   0.000  -0.000
  0.000  -0.000  -0.167  -0.000   0.000   0.000   0.000   0.154   0.000   0.000   1.965   0.000   0.000   0.009   0.000   0.000
  0.000  -0.000  -0.009  -0.000   0.000   0.000   0.000   0.010  -0.000   0.000   0.000   0.000   0.000   0.004   0.000   0.000
 -0.000   0.003  -0.000   0.000   0.000  -0.000   0.007   0.000   0.000   0.000   0.000   0.000   0.001   0.000   0.000   0.000
  0.000   0.000  -0.224   0.000   0.000   0.000  -0.000   0.229   0.000   0.000   0.009   0.004  -0.000   0.088   0.000   0.000
 -0.000   0.000   0.000   0.003   0.000  -0.000   0.000  -0.000   0.007   0.000   0.000   0.000   0.000   0.000   0.001   0.000
 -0.000  -0.001  -0.000   0.000   0.000  -0.000   0.000   0.000  -0.000  -0.000  -0.000   0.000   0.000   0.000   0.000   0.000
  0.000  -0.000  -0.009  -0.000   0.000   0.000   0.000   0.009   0.000   0.000   0.003   0.000   0.000   0.003  -0.000   0.000
  0.000   0.000   0.000  -0.001   0.000  -0.000  -0.000   0.000   0.000  -0.000   0.000   0.000   0.000   0.000   0.000   0.000
  0.000  -0.000   0.000  -0.000   0.000   0.000  -0.000  -0.000   0.000  -0.000   0.000  -0.000  -0.000   0.000  -0.000  -0.000
  0.003  -0.000   0.000   0.000  -0.000   0.000  -0.000   0.000   0.000   0.000   0.000   0.000  -0.000   0.000   0.000   0.000
  0.000   0.002   0.000   0.000   0.000  -0.000   0.007  -0.000  -0.000  -0.000  -0.000  -0.000   0.001   0.000  -0.000   0.000
 -0.000  -0.000  -0.039   0.000   0.000   0.000   0.000   0.052  -0.000   0.000   0.017   0.001   0.000   0.017   0.000   0.000
 -0.000  -0.000   0.000   0.002   0.000   0.000   0.000   0.000   0.007  -0.000  -0.000   0.000  -0.000   0.000   0.001   0.000
  0.000  -0.000   0.000   0.000   0.003   0.000   0.000   0.000   0.000   0.000  -0.000   0.000   0.000   0.000   0.000   0.000
  0.000  -0.000   0.000   0.000   0.000   0.000   0.000   0.000   0.000  -0.000  -0.000  -0.000  -0.000   0.000   0.000  -0.000
  0.000  -0.000  -0.000   0.000   0.000  -0.000  -0.000   0.000  -0.000  -0.000   0.000   0.000  -0.000   0.000  -0.000  -0.000
  0.000   0.000  -0.000  -0.000   0.000   0.000   0.000   0.000  -0.000  -0.000   0.000   0.000  -0.000   0.000   0.000   0.000
  0.000  -0.000   0.000   0.000   0.000  -0.000   0.003   0.000   0.000   0.000   0.000   0.000   0.000  -0.000   0.000   0.000
  0.000   0.000  -0.018   0.000   0.000   0.000   0.000   0.022  -0.000   0.000   0.008   0.000  -0.000   0.007   0.000   0.000
  0.000   0.000  -0.000  -0.000  -0.000   0.000   0.000   0.000   0.003  -0.000  -0.000  -0.000   0.000   0.000   0.000   0.000
  0.000   0.000   0.000   0.000   0.000   0.000   0.000   0.000   0.000   0.000   0.000   0.000   0.000   0.000  -0.000   0.000
 -0.000  -0.000  -0.000   0.000   0.000   0.000  -0.000  -0.000   0.000   0.000   0.000  -0.000  -0.000  -0.000   0.000   0.000
 total augmentation occupancy for first ion, spin component:           2
 -0.000  -0.000   0.000   0.000   0.000   0.000   0.000   0.000   0.000   0.000   0.000   0.000   0.000   0.000   0.000   0.000
 -0.000  -0.000   0.000   0.000  -0.000   0.000   0.000   0.000   0.000  -0.000   0.000   0.000   0.000   0.000   0.000   0.000
  0.000   0.000   0.000   0.000   0.000   0.000   0.000  -0.000   0.000   0.000   0.000  -0.000  -0.000  -0.000   0.000   0.000
  0.000   0.000   0.000  -0.000   0.000  -0.000   0.000   0.000   0.000   0.000   0.000   0.000   0.000   0.000   0.000  -0.000
  0.000  -0.000   0.000   0.000  -0.000   0.000   0.000   0.000   0.000   0.000   0.000   0.000   0.000   0.000   0.000  -0.000
  0.000   0.000   0.000  -0.000   0.000  -0.000  -0.000  -0.000   0.000   0.000   0.000  -0.000   0.000   0.000   0.000  -0.000
  0.000   0.000   0.000   0.000   0.000  -0.000   0.000   0.000   0.000   0.000   0.000  -0.000   0.000   0.000   0.000   0.000
  0.000   0.000  -0.000  -0.000   0.000  -0.000   0.000   0.000   0.000   0.000  -0.000   0.000   0.000   0.000   0.000   0.000
  0.000   0.000   0.000   0.000   0.000   0.000   0.000   0.000   0.000   0.000   0.000   0.000   0.000  -0.000   0.000   0.000
  0.000  -0.000   0.000   0.000   0.000   0.000   0.000   0.000   0.000  -0.000   0.000   0.000  -0.000   0.000   0.000   0.000
  0.000   0.000   0.000   0.000   0.000   0.000   0.000  -0.000   0.000   0.000  -0.000  -0.000  -0.000   0.000  -0.000   0.000
  0.000   0.000  -0.000   0.000   0.000  -0.000  -0.000   0.000   0.000   0.000  -0.000   0.000   0.000   0.000  -0.000   0.000
  0.000   0.000  -0.000   0.000   0.000   0.000   0.000   0.000   0.000  -0.000  -0.000   0.000   0.000   0.000   0.000   0.000
  0.000   0.000  -0.000   0.000   0.000   0.000  -0.000   0.000  -0.000   0.000   0.000   0.000   0.000   0.000   0.000   0.000
  0.000   0.000   0.000   0.000   0.000   0.000   0.000   0.000   0.000   0.000  -0.000  -0.000   0.000  -0.000   0.000   0.000
  0.000   0.000   0.000  -0.000  -0.000  -0.000   0.000   0.000   0.000   0.000   0.000   0.000   0.000   0.000   0.000  -0.000
  0.000   0.000   0.000  -0.000   0.000  -0.000   0.000   0.000  -0.000   0.000   0.000   0.000   0.000   0.000  -0.000   0.000
 -0.000   0.000   0.000   0.000   0.000  -0.000  -0.000   0.000   0.000  -0.000   0.000  -0.000   0.000   0.000   0.000   0.000
 -0.000  -0.000   0.000   0.000  -0.000  -0.000  -0.000   0.000  -0.000   0.000  -0.000   0.000  -0.000   0.000   0.000  -0.000
  0.000  -0.000   0.000   0.000   0.000  -0.000  -0.000   0.000   0.000   0.000  -0.000   0.000   0.000  -0.000  -0.000   0.000
 -0.000   0.000   0.000   0.000   0.000  -0.000   0.000   0.000  -0.000  -0.000   0.000  -0.000   0.000   0.000   0.000   0.000
  0.000   0.000   0.000   0.000   0.000  -0.000   0.000   0.000  -0.000   0.000   0.000   0.000   0.000   0.000  -0.000  -0.000
  0.000  -0.000   0.000   0.000   0.000   0.000   0.000   0.000   0.000   0.000   0.000  -0.000  -0.000   0.000   0.000  -0.000
  0.000  -0.000   0.000  -0.000   0.000   0.000   0.000  -0.000   0.000  -0.000   0.000   0.000   0.000   0.000   0.000   0.000
 -0.000  -0.000  -0.000   0.000   0.000  -0.000  -0.000  -0.000   0.000   0.000   0.000  -0.000   0.000   0.000   0.000   0.000
 -0.000  -0.000   0.000   0.000  -0.000   0.000  -0.000   0.000   0.000  -0.000   0.000   0.000  -0.000  -0.000   0.000  -0.000
  0.000   0.000   0.000  -0.000  -0.000  -0.000   0.000   0.000  -0.000   0.000   0.000   0.000   0.000   0.000  -0.000  -0.000
 -0.000   0.000   0.000   0.000   0.000   0.000   0.000   0.000   0.000   0.000   0.000   0.000   0.000  -0.000   0.000   0.000
  0.000   0.000   0.000  -0.000   0.000   0.000   0.000   0.000  -0.000   0.000   0.000   0.000   0.000   0.000   0.000   0.000
  0.000   0.000   0.000   0.000  -0.000   0.000   0.000   0.000   0.000   0.000   0.000  -0.000   0.000   0.000   0.000  -0.000
  0.000  -0.000   0.000   0.000   0.000   0.000  -0.000  -0.000   0.000  -0.000   0.000   0.000  -0.000   0.000   0.000  -0.000
  0.000  -0.000  -0.000   0.000   0.000   0.000  -0.000   0.000   0.000   0.000  -0.000  -0.000   0.000   0.000   0.000   0.000


------------------------ aborting loop because EDIFF is reached ----------------------------------------


 


 total charge     
 
# of ion       s       p       d       f       tot
--------------------------------------------------
    1        0.899   0.057   9.640   0.002  10.598
    2        0.899   0.057   9.640   0.002  10.598
--------------------------------------------------
tot          1.798   0.114  19.279   0.004  21.195

 


 magnetization (x)
 
# of ion       s       p       d       f       tot
--------------------------------------------------
    1       -0.000   0.000  -0.000  -0.000  -0.000
    2       -0.000   0.000  -0.000  -0.000  -0.000
--------------------------------------------------
tot         -0.000   0.000  -0.000  -0.000  -0.000

 
    CHARGE:  cpu time    2.2317: real time    2.2420
    FORLOC:  cpu time    0.0280: real time    0.0281
    FORNL :  cpu time   12.3131: real time   12.3560
    FORCOR:  cpu time    6.6060: real time    6.6306
    FORHAR:  cpu time    0.4169: real time    0.4181
    MIXING:  cpu time    0.1890: real time    0.1918
    OFIELD:  cpu time    0.0000: real time    0.0000

 VOLUME and BASIS-vectors are now :
 -----------------------------------------------------------------------------
  energy-cutoff  :      500.00
  volume of cell :     4913.00
      direct lattice vectors                 reciprocal lattice vectors
    17.000000000  0.000000000  0.000000000     0.058823529  0.000000000  0.000000000
     0.000000000 17.000000000  0.000000000     0.000000000  0.058823529  0.000000000
     0.000000000  0.000000000 17.000000000     0.000000000  0.000000000  0.058823529

  length of vectors
    17.000000000 17.000000000 17.000000000     0.058823529  0.058823529  0.058823529


 FORCES acting on ions
    electron-ion (+dipol)            ewald-force                    non-local-force                 convergence-correction
 -----------------------------------------------------------------------------------------------
   0.414E-14 0.167E-11 0.256E+03   0.690E-16 0.116E-16 -.258E+03   -.529E-22 0.000E+00 0.756E+00   -.791E-13 0.101E-11 0.147E-01
   -.252E-13 -.163E-11 -.256E+03   -.903E-16 -.297E-16 0.258E+03   0.212E-21 -.212E-21 -.756E+00   -.685E-12 -.391E-13 -.147E-01
 -----------------------------------------------------------------------------------------------
   -.210E-13 0.319E-13 0.346E-11   -.212E-16 -.180E-16 0.000E+00   0.159E-21 -.212E-21 0.000E+00   -.764E-12 0.971E-12 -.603E-12
 
 
 POSITION                                       TOTAL-FORCE (eV/Angst)
 -----------------------------------------------------------------------------------
      0.00000      0.00000     15.59700         0.000000     -0.000000     -0.848046
      0.00000      0.00000      1.40300        -0.000000      0.000000      0.848046
 -----------------------------------------------------------------------------------
    total drift:                               -0.000000      0.000000      0.000000


--------------------------------------------------------------------------------------------------------



  FREE ENERGIE OF THE ION-ELECTRON SYSTEM (eV)
  ---------------------------------------------------
  free  energy   TOTEN  =         0.09232824 eV

  energy  without entropy=        0.09232824  energy(sigma->0) =        0.09232824
 


--------------------------------------------------------------------------------------------------------


    POTLOK:  cpu time    6.8540: real time    6.8836


--------------------------------------------------------------------------------------------------------




--------------------------------------------------------------------------------------------------------


    WAVPRE:  cpu time    0.1370: real time    5.5528
    FEWALD:  cpu time    0.0000: real time    0.0001

 real space projection operators:
  total allocation   :       1284.50 KBytes
  max/ min on nodes  :        331.00        315.50

    ORTHCH:  cpu time    0.3779: real time    0.3783
     LOOP+:  cpu time  205.9707: real time  227.6267


--------------------------------------- Iteration      2(   1)  ---------------------------------------


    POTLOK:  cpu time    3.5505: real time    7.1027
    SETDIJ:  cpu time    3.3085: real time    3.3161
     EDDAV:  cpu time    4.7203: real time    4.7439
       DOS:  cpu time    0.0010: real time    0.0003
    CHARGE:  cpu time    2.4136: real time    2.4231
    MIXING:  cpu time    0.0850: real time    0.0851
    --------------------------------------------
      LOOP:  cpu time   14.0789: real time   17.6712

 eigenvalue-minimisations  :   108
 total energy-change (2. order) :-0.4100024E-01  (-0.4366396E+01)
 number of electron      24.0000000 magnetization      -0.0011417
 augmentation part       12.1584387 magnetization      -0.0011927

  free energy =   0.513285026154E-01  energy without entropy=   0.513285026158E-01


--------------------------------------------------------------------------------------------------------




--------------------------------------- Iteration      2(   2)  ---------------------------------------


    POTLOK:  cpu time    3.5915: real time    3.6109
    SETDIJ:  cpu time    3.3045: real time    3.3120
     EDDAV:  cpu time    3.8094: real time    3.8264
       DOS:  cpu time    0.0010: real time    0.0004
    CHARGE:  cpu time    2.4046: real time    2.4201
    MIXING:  cpu time    0.0960: real time    0.0961
    --------------------------------------------
      LOOP:  cpu time   13.2070: real time   13.2659

 eigenvalue-minimisations  :    88
 total energy-change (2. order) :-0.1791596E-01  (-0.1811646E-01)
 number of electron      24.0000000 magnetization      -0.0010486
 augmentation part       12.1431266 magnetization      -0.0011032

 eigenvalues of (default mixing * dielectric matrix)
  average eigenvalue GAMMA=   0.8037
  0.8037

  free energy =   0.334125462141E-01  energy without entropy=   0.334125462141E-01


--------------------------------------------------------------------------------------------------------




--------------------------------------- Iteration      2(   3)  ---------------------------------------


    POTLOK:  cpu time    3.5945: real time    4.9997
    SETDIJ:  cpu time    3.2845: real time    3.2872
     EDDAV:  cpu time    4.1084: real time    4.1153
       DOS:  cpu time    0.0000: real time    0.0004
    CHARGE:  cpu time    2.3816: real time    2.3851
    MIXING:  cpu time    0.1180: real time    0.1190
    --------------------------------------------
      LOOP:  cpu time   13.4879: real time   14.9066

 eigenvalue-minimisations  :    96
 total energy-change (2. order) :-0.3801821E-03  (-0.3044369E-03)
 number of electron      24.0000000 magnetization      -0.0004556
 augmentation part       12.1437292 magnetization      -0.0004851

 eigenvalues of (default mixing * dielectric matrix)
  average eigenvalue GAMMA=   3.2180
  0.9955  5.4405

  free energy =   0.330323641274E-01  energy without entropy=   0.330323641274E-01


--------------------------------------------------------------------------------------------------------




--------------------------------------- Iteration      2(   4)  ---------------------------------------


    POTLOK:  cpu time    3.6005: real time    3.6170
    SETDIJ:  cpu time    3.3235: real time    3.3263
     EDDAV:  cpu time    4.3613: real time    4.3709
       DOS:  cpu time    0.0000: real time    0.0005
    CHARGE:  cpu time    2.4506: real time    2.4545
    MIXING:  cpu time    0.1110: real time    0.1116
    --------------------------------------------
      LOOP:  cpu time   13.8459: real time   13.8807

 eigenvalue-minimisations  :   104
 total energy-change (2. order) : 0.4932209E-04  (-0.2302382E-04)
 number of electron      24.0000000 magnetization       0.0024028
 augmentation part       12.1430384 magnetization       0.0023887

 eigenvalues of (default mixing * dielectric matrix)
  average eigenvalue GAMMA=  11.3505
 32.0785  1.0681  0.9049

  free energy =   0.330816862183E-01  energy without entropy=   0.330816862183E-01


--------------------------------------------------------------------------------------------------------




--------------------------------------- Iteration      2(   5)  ---------------------------------------


    POTLOK:  cpu time    3.5915: real time    5.8787
    SETDIJ:  cpu time    3.3135: real time    3.3163
     EDDAV:  cpu time    4.0324: real time    4.0374
       DOS:  cpu time    0.0000: real time    0.0005
    CHARGE:  cpu time    2.4386: real time    2.4444
    MIXING:  cpu time    0.1240: real time    0.1233
    --------------------------------------------
      LOOP:  cpu time   13.4999: real time   15.8004

 eigenvalue-minimisations  :    96
 total energy-change (2. order) :-0.1491655E-04  (-0.1708895E-03)
 number of electron      24.0000000 magnetization       0.0020302
 augmentation part       12.1400303 magnetization       0.0021231

 eigenvalues of (default mixing * dielectric matrix)
  average eigenvalue GAMMA=  10.1436
 35.4447  3.1588  0.9855  0.9855

  free energy =   0.330667696708E-01  energy without entropy=   0.330667696708E-01


--------------------------------------------------------------------------------------------------------




--------------------------------------- Iteration      2(   6)  ---------------------------------------


    POTLOK:  cpu time    3.6055: real time    3.6096
    SETDIJ:  cpu time    3.3105: real time    3.3137
     EDDAV:  cpu time    3.6914: real time    3.6988
       DOS:  cpu time    0.0000: real time    0.0007
    CHARGE:  cpu time    2.4166: real time    2.4184
    MIXING:  cpu time    0.1390: real time    0.1390
    --------------------------------------------
      LOOP:  cpu time   13.1630: real time   13.1802

 eigenvalue-minimisations  :    86
 total energy-change (2. order) :-0.9039800E-06  (-0.4948548E-05)
 number of electron      24.0000000 magnetization      -0.0010049
 augmentation part       12.1401103 magnetization      -0.0009389

 eigenvalues of (default mixing * dielectric matrix)
  average eigenvalue GAMMA=  11.5011
 44.3342 10.2328  1.0083  1.0083  0.9217

  free energy =   0.330658656908E-01  energy without entropy=   0.330658656908E-01


--------------------------------------------------------------------------------------------------------




--------------------------------------- Iteration      2(   7)  ---------------------------------------


    POTLOK:  cpu time    3.5845: real time    4.7445
    SETDIJ:  cpu time    3.2855: real time    3.2885
     EDDAV:  cpu time    4.0594: real time    4.0661
       DOS:  cpu time    0.0000: real time    0.0004
    CHARGE:  cpu time    2.4006: real time    2.4034
    MIXING:  cpu time    0.1390: real time    0.1396
    --------------------------------------------
      LOOP:  cpu time   13.4690: real time   14.6425

 eigenvalue-minimisations  :    96
 total energy-change (2. order) : 0.7332518E-04  (-0.2094056E-04)
 number of electron      24.0000000 magnetization      -0.0010013
 augmentation part       12.1409089 magnetization      -0.0010158

 eigenvalues of (default mixing * dielectric matrix)
  average eigenvalue GAMMA=  10.5586
 47.3439 11.1009  1.0491  0.9483  0.9483  1.9609

  free energy =   0.331391908753E-01  energy without entropy=   0.331391908753E-01


--------------------------------------------------------------------------------------------------------




--------------------------------------- Iteration      2(   8)  ---------------------------------------


    POTLOK:  cpu time    3.6025: real time    5.0081
    SETDIJ:  cpu time    3.2675: real time    3.2956
     EDDAV:  cpu time    3.1975: real time    3.2050
       DOS:  cpu time    0.0000: real time    0.0002
    --------------------------------------------
      LOOP:  cpu time   10.0675: real time   11.5089

 eigenvalue-minimisations  :    70
 total energy-change (2. order) :-0.7328258E-06  (-0.6141662E-06)
 number of electron      24.0000000 magnetization      -0.0010013
 augmentation part       12.1409089 magnetization      -0.0010158

  free energy =   0.331384580495E-01  energy without entropy=   0.331384580495E-01


--------------------------------------------------------------------------------------------------------




 average (electrostatic) potential at core
  the test charge radii are     1.1405
  (the norm of the test charge is              1.0000)
       1 -75.8876       2 -75.8876
 
 
 
 E-fermi :  -4.6414     XC(G=0):  -0.3397     alpha+bet : -0.0868


 spin component 1

 k-point     1 :       0.0000    0.0000    0.0000
  band No.  band energies     occupation 
      1     -12.2311      1.00000
      2     -11.9919      1.00000
      3     -11.9919      1.00000
      4     -11.8388      1.00000
      5     -11.8388      1.00000
      6     -11.7880      1.00000
      7     -11.7880      1.00000
      8     -11.6529      1.00000
      9     -11.6529      1.00000
     10     -11.5235      1.00000
     11      -6.8580      1.00000
     12      -4.6693      1.00000
     13      -1.8409      0.00000
     14      -1.8409      0.00000
     15      -1.5839      0.00000
     16      -0.3069      0.00000
     17      -0.3069      0.00000
     18      -0.0283      0.00000

 spin component 2

 k-point     1 :       0.0000    0.0000    0.0000
  band No.  band energies     occupation 
      1     -12.2311      1.00000
      2     -11.9919      1.00000
      3     -11.9919      1.00000
      4     -11.8387      1.00000
      5     -11.8387      1.00000
      6     -11.7880      1.00000
      7     -11.7880      1.00000
      8     -11.6528      1.00000
      9     -11.6528      1.00000
     10     -11.5235      1.00000
     11      -6.8577      1.00000
     12      -4.6689      1.00000
     13      -1.8407      0.00000
     14      -1.8407      0.00000
     15      -1.5833      0.00000
     16      -0.3063      0.00000
     17      -0.3063      0.00000
     18      -0.0273      0.00000


--------------------------------------------------------------------------------------------------------


 soft charge-density along one line, spin component           1
         0         1         2         3         4         5         6         7         8         9
 total charge-density along one line
 
 soft charge-density along one line, spin component           2
         0         1         2         3         4         5         6         7         8         9
 total charge-density along one line
 
 pseudopotential strength for first ion, spin component:           1
-16.180   0.000  -0.000   0.000  -0.000 -15.781   0.000  -0.000
  0.000 -16.172   0.000   0.000   0.000   0.000 -15.773   0.000
 -0.000   0.000 -16.170   0.000   0.000  -0.000   0.000 -15.771
  0.000   0.000   0.000 -16.172  -0.000   0.000   0.000   0.000
 -0.000   0.000   0.000  -0.000 -16.180  -0.000   0.000   0.000
-15.781   0.000  -0.000   0.000  -0.000 -15.371   0.000  -0.000
  0.000 -15.773   0.000   0.000   0.000   0.000 -15.363   0.000
 -0.000   0.000 -15.771   0.000   0.000  -0.000   0.000 -15.361
  0.000   0.000   0.000 -15.773  -0.000   0.000   0.000   0.000
 -0.000   0.000   0.000  -0.000 -15.781  -0.000   0.000   0.000
 -0.000  -0.000   0.002  -0.000  -0.000  -0.000  -0.000   0.002
 -0.000  -0.000  -0.005  -0.000   0.000  -0.000  -0.000  -0.005
 -0.000   0.004   0.000   0.000   0.000  -0.000   0.004   0.000
  0.000   0.000   0.005   0.000  -0.000   0.000   0.000   0.005
 -0.000   0.000   0.000   0.004  -0.000  -0.000   0.000   0.000
  0.000  -0.001  -0.000  -0.000  -0.000   0.000  -0.001  -0.000
 -0.000   0.000  -0.002   0.000   0.000  -0.000   0.000  -0.002
  0.000  -0.000  -0.000  -0.001   0.000   0.000  -0.000  -0.000
  0.000  -0.000   0.000  -0.000   0.000   0.000  -0.000   0.000
 -0.006  -0.000   0.000  -0.000  -0.000  -0.006  -0.000   0.000
 -0.000  -0.007   0.000  -0.000   0.000  -0.000  -0.007   0.000
  0.000   0.000  -0.008   0.000  -0.000   0.000   0.000  -0.007
 -0.000  -0.000   0.000  -0.007  -0.000  -0.000  -0.000   0.000
 -0.000   0.000   0.000  -0.000  -0.006  -0.000   0.000   0.000
 -0.000   0.000  -0.000   0.000   0.000  -0.000   0.000  -0.000
 -0.000   0.000  -0.000   0.000  -0.000  -0.000   0.000  -0.000
  0.011   0.000  -0.000   0.000   0.000   0.010   0.000  -0.000
  0.000   0.012  -0.000   0.000  -0.000   0.000   0.011  -0.000
 -0.000  -0.000   0.013  -0.000   0.000  -0.000  -0.000   0.012
  0.000   0.000  -0.000   0.012   0.000   0.000   0.000  -0.000
  0.000  -0.000  -0.000   0.000   0.011   0.000  -0.000  -0.000
  0.000  -0.000   0.000  -0.000  -0.000   0.000  -0.000   0.000
 pseudopotential strength for first ion, spin component:           2
-16.180   0.000  -0.000   0.000  -0.000 -15.781   0.000  -0.000
  0.000 -16.172   0.000   0.000   0.000   0.000 -15.773   0.000
 -0.000   0.000 -16.170   0.000  -0.000  -0.000   0.000 -15.771
  0.000   0.000   0.000 -16.172  -0.000   0.000   0.000   0.000
 -0.000   0.000  -0.000  -0.000 -16.180  -0.000   0.000  -0.000
-15.781   0.000  -0.000   0.000  -0.000 -15.371   0.000  -0.000
  0.000 -15.773   0.000   0.000   0.000   0.000 -15.363   0.000
 -0.000   0.000 -15.771   0.000  -0.000  -0.000   0.000 -15.361
  0.000   0.000   0.000 -15.773  -0.000   0.000   0.000   0.000
 -0.000   0.000  -0.000  -0.000 -15.781  -0.000   0.000  -0.000
 -0.000  -0.000   0.002  -0.000  -0.000  -0.000  -0.000   0.002
 -0.000  -0.000  -0.005  -0.000   0.000  -0.000  -0.000  -0.005
 -0.000   0.004   0.000   0.000   0.000  -0.000   0.004   0.000
  0.000   0.000   0.005   0.000  -0.000   0.000   0.000   0.005
 -0.000   0.000   0.000   0.004  -0.000  -0.000   0.000   0.000
  0.000  -0.001  -0.000  -0.000  -0.000   0.000  -0.001  -0.000
 -0.000   0.000  -0.002   0.000   0.000  -0.000   0.000  -0.002
  0.000  -0.000  -0.000  -0.001   0.000   0.000  -0.000  -0.000
  0.000  -0.000   0.000  -0.000   0.000   0.000  -0.000   0.000
 -0.006  -0.000   0.000  -0.000  -0.000  -0.006  -0.000   0.000
 -0.000  -0.007   0.000  -0.000   0.000  -0.000  -0.007   0.000
  0.000   0.000  -0.007   0.000  -0.000   0.000   0.000  -0.007
 -0.000  -0.000   0.000  -0.007  -0.000  -0.000  -0.000   0.000
 -0.000   0.000   0.000  -0.000  -0.006  -0.000   0.000   0.000
 -0.000   0.000  -0.000   0.000   0.000  -0.000   0.000  -0.000
 -0.000   0.000  -0.000   0.000  -0.000  -0.000   0.000  -0.000
  0.011   0.000  -0.000   0.000   0.000   0.010   0.000  -0.000
  0.000   0.012  -0.000   0.000  -0.000   0.000   0.011  -0.000
 -0.000  -0.000   0.013  -0.000   0.000  -0.000  -0.000   0.012
  0.000   0.000  -0.000   0.012   0.000   0.000   0.000  -0.000
  0.000  -0.000  -0.000   0.000   0.011   0.000  -0.000  -0.000
  0.000  -0.000   0.000  -0.000  -0.000   0.000  -0.000   0.000
 total augmentation occupancy for first ion, spin component:           1
  2.049  -0.000   0.000   0.000   0.000  -0.026   0.000   0.000   0.000  -0.000   0.000   0.000   0.000   0.000  -0.000   0.000
 -0.000   2.028  -0.000   0.000   0.000   0.000  -0.033   0.000   0.000   0.000  -0.000   0.000   0.003  -0.000  -0.000  -0.001
  0.000   0.000   2.484   0.000   0.000   0.000   0.000  -0.507  -0.000  -0.000  -0.138  -0.007   0.000  -0.188   0.000  -0.000
  0.000   0.000   0.000   2.028  -0.000   0.000   0.000   0.000  -0.033  -0.000   0.000   0.000  -0.000   0.000   0.003   0.000
  0.000   0.000   0.000  -0.000   2.049   0.000   0.000   0.000   0.000  -0.026   0.000   0.000   0.000   0.000  -0.000   0.000
 -0.026   0.000   0.000   0.000   0.000   0.001   0.000   0.000   0.000  -0.000  -0.000   0.000   0.000   0.000  -0.000   0.000
  0.000  -0.033  -0.000   0.000   0.000   0.000   0.035  -0.000   0.000   0.000  -0.000   0.000   0.005   0.000   0.000   0.000
  0.000  -0.000  -0.507   0.000   0.000   0.000  -0.000   0.524   0.000   0.000   0.125   0.008   0.000   0.191   0.000   0.000
  0.000   0.000   0.000  -0.033   0.000   0.000   0.000  -0.000   0.035  -0.000   0.000  -0.000   0.000   0.000   0.005   0.000
 -0.000   0.000  -0.000  -0.000  -0.026  -0.000   0.000   0.000  -0.000   0.001  -0.000   0.000   0.000   0.000  -0.000   0.000
  0.000  -0.000  -0.138  -0.000   0.000  -0.000   0.000   0.125  -0.000  -0.000   1.963   0.000   0.000   0.005   0.000  -0.000
  0.000   0.000  -0.007   0.000   0.000   0.000   0.000   0.008  -0.000   0.000   0.000   0.000   0.000   0.003  -0.000  -0.000
  0.000   0.003   0.000  -0.000   0.000   0.000   0.005   0.000   0.000   0.000  -0.000   0.000   0.001   0.000   0.000   0.000
  0.000  -0.000  -0.188   0.000   0.000   0.000  -0.000   0.191  -0.000   0.000   0.005   0.003  -0.000   0.075   0.000   0.000
 -0.000  -0.000   0.000   0.003  -0.000  -0.000   0.000   0.000   0.005  -0.000   0.000  -0.000   0.000  -0.000   0.001   0.000
  0.000  -0.001   0.000   0.000   0.000   0.000   0.000  -0.000   0.000   0.000  -0.000   0.000   0.000   0.000   0.000   0.000
  0.000   0.000  -0.007  -0.000   0.000   0.000   0.000   0.007  -0.000   0.000   0.002   0.000  -0.000   0.003  -0.000   0.000
  0.000   0.000   0.000  -0.001   0.000  -0.000   0.000   0.000   0.000  -0.000   0.000   0.000   0.000  -0.000   0.000   0.000
 -0.000   0.000  -0.000   0.000   0.000  -0.000   0.000  -0.000   0.000  -0.000   0.000  -0.000   0.000   0.000  -0.000  -0.000
  0.003  -0.000  -0.000  -0.000   0.000   0.000   0.000   0.000   0.000  -0.000   0.000  -0.000  -0.000  -0.000   0.000   0.000
 -0.000   0.002  -0.000   0.000   0.000  -0.000   0.005   0.000   0.000   0.000   0.000  -0.000   0.001   0.000   0.000   0.000
  0.000  -0.000  -0.031  -0.000   0.000   0.000  -0.000   0.041   0.000   0.000   0.014   0.001   0.000   0.014  -0.000   0.000
  0.000   0.000   0.000   0.002  -0.000   0.000   0.000   0.000   0.005   0.000  -0.000  -0.000   0.000  -0.000   0.001   0.000
  0.000   0.000   0.000   0.000   0.003  -0.000   0.000   0.000   0.000   0.000   0.000   0.000   0.000   0.000   0.000   0.000
  0.000   0.000  -0.000  -0.000  -0.000   0.000   0.000   0.000  -0.000  -0.000   0.000   0.000   0.000   0.000  -0.000  -0.000
  0.000   0.000  -0.000  -0.000   0.000   0.000   0.000  -0.000  -0.000   0.000   0.000   0.000   0.000  -0.000  -0.000  -0.000
  0.000   0.000   0.000   0.000   0.000   0.000   0.000   0.000   0.000   0.000  -0.000  -0.000   0.000   0.000  -0.000   0.000
  0.000   0.000   0.000   0.000  -0.000  -0.000   0.002  -0.000   0.000   0.000  -0.000  -0.000   0.000   0.000   0.000   0.000
  0.000   0.000  -0.014   0.000   0.000   0.000   0.000   0.017  -0.000   0.000   0.006   0.000   0.000   0.006   0.000   0.000
  0.000  -0.000   0.000   0.000   0.000   0.000   0.000   0.000   0.002   0.000   0.000   0.000   0.000  -0.000   0.000   0.000
 -0.000   0.000   0.000   0.000   0.000  -0.000  -0.000   0.000   0.000   0.000   0.000   0.000   0.000   0.000   0.000   0.000
  0.000  -0.000  -0.000  -0.000   0.000   0.000   0.000  -0.000  -0.000   0.000  -0.000  -0.000   0.000   0.000  -0.000   0.000
 total augmentation occupancy for first ion, spin component:           2
 -0.000  -0.000  -0.000   0.000  -0.000   0.000   0.000   0.000  -0.000  -0.000   0.000   0.000   0.000   0.000   0.000  -0.000
 -0.000   0.000  -0.000   0.000   0.000   0.000  -0.000   0.000   0.000   0.000  -0.000   0.000  -0.000  -0.000   0.000  -0.000
 -0.000  -0.000   0.000   0.000   0.000   0.000  -0.000  -0.000  -0.000   0.000   0.000   0.000  -0.000  -0.000   0.000  -0.000
  0.000   0.000   0.000   0.000  -0.000   0.000   0.000   0.000  -0.000   0.000  -0.000   0.000   0.000   0.000  -0.000   0.000
 -0.000   0.000   0.000  -0.000  -0.000   0.000   0.000   0.000   0.000   0.000   0.000   0.000  -0.000   0.000   0.000  -0.000
  0.000   0.000   0.000   0.000   0.000  -0.000   0.000   0.000  -0.000   0.000   0.000  -0.000   0.000   0.000   0.000   0.000
  0.000  -0.000   0.000   0.000   0.000   0.000   0.000   0.000   0.000   0.000   0.000   0.000   0.000   0.000   0.000   0.000
  0.000   0.000  -0.000  -0.000   0.000   0.000   0.000  -0.000   0.000   0.000  -0.000  -0.000   0.000  -0.000  -0.000   0.000
 -0.000   0.000  -0.000  -0.000   0.000  -0.000   0.000   0.000   0.000  -0.000   0.000  -0.000   0.000  -0.000   0.000   0.000
 -0.000   0.000   0.000   0.000   0.000   0.000   0.000   0.000  -0.000  -0.000   0.000   0.000   0.000   0.000  -0.000   0.000
  0.000  -0.000   0.000   0.000   0.000   0.000  -0.000  -0.000   0.000   0.000  -0.000   0.000   0.000  -0.000   0.000   0.000
  0.000   0.000   0.000   0.000   0.000  -0.000   0.000  -0.000  -0.000   0.000   0.000  -0.000  -0.000  -0.000  -0.000   0.000
  0.000  -0.000  -0.000   0.000  -0.000   0.000   0.000  -0.000   0.000   0.000   0.000  -0.000   0.000   0.000   0.000   0.000
  0.000   0.000  -0.000   0.000   0.000   0.000   0.000  -0.000  -0.000   0.000  -0.000  -0.000  -0.000   0.000   0.000   0.000
  0.000   0.000  -0.000  -0.000   0.000   0.000   0.000   0.000   0.000  -0.000   0.000  -0.000   0.000   0.000   0.000   0.000
 -0.000  -0.000  -0.000   0.000  -0.000   0.000   0.000   0.000   0.000   0.000   0.000   0.000   0.000   0.000   0.000   0.000
  0.000  -0.000  -0.000  -0.000   0.000  -0.000   0.000  -0.000  -0.000   0.000  -0.000  -0.000   0.000  -0.000   0.000   0.000
  0.000  -0.000   0.000  -0.000   0.000  -0.000   0.000   0.000   0.000   0.000  -0.000   0.000   0.000   0.000   0.000   0.000
 -0.000   0.000   0.000  -0.000   0.000   0.000  -0.000   0.000   0.000   0.000  -0.000   0.000   0.000   0.000  -0.000  -0.000
 -0.000  -0.000   0.000   0.000   0.000   0.000   0.000   0.000  -0.000   0.000   0.000   0.000   0.000  -0.000  -0.000   0.000
  0.000  -0.000   0.000   0.000   0.000  -0.000   0.000   0.000   0.000   0.000   0.000  -0.000   0.000   0.000   0.000   0.000
  0.000   0.000  -0.000   0.000   0.000   0.000  -0.000  -0.000   0.000   0.000   0.000  -0.000  -0.000  -0.000  -0.000  -0.000
  0.000   0.000   0.000  -0.000   0.000   0.000   0.000  -0.000   0.000  -0.000   0.000   0.000   0.000   0.000   0.000   0.000
 -0.000   0.000   0.000   0.000  -0.000   0.000   0.000   0.000   0.000   0.000   0.000   0.000   0.000   0.000   0.000   0.000
  0.000   0.000   0.000  -0.000  -0.000  -0.000   0.000  -0.000   0.000   0.000  -0.000  -0.000  -0.000  -0.000  -0.000   0.000
  0.000   0.000  -0.000  -0.000  -0.000   0.000  -0.000   0.000   0.000  -0.000   0.000  -0.000   0.000  -0.000  -0.000  -0.000
 -0.000  -0.000  -0.000   0.000  -0.000   0.000   0.000   0.000  -0.000   0.000   0.000   0.000   0.000   0.000   0.000   0.000
  0.000  -0.000   0.000  -0.000   0.000   0.000   0.000   0.000   0.000  -0.000   0.000   0.000   0.000  -0.000  -0.000   0.000
  0.000  -0.000  -0.000  -0.000   0.000   0.000   0.000  -0.000  -0.000   0.000  -0.000  -0.000  -0.000  -0.000   0.000   0.000
 -0.000   0.000   0.000  -0.000   0.000  -0.000   0.000   0.000   0.000   0.000  -0.000   0.000  -0.000   0.000   0.000   0.000
 -0.000   0.000   0.000   0.000  -0.000  -0.000   0.000   0.000   0.000   0.000   0.000   0.000  -0.000   0.000  -0.000   0.000
  0.000   0.000   0.000  -0.000   0.000   0.000  -0.000  -0.000   0.000   0.000   0.000   0.000  -0.000   0.000  -0.000   0.000


------------------------ aborting loop because EDIFF is reached ----------------------------------------


 


 total charge     
 
# of ion       s       p       d       f       tot
--------------------------------------------------
    1        0.898   0.049   9.640   0.001  10.588
    2        0.898   0.049   9.640   0.001  10.588
--------------------------------------------------
tot          1.796   0.097  19.280   0.003  21.175

 


 magnetization (x)
 
# of ion       s       p       d       f       tot
--------------------------------------------------
    1       -0.000  -0.000  -0.000  -0.000  -0.000
    2       -0.000  -0.000  -0.000  -0.000  -0.000
--------------------------------------------------
tot         -0.000  -0.000  -0.000  -0.000  -0.000

 
    CHARGE:  cpu time    2.3886: real time    2.3916
    FORLOC:  cpu time    0.0260: real time    0.0264
    FORNL :  cpu time   12.2401: real time   12.2594
    FORCOR:  cpu time    6.6200: real time    6.6259
    FORHAR:  cpu time    0.4169: real time    0.4171
    MIXING:  cpu time    0.1470: real time    0.1478
    OFIELD:  cpu time    0.0010: real time    0.0000

 VOLUME and BASIS-vectors are now :
 -----------------------------------------------------------------------------
  energy-cutoff  :      500.00
  volume of cell :     4913.00
      direct lattice vectors                 reciprocal lattice vectors
    17.000000000  0.000000000  0.000000000     0.058823529  0.000000000  0.000000000
     0.000000000 17.000000000  0.000000000     0.000000000  0.058823529  0.000000000
     0.000000000  0.000000000 17.000000000     0.000000000  0.000000000  0.058823529

  length of vectors
    17.000000000 17.000000000 17.000000000     0.058823529  0.058823529  0.058823529


 FORCES acting on ions
    electron-ion (+dipol)            ewald-force                    non-local-force                 convergence-correction
 -----------------------------------------------------------------------------------------------
   -.388E-13 0.929E-12 0.242E+03   0.651E-17 0.203E-16 -.243E+03   -.106E-21 -.212E-21 0.687E+00   -.336E-12 0.748E-12 0.170E+00
   -.148E-13 -.934E-12 -.242E+03   -.278E-16 -.383E-16 0.243E+03   -.106E-21 0.212E-21 -.687E+00   -.612E-12 0.113E-12 -.170E+00
 -----------------------------------------------------------------------------------------------
   -.537E-13 -.564E-14 0.277E-11   -.212E-16 -.180E-16 0.000E+00   -.212E-21 0.000E+00 0.000E+00   -.948E-12 0.862E-12 -.733E-12
 
 
 POSITION                                       TOTAL-FORCE (eV/Angst)
 -----------------------------------------------------------------------------------
      0.00000     -0.00000     15.55609         0.000000      0.000000     -0.609903
     -0.00000      0.00000      1.44391        -0.000000     -0.000000      0.609903
 -----------------------------------------------------------------------------------
    total drift:                               -0.000000      0.000000      0.000000


--------------------------------------------------------------------------------------------------------



  FREE ENERGIE OF THE ION-ELECTRON SYSTEM (eV)
  ---------------------------------------------------
  free  energy   TOTEN  =         0.03313846 eV

  energy  without entropy=        0.03313846  energy(sigma->0) =        0.03313846
 
 d Force = 0.5964760E-01[ 0.499E-01, 0.694E-01]  d Energy = 0.5918978E-01 0.458E-03
 d Force = 0.2050047E+02[ 0.199E+02, 0.211E+02]  d Ewald  = 0.2049183E+02 0.864E-02


--------------------------------------------------------------------------------------------------------


    POTLOK:  cpu time    6.8360: real time    6.8875


--------------------------------------------------------------------------------------------------------


 Steepest descent step on ions:
 trial-energy change:   -0.059190  1 .order   -0.059648   -0.069390   -0.049905
  (g-gl).g = 0.694E-01      g.g   = 0.694E-01  gl.gl    = 0.000E+00
 g(Force)  = 0.694E-01   g(Stress)= 0.000E+00 ortho     = 0.000E+00
 gamma     =   0.00000
 trial     =   1.00000
 opt step  =   3.56108  (harmonic =   3.56108) maximal distance =0.14569101
 next E    =    -0.031224   (d E  =  -0.12355)


--------------------------------------------------------------------------------------------------------


    WAVPRE:  cpu time    0.1350: real time    0.7256
    FEWALD:  cpu time    0.0000: real time    0.0001

 real space projection operators:
  total allocation   :       1278.50 KBytes
  max/ min on nodes  :        324.00        315.50

    ORTHCH:  cpu time    0.3729: real time    0.3745
     LOOP+:  cpu time  134.0176: real time  152.7928


--------------------------------------- Iteration      3(   1)  ---------------------------------------


    POTLOK:  cpu time    3.5685: real time    3.5875
    SETDIJ:  cpu time    3.2975: real time    3.3005
     EDDAV:  cpu time    4.4763: real time    4.4844
       DOS:  cpu time    0.0000: real time    0.0002
    CHARGE:  cpu time    2.4466: real time    2.4500
    MIXING:  cpu time    0.0800: real time    0.0794
    --------------------------------------------
      LOOP:  cpu time   13.8689: real time   13.9020

 eigenvalue-minimisations  :   108
 total energy-change (2. order) : 0.1821559E+00  (-0.2899073E+02)
 number of electron      23.9999998 magnetization       0.0000679
 augmentation part       12.2461330 magnetization       0.0001358

  free energy =   0.215295074388E+00  energy without entropy=   0.215295074388E+00


--------------------------------------------------------------------------------------------------------




--------------------------------------- Iteration      3(   2)  ---------------------------------------


    POTLOK:  cpu time    3.5795: real time    3.5830
    SETDIJ:  cpu time    3.2995: real time    3.3054
     EDDAV:  cpu time    3.2095: real time    3.2139
       DOS:  cpu time    0.0000: real time    0.0006
    CHARGE:  cpu time    2.4126: real time    2.4354
    MIXING:  cpu time    0.0860: real time    0.0989
    --------------------------------------------
      LOOP:  cpu time   12.5871: real time   12.6373

 eigenvalue-minimisations  :    72
 total energy-change (2. order) :-0.2619951E+00  (-0.2646159E+00)
 number of electron      23.9999998 magnetization       0.0000616
 augmentation part       12.1489360 magnetization       0.0000717

 eigenvalues of (default mixing * dielectric matrix)
  average eigenvalue GAMMA=   0.9143
  0.9143

  free energy =  -0.467000312938E-01  energy without entropy=  -0.467000312938E-01


--------------------------------------------------------------------------------------------------------




--------------------------------------- Iteration      3(   3)  ---------------------------------------


    POTLOK:  cpu time    3.5765: real time    3.5832
    SETDIJ:  cpu time    3.2975: real time    3.3000
     EDDAV:  cpu time    4.4563: real time    4.4636
       DOS:  cpu time    0.0000: real time    0.0004
    CHARGE:  cpu time    2.4026: real time    2.4068
    MIXING:  cpu time    0.1120: real time    0.1121
    --------------------------------------------
      LOOP:  cpu time   13.8449: real time   13.8661

 eigenvalue-minimisations  :   108
 total energy-change (2. order) :-0.5416313E-02  (-0.4760685E-02)
 number of electron      23.9999998 magnetization       0.0000569
 augmentation part       12.1539032 magnetization       0.0000525

 eigenvalues of (default mixing * dielectric matrix)
  average eigenvalue GAMMA=   0.8362
  0.8362  0.8362

  free energy =  -0.521163447165E-01  energy without entropy=  -0.521163447165E-01


--------------------------------------------------------------------------------------------------------




--------------------------------------- Iteration      3(   4)  ---------------------------------------


    POTLOK:  cpu time    3.5875: real time    3.5979
    SETDIJ:  cpu time    3.3245: real time    3.3340
     EDDAV:  cpu time    3.9654: real time    3.9733
       DOS:  cpu time    0.0010: real time    0.0005
    CHARGE:  cpu time    2.4346: real time    2.4383
    MIXING:  cpu time    0.1180: real time    0.1180
    --------------------------------------------
      LOOP:  cpu time   13.4310: real time   13.4619

 eigenvalue-minimisations  :    92
 total energy-change (2. order) :-0.8498848E-04  (-0.1101620E-03)
 number of electron      23.9999998 magnetization      -0.0000476
 augmentation part       12.1534565 magnetization      -0.0000495

 eigenvalues of (default mixing * dielectric matrix)
  average eigenvalue GAMMA=   6.8249
 18.4663  1.0899  0.9186

  free energy =  -0.522013331997E-01  energy without entropy=  -0.522013331997E-01


--------------------------------------------------------------------------------------------------------




--------------------------------------- Iteration      3(   5)  ---------------------------------------


    POTLOK:  cpu time    3.5725: real time    3.5878
    SETDIJ:  cpu time    3.3005: real time    3.3031
     EDDAV:  cpu time    3.7984: real time    3.8044
       DOS:  cpu time    0.0010: real time    0.0006
    CHARGE:  cpu time    2.3916: real time    2.3987
    MIXING:  cpu time    0.1240: real time    0.1241
    --------------------------------------------
      LOOP:  cpu time   13.1880: real time   13.2187

 eigenvalue-minimisations  :    88
 total energy-change (2. order) : 0.2665680E-03  (-0.2609703E-03)
 number of electron      23.9999998 magnetization      -0.0001172
 augmentation part       12.1508794 magnetization      -0.0001152

 eigenvalues of (default mixing * dielectric matrix)
  average eigenvalue GAMMA=  10.1874
 37.7706  0.9218  0.9218  1.1351

  free energy =  -0.519347652403E-01  energy without entropy=  -0.519347652403E-01


--------------------------------------------------------------------------------------------------------




--------------------------------------- Iteration      3(   6)  ---------------------------------------


    POTLOK:  cpu time    3.6045: real time    3.6242
    SETDIJ:  cpu time    3.2965: real time    3.2987
     EDDAV:  cpu time    4.2993: real time    4.3225
       DOS:  cpu time    0.0010: real time    0.0007
    CHARGE:  cpu time    2.3856: real time    2.3920
    MIXING:  cpu time    0.1410: real time    0.1413
    --------------------------------------------
      LOOP:  cpu time   13.7279: real time   13.7794

 eigenvalue-minimisations  :   104
 total energy-change (2. order) :-0.3336411E-03  (-0.1750435E-03)
 number of electron      23.9999998 magnetization      -0.0001433
 augmentation part       12.1491405 magnetization      -0.0001388

 eigenvalues of (default mixing * dielectric matrix)
  average eigenvalue GAMMA=   8.9030
 38.4340  3.0983  1.0913  0.9458  0.9458

  free energy =  -0.522684063035E-01  energy without entropy=  -0.522684063035E-01


--------------------------------------------------------------------------------------------------------




--------------------------------------- Iteration      3(   7)  ---------------------------------------


    POTLOK:  cpu time    3.5965: real time    3.6008
    SETDIJ:  cpu time    3.2865: real time    3.2932
     EDDAV:  cpu time    4.0924: real time    4.1417
       DOS:  cpu time    0.0000: real time    0.0003
    CHARGE:  cpu time    2.3886: real time    2.3920
    MIXING:  cpu time    0.1450: real time    0.1453
    --------------------------------------------
      LOOP:  cpu time   13.5089: real time   13.5733

 eigenvalue-minimisations  :    96
 total energy-change (2. order) :-0.7344500E-04  (-0.5886939E-05)
 number of electron      23.9999998 magnetization       0.0001222
 augmentation part       12.1489099 magnetization       0.0001257

 eigenvalues of (default mixing * dielectric matrix)
  average eigenvalue GAMMA=  11.5495
 48.6560 16.6603  1.0519  1.0519  0.9385  0.9385

  free energy =  -0.523418513067E-01  energy without entropy=  -0.523418513067E-01


--------------------------------------------------------------------------------------------------------




--------------------------------------- Iteration      3(   8)  ---------------------------------------


    POTLOK:  cpu time    3.5995: real time    3.6109
    SETDIJ:  cpu time    3.2965: real time    3.2999
     EDDAV:  cpu time    3.8704: real time    3.8770
       DOS:  cpu time    0.0010: real time    0.0007
    CHARGE:  cpu time    2.3836: real time    2.3934
    MIXING:  cpu time    0.1520: real time    0.1552
    --------------------------------------------
      LOOP:  cpu time   13.3040: real time   13.3372

 eigenvalue-minimisations  :    88
 total energy-change (2. order) : 0.2527596E-03  (-0.1682532E-03)
 number of electron      23.9999998 magnetization       0.0001199
 augmentation part       12.1504921 magnetization       0.0001164

 eigenvalues of (default mixing * dielectric matrix)
  average eigenvalue GAMMA=  10.0757
 48.0201 17.4816  1.1708  1.1085  0.9368  0.9368  0.8754

  free energy =  -0.520890916996E-01  energy without entropy=  -0.520890916996E-01


--------------------------------------------------------------------------------------------------------




--------------------------------------- Iteration      3(   9)  ---------------------------------------


    POTLOK:  cpu time    3.5925: real time    3.6016
    SETDIJ:  cpu time    3.2765: real time    3.2789
     EDDAV:  cpu time    4.2294: real time    4.2385
       DOS:  cpu time    0.0010: real time    0.0008
    CHARGE:  cpu time    2.3746: real time    2.3789
    MIXING:  cpu time    0.1680: real time    0.1678
    --------------------------------------------
      LOOP:  cpu time   13.6409: real time   13.6665

 eigenvalue-minimisations  :   100
 total energy-change (2. order) :-0.1701107E-05  (-0.6126853E-05)
 number of electron      23.9999998 magnetization       0.0000750
 augmentation part       12.1505442 magnetization       0.0000708

 eigenvalues of (default mixing * dielectric matrix)
  average eigenvalue GAMMA=   9.2168
 47.7351 17.1382  3.8567  1.1111  1.0299  1.0299  0.9168  0.9168

  free energy =  -0.520907928067E-01  energy without entropy=  -0.520907928067E-01


--------------------------------------------------------------------------------------------------------




--------------------------------------- Iteration      3(  10)  ---------------------------------------


    POTLOK:  cpu time    3.6135: real time    3.6189
    SETDIJ:  cpu time    3.3275: real time    3.3296
     EDDAV:  cpu time    3.1605: real time    3.1676
       DOS:  cpu time    0.0000: real time    0.0001
    --------------------------------------------
      LOOP:  cpu time   10.1015: real time   10.1162

 eigenvalue-minimisations  :    68
 total energy-change (2. order) : 0.2410065E-06  (-0.1026123E-06)
 number of electron      23.9999998 magnetization       0.0000750
 augmentation part       12.1505442 magnetization       0.0000708

  free energy =  -0.520905518001E-01  energy without entropy=  -0.520905518001E-01


--------------------------------------------------------------------------------------------------------




 average (electrostatic) potential at core
  the test charge radii are     1.1405
  (the norm of the test charge is              1.0000)
       1 -75.8191       2 -75.8191
 
 
 
 E-fermi :  -4.7787     XC(G=0):  -0.3425     alpha+bet : -0.0868


 spin component 1

 k-point     1 :       0.0000    0.0000    0.0000
  band No.  band energies     occupation 
      1     -12.0046      1.00000
      2     -11.8506      1.00000
      3     -11.8506      1.00000
      4     -11.7634      1.00000
      5     -11.7633      1.00000
      6     -11.7339      1.00000
      7     -11.7339      1.00000
      8     -11.6430      1.00000
      9     -11.6430      1.00000
     10     -11.5483      1.00000
     11      -6.6198      1.00000
     12      -4.8049      1.00000
     13      -1.7320      0.00000
     14      -1.7320      0.00000
     15      -1.6104      0.00000
     16      -0.4001      0.00000
     17      -0.4001      0.00000
     18      -0.0330      0.00000

 spin component 2

 k-point     1 :       0.0000    0.0000    0.0000
  band No.  band energies     occupation 
      1     -12.0047      1.00000
      2     -11.8506      1.00000
      3     -11.8506      1.00000
      4     -11.7634      1.00000
      5     -11.7634      1.00000
      6     -11.7340      1.00000
      7     -11.7340      1.00000
      8     -11.6430      1.00000
      9     -11.6430      1.00000
     10     -11.5483      1.00000
     11      -6.6198      1.00000
     12      -4.8049      1.00000
     13      -1.7321      0.00000
     14      -1.7321      0.00000
     15      -1.6104      0.00000
     16      -0.4001      0.00000
     17      -0.4001      0.00000
     18      -0.0329      0.00000


--------------------------------------------------------------------------------------------------------


 soft charge-density along one line, spin component           1
         0         1         2         3         4         5         6         7         8         9
 total charge-density along one line
 
 soft charge-density along one line, spin component           2
         0         1         2         3         4         5         6         7         8         9
 total charge-density along one line
 
 pseudopotential strength for first ion, spin component:           1
-16.139   0.000  -0.000   0.000  -0.000 -15.743   0.000  -0.000
  0.000 -16.131   0.000   0.000   0.000   0.000 -15.734   0.000
 -0.000   0.000 -16.128   0.000  -0.000  -0.000   0.000 -15.732
  0.000   0.000   0.000 -16.131  -0.000   0.000   0.000   0.000
 -0.000   0.000  -0.000  -0.000 -16.139  -0.000   0.000  -0.000
-15.743   0.000  -0.000   0.000  -0.000 -15.335   0.000  -0.000
  0.000 -15.734   0.000   0.000   0.000   0.000 -15.326   0.000
 -0.000   0.000 -15.732   0.000  -0.000  -0.000   0.000 -15.324
  0.000   0.000   0.000 -15.734  -0.000   0.000   0.000   0.000
 -0.000   0.000  -0.000  -0.000 -15.743  -0.000   0.000  -0.000
 -0.000  -0.000   0.001  -0.000  -0.000  -0.000  -0.000   0.001
 -0.000  -0.000  -0.004  -0.000   0.000  -0.000  -0.000  -0.004
 -0.000   0.003   0.000   0.000   0.000   0.000   0.003   0.000
  0.000   0.000   0.003   0.000  -0.000   0.000   0.000   0.003
 -0.000   0.000   0.000   0.003  -0.000   0.000   0.000   0.000
  0.000  -0.001  -0.000  -0.000  -0.000   0.000  -0.001  -0.000
 -0.000   0.000  -0.002   0.000   0.000  -0.000   0.000  -0.002
  0.000  -0.000  -0.000  -0.001   0.000   0.000  -0.000  -0.000
 -0.000   0.000   0.000  -0.000   0.000  -0.000   0.000   0.000
 -0.005  -0.000   0.000  -0.000  -0.000  -0.004  -0.000   0.000
 -0.000  -0.005   0.000   0.000   0.000  -0.000  -0.004   0.000
  0.000   0.000  -0.005   0.000  -0.000   0.000   0.000  -0.004
 -0.000   0.000   0.000  -0.005  -0.000  -0.000   0.000   0.000
 -0.000   0.000   0.000  -0.000  -0.005  -0.000   0.000   0.000
  0.000   0.000  -0.000  -0.000   0.000   0.000   0.000  -0.000
  0.000  -0.000  -0.000   0.000  -0.000   0.000  -0.000  -0.000
  0.008   0.000  -0.000   0.000   0.000   0.007   0.000  -0.000
  0.000   0.008  -0.000  -0.000  -0.000   0.000   0.008  -0.000
 -0.000  -0.000   0.008  -0.000   0.000  -0.000  -0.000   0.008
  0.000  -0.000  -0.000   0.008   0.000   0.000  -0.000  -0.000
  0.000  -0.000  -0.000   0.000   0.008   0.000  -0.000  -0.000
 -0.000  -0.000   0.000   0.000  -0.000  -0.000  -0.000   0.000
 pseudopotential strength for first ion, spin component:           2
-16.139   0.000  -0.000   0.000  -0.000 -15.743   0.000  -0.000
  0.000 -16.131   0.000   0.000   0.000   0.000 -15.734   0.000
 -0.000   0.000 -16.128   0.000  -0.000  -0.000   0.000 -15.732
  0.000   0.000   0.000 -16.131  -0.000   0.000   0.000   0.000
 -0.000   0.000  -0.000  -0.000 -16.139  -0.000   0.000  -0.000
-15.743   0.000  -0.000   0.000  -0.000 -15.335   0.000  -0.000
  0.000 -15.734   0.000   0.000   0.000   0.000 -15.326   0.000
 -0.000   0.000 -15.732   0.000  -0.000  -0.000   0.000 -15.324
  0.000   0.000   0.000 -15.734  -0.000   0.000   0.000   0.000
 -0.000   0.000  -0.000  -0.000 -15.743  -0.000   0.000  -0.000
 -0.000  -0.000   0.001  -0.000  -0.000  -0.000  -0.000   0.001
 -0.000  -0.000  -0.004  -0.000   0.000  -0.000  -0.000  -0.004
 -0.000   0.003   0.000   0.000   0.000   0.000   0.003   0.000
  0.000   0.000   0.003   0.000  -0.000   0.000   0.000   0.003
 -0.000   0.000   0.000   0.003  -0.000   0.000   0.000   0.000
  0.000  -0.001  -0.000  -0.000  -0.000   0.000  -0.001  -0.000
 -0.000   0.000  -0.002   0.000   0.000  -0.000   0.000  -0.002
  0.000  -0.000  -0.000  -0.001   0.000   0.000  -0.000  -0.000
 -0.000   0.000   0.000  -0.000   0.000  -0.000   0.000   0.000
 -0.005  -0.000   0.000  -0.000   0.000  -0.004  -0.000   0.000
 -0.000  -0.005   0.000   0.000   0.000  -0.000  -0.004   0.000
  0.000   0.000  -0.005   0.000  -0.000   0.000   0.000  -0.004
 -0.000   0.000   0.000  -0.005  -0.000  -0.000   0.000   0.000
  0.000   0.000   0.000  -0.000  -0.005   0.000   0.000   0.000
  0.000   0.000  -0.000  -0.000   0.000   0.000   0.000  -0.000
  0.000  -0.000  -0.000   0.000  -0.000   0.000  -0.000  -0.000
  0.008   0.000  -0.000   0.000  -0.000   0.007   0.000  -0.000
  0.000   0.008  -0.000  -0.000  -0.000   0.000   0.008  -0.000
 -0.000  -0.000   0.008  -0.000   0.000  -0.000  -0.000   0.008
  0.000  -0.000  -0.000   0.008   0.000   0.000  -0.000  -0.000
 -0.000  -0.000  -0.000   0.000   0.008  -0.000  -0.000  -0.000
 -0.000  -0.000   0.000   0.000  -0.000  -0.000  -0.000   0.000
 total augmentation occupancy for first ion, spin component:           1
  2.040   0.000   0.000  -0.000   0.000  -0.021  -0.000  -0.000   0.000  -0.000   0.000   0.000   0.000  -0.000   0.000   0.000
  0.000   2.024   0.000   0.000   0.000   0.000  -0.020  -0.000   0.000   0.000   0.000   0.000   0.003   0.000  -0.000  -0.000
  0.000   0.000   2.312   0.000   0.000  -0.000  -0.000  -0.314   0.000  -0.000  -0.082  -0.004   0.000  -0.122   0.000  -0.000
 -0.000   0.000  -0.000   2.024   0.000  -0.000   0.000   0.000  -0.020   0.000  -0.000   0.000   0.000   0.000   0.003   0.000
  0.000   0.000   0.000   0.000   2.040  -0.000   0.000   0.000  -0.000  -0.021   0.000   0.000   0.000   0.000   0.000   0.000
 -0.021   0.000  -0.000  -0.000  -0.000   0.000   0.000   0.000  -0.000   0.000   0.000   0.000   0.000   0.000  -0.000  -0.000
 -0.000  -0.020   0.000   0.000   0.000   0.000   0.013   0.000   0.000   0.000  -0.000   0.000   0.002   0.000   0.000   0.000
 -0.000   0.000  -0.314   0.000   0.000   0.000   0.000   0.312   0.000   0.000   0.072   0.005   0.000   0.122   0.000  -0.000
  0.000   0.000  -0.000  -0.020  -0.000  -0.000   0.000   0.000   0.013   0.000   0.000   0.000  -0.000   0.000   0.002   0.000
 -0.000   0.000   0.000   0.000  -0.021   0.000   0.000   0.000   0.000   0.000   0.000  -0.000   0.000   0.000  -0.000   0.000
  0.000   0.000  -0.082  -0.000   0.000   0.000  -0.000   0.072   0.000   0.000   1.963  -0.000  -0.000  -0.001  -0.000   0.000
  0.000   0.000  -0.004   0.000   0.000   0.000   0.000   0.005   0.000  -0.000  -0.000   0.000   0.000   0.002   0.000  -0.000
  0.000   0.003   0.000   0.000   0.000   0.000   0.002   0.000  -0.000   0.000   0.000   0.000   0.000   0.000   0.000   0.000
 -0.000   0.000  -0.122  -0.000   0.000   0.000   0.000   0.122   0.000   0.000  -0.001   0.002   0.000   0.050   0.000   0.000
  0.000  -0.000   0.000   0.003   0.000  -0.000   0.000   0.000   0.002  -0.000   0.000   0.000   0.000  -0.000   0.000   0.000
  0.000  -0.000  -0.000   0.000   0.000  -0.000   0.000  -0.000   0.000   0.000   0.000  -0.000   0.000   0.000   0.000   0.000
  0.000  -0.000  -0.004   0.000   0.000   0.000  -0.000   0.004   0.000  -0.000   0.001   0.000   0.000   0.002   0.000   0.000
  0.000   0.000  -0.000  -0.000  -0.000  -0.000   0.000  -0.000   0.000   0.000   0.000  -0.000   0.000   0.000   0.000   0.000
  0.000  -0.000   0.000  -0.000  -0.000   0.000   0.000  -0.000  -0.000   0.000  -0.000  -0.000  -0.000  -0.000  -0.000   0.000
  0.001   0.000   0.000  -0.000   0.000   0.000   0.000   0.000   0.000  -0.000   0.000   0.000   0.000   0.000   0.000   0.000
  0.000   0.002  -0.000   0.000   0.000   0.000   0.002   0.000   0.000   0.000   0.000  -0.000   0.000   0.000   0.000   0.000
  0.000   0.000  -0.017   0.000   0.000   0.000  -0.000   0.023   0.000   0.000   0.009   0.000  -0.000   0.008   0.000   0.000
 -0.000   0.000  -0.000   0.002   0.000  -0.000   0.000  -0.000   0.002  -0.000   0.000   0.000   0.000   0.000   0.000   0.000
 -0.000  -0.000   0.000  -0.000   0.001  -0.000   0.000   0.000   0.000   0.000   0.000   0.000   0.000  -0.000   0.000   0.000
  0.000   0.000  -0.000   0.000   0.000  -0.000   0.000   0.000  -0.000  -0.000  -0.000   0.000   0.000  -0.000   0.000  -0.000
 -0.000  -0.000   0.000   0.000  -0.000   0.000   0.000   0.000  -0.000   0.000  -0.000  -0.000  -0.000   0.000   0.000   0.000
 -0.000   0.000   0.000  -0.000   0.000   0.000   0.000   0.000   0.000  -0.000   0.000   0.000   0.000   0.000   0.000  -0.000
  0.000   0.000  -0.000   0.000   0.000   0.000   0.001  -0.000   0.000  -0.000  -0.000   0.000   0.000  -0.000   0.000   0.000
 -0.000   0.000  -0.008  -0.000   0.000  -0.000   0.000   0.010  -0.000   0.000   0.004   0.000   0.000   0.004   0.000   0.000
  0.000   0.000  -0.000   0.000  -0.000   0.000   0.000   0.000   0.001  -0.000  -0.000   0.000   0.000   0.000   0.000   0.000
  0.000   0.000   0.000   0.000  -0.000  -0.000   0.000  -0.000  -0.000   0.000   0.000   0.000   0.000  -0.000   0.000  -0.000
  0.000  -0.000  -0.000   0.000  -0.000  -0.000  -0.000  -0.000  -0.000   0.000   0.000   0.000   0.000   0.000   0.000  -0.000
 total augmentation occupancy for first ion, spin component:           2
 -0.000   0.000   0.000  -0.000   0.000   0.000   0.000   0.000   0.000   0.000   0.000   0.000   0.000   0.000  -0.000  -0.000
  0.000  -0.000  -0.000   0.000   0.000   0.000   0.000   0.000  -0.000   0.000  -0.000   0.000  -0.000  -0.000  -0.000  -0.000
  0.000  -0.000   0.000   0.000   0.000   0.000  -0.000  -0.000   0.000  -0.000  -0.000  -0.000   0.000   0.000  -0.000   0.000
 -0.000   0.000   0.000  -0.000   0.000  -0.000   0.000   0.000   0.000   0.000   0.000  -0.000  -0.000   0.000  -0.000  -0.000
  0.000   0.000   0.000   0.000  -0.000  -0.000   0.000   0.000  -0.000   0.000   0.000   0.000   0.000   0.000  -0.000   0.000
  0.000   0.000   0.000  -0.000  -0.000  -0.000   0.000   0.000  -0.000   0.000  -0.000  -0.000   0.000  -0.000  -0.000  -0.000
  0.000   0.000   0.000   0.000   0.000   0.000   0.000  -0.000   0.000   0.000   0.000   0.000   0.000   0.000   0.000   0.000
  0.000   0.000  -0.000   0.000   0.000   0.000  -0.000   0.000  -0.000  -0.000   0.000   0.000   0.000  -0.000   0.000  -0.000
  0.000  -0.000  -0.000   0.000  -0.000  -0.000   0.000  -0.000   0.000   0.000   0.000  -0.000   0.000  -0.000   0.000   0.000
  0.000   0.000  -0.000   0.000   0.000   0.000   0.000  -0.000   0.000  -0.000   0.000   0.000   0.000   0.000  -0.000   0.000
  0.000  -0.000  -0.000   0.000   0.000  -0.000   0.000   0.000   0.000   0.000   0.000  -0.000  -0.000   0.000   0.000   0.000
  0.000   0.000  -0.000  -0.000   0.000  -0.000   0.000   0.000  -0.000   0.000  -0.000   0.000  -0.000   0.000   0.000  -0.000
  0.000  -0.000   0.000  -0.000   0.000   0.000   0.000   0.000   0.000   0.000  -0.000  -0.000   0.000  -0.000   0.000   0.000
  0.000   0.000   0.000   0.000   0.000  -0.000   0.000  -0.000   0.000   0.000   0.000   0.000   0.000  -0.000   0.000   0.000
 -0.000  -0.000  -0.000  -0.000  -0.000  -0.000   0.000   0.000   0.000  -0.000   0.000   0.000   0.000   0.000   0.000   0.000
 -0.000  -0.000   0.000  -0.000   0.000  -0.000   0.000   0.000   0.000   0.000   0.000  -0.000   0.000   0.000   0.000   0.000
 -0.000   0.000  -0.000   0.000   0.000   0.000  -0.000   0.000   0.000   0.000  -0.000   0.000   0.000  -0.000   0.000  -0.000
 -0.000  -0.000   0.000  -0.000  -0.000   0.000   0.000  -0.000   0.000   0.000  -0.000   0.000   0.000   0.000   0.000   0.000
  0.000  -0.000   0.000   0.000   0.000   0.000   0.000   0.000   0.000   0.000  -0.000   0.000   0.000  -0.000   0.000   0.000
  0.000   0.000  -0.000  -0.000  -0.000   0.000   0.000   0.000   0.000  -0.000   0.000  -0.000   0.000   0.000   0.000   0.000
  0.000   0.000  -0.000   0.000   0.000   0.000  -0.000  -0.000  -0.000   0.000   0.000   0.000  -0.000  -0.000   0.000   0.000
  0.000  -0.000  -0.000  -0.000   0.000   0.000   0.000   0.000  -0.000   0.000   0.000   0.000  -0.000   0.000   0.000   0.000
 -0.000   0.000   0.000   0.000   0.000  -0.000  -0.000   0.000  -0.000   0.000  -0.000   0.000   0.000  -0.000  -0.000   0.000
 -0.000   0.000   0.000   0.000   0.000   0.000   0.000   0.000   0.000   0.000   0.000   0.000   0.000   0.000  -0.000   0.000
  0.000  -0.000  -0.000   0.000  -0.000  -0.000  -0.000   0.000  -0.000  -0.000  -0.000   0.000   0.000   0.000  -0.000  -0.000
  0.000  -0.000   0.000  -0.000  -0.000   0.000   0.000   0.000   0.000   0.000  -0.000   0.000   0.000   0.000  -0.000   0.000
 -0.000   0.000  -0.000   0.000  -0.000   0.000   0.000   0.000  -0.000   0.000   0.000   0.000  -0.000  -0.000  -0.000   0.000
  0.000  -0.000   0.000   0.000   0.000   0.000  -0.000   0.000  -0.000   0.000  -0.000   0.000  -0.000  -0.000   0.000   0.000
  0.000   0.000  -0.000  -0.000   0.000   0.000  -0.000   0.000   0.000   0.000   0.000   0.000   0.000   0.000  -0.000   0.000
 -0.000  -0.000   0.000  -0.000  -0.000  -0.000   0.000   0.000  -0.000   0.000   0.000   0.000   0.000   0.000  -0.000   0.000
 -0.000  -0.000   0.000   0.000  -0.000   0.000   0.000   0.000   0.000   0.000   0.000   0.000   0.000   0.000  -0.000   0.000
 -0.000   0.000  -0.000   0.000  -0.000   0.000   0.000   0.000  -0.000   0.000   0.000   0.000   0.000  -0.000  -0.000   0.000


------------------------ aborting loop because EDIFF is reached ----------------------------------------


 


 total charge     
 
# of ion       s       p       d       f       tot
--------------------------------------------------
    1        0.898   0.032   9.641   0.001  10.572
    2        0.898   0.032   9.641   0.001  10.572
--------------------------------------------------
tot          1.795   0.064  19.283   0.001  21.143

 


 magnetization (x)
 
# of ion       s       p       d       f       tot
--------------------------------------------------
    1        0.000  -0.000   0.000  -0.000   0.000
    2        0.000  -0.000   0.000  -0.000   0.000
--------------------------------------------------
tot          0.000  -0.000   0.000  -0.000   0.000

 
    CHARGE:  cpu time    2.4246: real time    2.4354
    FORLOC:  cpu time    0.0260: real time    0.0261
    FORNL :  cpu time   12.4241: real time   12.4804
    FORCOR:  cpu time    6.6220: real time    6.6662
    FORHAR:  cpu time    0.4169: real time    0.4179
    MIXING:  cpu time    0.1770: real time    0.1763
    OFIELD:  cpu time    0.0000: real time    0.0000

 VOLUME and BASIS-vectors are now :
 -----------------------------------------------------------------------------
  energy-cutoff  :      500.00
  volume of cell :     4913.00
      direct lattice vectors                 reciprocal lattice vectors
    17.000000000  0.000000000  0.000000000     0.058823529  0.000000000  0.000000000
     0.000000000 17.000000000  0.000000000     0.000000000  0.058823529  0.000000000
     0.000000000  0.000000000 17.000000000     0.000000000  0.000000000  0.058823529

  length of vectors
    17.000000000 17.000000000 17.000000000     0.058823529  0.058823529  0.058823529


 FORCES acting on ions
    electron-ion (+dipol)            ewald-force                    non-local-force                 convergence-correction
 -----------------------------------------------------------------------------------------------
   -.457E-13 -.892E-12 0.209E+03   -.122E-16 -.574E-16 -.210E+03   0.000E+00 0.000E+00 0.541E+00   -.100E-12 0.613E-12 0.307E-02
   -.528E-13 0.885E-12 -.209E+03   -.905E-17 0.394E-16 0.210E+03   0.106E-21 0.000E+00 -.541E+00   -.152E-11 0.370E-12 -.307E-02
 -----------------------------------------------------------------------------------------------
   -.985E-13 -.737E-14 0.496E-11   -.212E-16 -.180E-16 0.000E+00   0.106E-21 0.000E+00 -.111E-15   -.162E-11 0.983E-12 -.473E-12
 
 
 POSITION                                       TOTAL-FORCE (eV/Angst)
 -----------------------------------------------------------------------------------
      0.00000     -0.00000     15.45131         0.000000     -0.000000     -0.245065
     -0.00000      0.00000      1.54869        -0.000000      0.000000      0.245065
 -----------------------------------------------------------------------------------
    total drift:                               -0.000000      0.000000      0.000000


--------------------------------------------------------------------------------------------------------



  FREE ENERGIE OF THE ION-ELECTRON SYSTEM (eV)
  ---------------------------------------------------
  free  energy   TOTEN  =        -0.05209055 eV

  energy  without entropy=       -0.05209055  energy(sigma->0) =       -0.05209055
 
 d Force = 0.8958279E-01[ 0.514E-01, 0.128E+00]  d Energy = 0.8522901E-01 0.435E-02
 d Force = 0.4748709E+02[ 0.440E+02, 0.509E+02]  d Ewald  = 0.4736810E+02 0.119E+00


--------------------------------------------------------------------------------------------------------


    POTLOK:  cpu time    6.9309: real time    6.9508


--------------------------------------------------------------------------------------------------------




--------------------------------------------------------------------------------------------------------


    WAVPRE:  cpu time    0.1290: real time    0.3623
    FEWALD:  cpu time    0.0000: real time    0.0001

 real space projection operators:
  total allocation   :       1270.50 KBytes
  max/ min on nodes  :        329.00        312.50

    ORTHCH:  cpu time    0.3739: real time    0.3741
     LOOP+:  cpu time  160.7436: real time  161.5118


--------------------------------------- Iteration      4(   1)  ---------------------------------------


    POTLOK:  cpu time    3.5695: real time    3.5968
    SETDIJ:  cpu time    3.3335: real time    3.3391
     EDDAV:  cpu time    4.4493: real time    4.4620
       DOS:  cpu time    0.0010: real time    0.0008
    CHARGE:  cpu time    2.4266: real time    2.4405
    MIXING:  cpu time    0.0840: real time    0.0841
    --------------------------------------------
      LOOP:  cpu time   13.8639: real time   13.9233

 eigenvalue-minimisations  :   108
 total energy-change (2. order) : 0.2167231E+01  (-0.1222870E+03)
 number of electron      23.9999999 magnetization      -0.0002397
 augmentation part       12.5458096 magnetization      -0.0005783

  free energy =   0.211514016016E+01  energy without entropy=   0.211514016016E+01


--------------------------------------------------------------------------------------------------------




--------------------------------------- Iteration      4(   2)  ---------------------------------------


    POTLOK:  cpu time    3.5895: real time    3.6098
    SETDIJ:  cpu time    3.2865: real time    3.2974
     EDDAV:  cpu time    3.2945: real time    3.3119
       DOS:  cpu time    0.0010: real time    0.0006
    CHARGE:  cpu time    2.4146: real time    2.4195
    MIXING:  cpu time    0.0970: real time    0.1002
    --------------------------------------------
      LOOP:  cpu time   12.6831: real time   12.7394

 eigenvalue-minimisations  :    72
 total energy-change (2. order) :-0.2178383E+01  (-0.2207332E+01)
 number of electron      23.9999999 magnetization      -0.0002167
 augmentation part       12.1404505 magnetization      -0.0008087

 eigenvalues of (default mixing * dielectric matrix)
  average eigenvalue GAMMA=   0.9604
  0.9604

  free energy =  -0.632431598765E-01  energy without entropy=  -0.632431598765E-01


--------------------------------------------------------------------------------------------------------




--------------------------------------- Iteration      4(   3)  ---------------------------------------


    POTLOK:  cpu time    3.5795: real time    3.5997
    SETDIJ:  cpu time    3.3095: real time    3.3176
     EDDAV:  cpu time    4.0104: real time    4.0225
       DOS:  cpu time    0.0000: real time    0.0006
    CHARGE:  cpu time    2.4446: real time    2.4547
    MIXING:  cpu time    0.1080: real time    0.1086
    --------------------------------------------
      LOOP:  cpu time   13.4520: real time   13.5036

 eigenvalue-minimisations  :    92
 total energy-change (2. order) :-0.2474903E-01  (-0.2103943E-01)
 number of electron      23.9999999 magnetization      -0.0002036
 augmentation part       12.1589948 magnetization      -0.0000501

 eigenvalues of (default mixing * dielectric matrix)
  average eigenvalue GAMMA=   0.7807
  0.9032  0.6582

  free energy =  -0.879921849778E-01  energy without entropy=  -0.879921849778E-01


--------------------------------------------------------------------------------------------------------




--------------------------------------- Iteration      4(   4)  ---------------------------------------


    POTLOK:  cpu time    3.5835: real time    3.6076
    SETDIJ:  cpu time    3.2795: real time    3.2885
     EDDAV:  cpu time    3.9624: real time    3.9763
       DOS:  cpu time    0.0000: real time    0.0004
    CHARGE:  cpu time    2.3776: real time    2.3869
    MIXING:  cpu time    0.1270: real time    0.1269
    --------------------------------------------
      LOOP:  cpu time   13.3300: real time   13.3868

 eigenvalue-minimisations  :    92
 total energy-change (2. order) :-0.1047585E-02  (-0.6770572E-03)
 number of electron      23.9999999 magnetization      -0.0001046
 augmentation part       12.1566156 magnetization      -0.0001225

 eigenvalues of (default mixing * dielectric matrix)
  average eigenvalue GAMMA=   1.7955
  3.3527  1.1562  0.8776

  free energy =  -0.890397696949E-01  energy without entropy=  -0.890397696949E-01


--------------------------------------------------------------------------------------------------------




--------------------------------------- Iteration      4(   5)  ---------------------------------------


    POTLOK:  cpu time    3.5875: real time    3.6044
    SETDIJ:  cpu time    3.2765: real time    3.2846
     EDDAV:  cpu time    4.2654: real time    4.2803
       DOS:  cpu time    0.0010: real time    0.0007
    CHARGE:  cpu time    2.3936: real time    2.4071
    MIXING:  cpu time    0.1230: real time    0.1230
    --------------------------------------------
      LOOP:  cpu time   13.6469: real time   13.7000

 eigenvalue-minimisations  :   104
 total energy-change (2. order) : 0.7512239E-04  (-0.7041782E-04)
 number of electron      23.9999999 magnetization       0.0003018
 augmentation part       12.1576105 magnetization       0.0002986

 eigenvalues of (default mixing * dielectric matrix)
  average eigenvalue GAMMA=   8.4114
 30.7206  1.1195  0.9748  0.8309

  free energy =  -0.889646473083E-01  energy without entropy=  -0.889646473083E-01


--------------------------------------------------------------------------------------------------------




--------------------------------------- Iteration      4(   6)  ---------------------------------------


    POTLOK:  cpu time    3.5915: real time    3.6140
    SETDIJ:  cpu time    3.2995: real time    3.3070
     EDDAV:  cpu time    3.7804: real time    3.7971
       DOS:  cpu time    0.0010: real time    0.0005
    CHARGE:  cpu time    2.3496: real time    2.4408
    MIXING:  cpu time    0.1270: real time    0.1405
    --------------------------------------------
      LOOP:  cpu time   13.1490: real time   13.2999

 eigenvalue-minimisations  :    88
 total energy-change (2. order) :-0.3875761E-03  (-0.6336567E-03)
 number of electron      23.9999999 magnetization       0.0002271
 augmentation part       12.1600515 magnetization       0.0001997

 eigenvalues of (default mixing * dielectric matrix)
  average eigenvalue GAMMA=   7.4243
 31.4704  2.7470  1.0186  1.0186  0.8671

  free energy =  -0.893522234128E-01  energy without entropy=  -0.893522234128E-01


--------------------------------------------------------------------------------------------------------




--------------------------------------- Iteration      4(   7)  ---------------------------------------


    POTLOK:  cpu time    3.5705: real time    3.6045
    SETDIJ:  cpu time    3.3415: real time    3.3494
     EDDAV:  cpu time    3.4585: real time    3.4766
       DOS:  cpu time    0.0010: real time    0.0002
    CHARGE:  cpu time    2.4686: real time    2.4781
    MIXING:  cpu time    0.1390: real time    0.1392
    --------------------------------------------
      LOOP:  cpu time   12.9790: real time   13.0479

 eigenvalue-minimisations  :    78
 total energy-change (2. order) :-0.4272701E-04  (-0.3225112E-04)
 number of electron      23.9999999 magnetization      -0.0005645
 augmentation part       12.1599017 magnetization      -0.0005856

 eigenvalues of (default mixing * dielectric matrix)
  average eigenvalue GAMMA=  10.7891
 38.8246 21.9598  1.0522  1.0522  0.9914  0.8542

  free energy =  -0.893949504239E-01  energy without entropy=  -0.893949504239E-01


--------------------------------------------------------------------------------------------------------




--------------------------------------- Iteration      4(   8)  ---------------------------------------


    POTLOK:  cpu time    3.5725: real time    3.5872
    SETDIJ:  cpu time    3.3285: real time    3.3374
     EDDAV:  cpu time    3.7474: real time    3.7638
       DOS:  cpu time    0.0010: real time    0.0008
    CHARGE:  cpu time    2.4126: real time    2.4200
    MIXING:  cpu time    0.1780: real time    0.1807
    --------------------------------------------
      LOOP:  cpu time   13.2400: real time   13.2898

 eigenvalue-minimisations  :    88
 total energy-change (2. order) :-0.1797295E-03  (-0.1960637E-03)
 number of electron      23.9999999 magnetization      -0.0004248
 augmentation part       12.1596223 magnetization      -0.0004206

 eigenvalues of (default mixing * dielectric matrix)
  average eigenvalue GAMMA=  10.3881
 50.8720 16.5976  0.8589  0.9267  1.0108  1.0612  1.3896

  free energy =  -0.895746798969E-01  energy without entropy=  -0.895746798969E-01


--------------------------------------------------------------------------------------------------------




--------------------------------------- Iteration      4(   9)  ---------------------------------------


    POTLOK:  cpu time    3.5785: real time    3.6076
    SETDIJ:  cpu time    3.2805: real time    3.3326
     EDDAV:  cpu time    3.9574: real time    3.9733
       DOS:  cpu time    0.0010: real time    0.0002
    CHARGE:  cpu time    2.4036: real time    2.4190
    MIXING:  cpu time    0.1840: real time    0.1844
    --------------------------------------------
      LOOP:  cpu time   13.4050: real time   13.5171

 eigenvalue-minimisations  :    94
 total energy-change (2. order) :-0.1197625E-04  (-0.3586053E-04)
 number of electron      23.9999999 magnetization      -0.0001528
 augmentation part       12.1601604 magnetization      -0.0001571

 eigenvalues of (default mixing * dielectric matrix)
  average eigenvalue GAMMA=  10.0065
 49.6632 14.4911 10.9574  0.8544  1.0467  1.0039  1.0175  1.0175

  free energy =  -0.895866561459E-01  energy without entropy=  -0.895866561459E-01


--------------------------------------------------------------------------------------------------------




--------------------------------------- Iteration      4(  10)  ---------------------------------------


    POTLOK:  cpu time    3.5905: real time    3.6014
    SETDIJ:  cpu time    3.3115: real time    3.3184
     EDDAV:  cpu time    3.9324: real time    3.9483
       DOS:  cpu time    0.0000: real time    0.0004
    CHARGE:  cpu time    2.4216: real time    2.4293
    MIXING:  cpu time    0.1860: real time    0.1858
    --------------------------------------------
      LOOP:  cpu time   13.4420: real time   13.4837

 eigenvalue-minimisations  :    92
 total energy-change (2. order) : 0.3683237E-05  (-0.2656256E-05)
 number of electron      23.9999999 magnetization       0.0004448
 augmentation part       12.1599122 magnetization       0.0004413

 eigenvalues of (default mixing * dielectric matrix)
  average eigenvalue GAMMA=   9.6535
 49.2096 15.9406 15.9406  1.0145  1.0145  1.0532  0.9993  0.8545  0.8545

  free energy =  -0.895829729088E-01  energy without entropy=  -0.895829729088E-01


--------------------------------------------------------------------------------------------------------




--------------------------------------- Iteration      4(  11)  ---------------------------------------


    POTLOK:  cpu time    3.5815: real time    3.6028
    SETDIJ:  cpu time    3.2995: real time    3.3110
     EDDAV:  cpu time    3.3485: real time    3.3843
       DOS:  cpu time    0.0000: real time    0.0002
    CHARGE:  cpu time    2.4166: real time    2.4239
    MIXING:  cpu time    0.1990: real time    0.2006
    --------------------------------------------
      LOOP:  cpu time   12.8450: real time   12.9227

 eigenvalue-minimisations  :    76
 total energy-change (2. order) : 0.3948754E-05  (-0.3693782E-05)
 number of electron      23.9999999 magnetization       0.0003733
 augmentation part       12.1591266 magnetization       0.0003712

 eigenvalues of (default mixing * dielectric matrix)
  average eigenvalue GAMMA=   9.4045
 50.3283 16.7965 16.7965  4.1134  0.8547  1.0894  1.0065  1.0065  1.0103  1.0431

  free energy =  -0.895790241552E-01  energy without entropy=  -0.895790241552E-01


--------------------------------------------------------------------------------------------------------




--------------------------------------- Iteration      4(  12)  ---------------------------------------


    POTLOK:  cpu time    3.6174: real time    4.2446
    SETDIJ:  cpu time    3.3085: real time    3.3112
     EDDAV:  cpu time    2.9016: real time    2.9055
       DOS:  cpu time    0.0000: real time    0.0001
    --------------------------------------------
      LOOP:  cpu time    9.8275: real time   10.4615

 eigenvalue-minimisations  :    60
 total energy-change (2. order) :-0.9310611E-06  (-0.2078310E-06)
 number of electron      23.9999999 magnetization       0.0003733
 augmentation part       12.1591266 magnetization       0.0003712

  free energy =  -0.895799552163E-01  energy without entropy=  -0.895799552163E-01


--------------------------------------------------------------------------------------------------------




 average (electrostatic) potential at core
  the test charge radii are     1.1405
  (the norm of the test charge is              1.0000)
       1 -75.7521       2 -75.7521
 
 
 
 E-fermi :  -4.9963     XC(G=0):  -0.3490     alpha+bet : -0.0868


 spin component 1

 k-point     1 :       0.0000    0.0000    0.0000
  band No.  band energies     occupation 
      1     -11.7796      1.00000
      2     -11.7158      1.00000
      3     -11.7158      1.00000
      4     -11.6879      1.00000
      5     -11.6879      1.00000
      6     -11.6777      1.00000
      7     -11.6777      1.00000
      8     -11.6365      1.00000
      9     -11.6365      1.00000
     10     -11.5874      1.00000
     11      -6.2422      1.00000
     12      -5.0412      1.00000
     13      -1.6226      0.00000
     14      -1.5618      0.00000
     15      -1.5618      0.00000
     16      -0.5651      0.00000
     17      -0.5651      0.00000
     18      -0.0428      0.00000

 spin component 2

 k-point     1 :       0.0000    0.0000    0.0000
  band No.  band energies     occupation 
      1     -11.7797      1.00000
      2     -11.7159      1.00000
      3     -11.7159      1.00000
      4     -11.6880      1.00000
      5     -11.6880      1.00000
      6     -11.6778      1.00000
      7     -11.6778      1.00000
      8     -11.6365      1.00000
      9     -11.6365      1.00000
     10     -11.5874      1.00000
     11      -6.2424      1.00000
     12      -5.0413      1.00000
     13      -1.6227      0.00000
     14      -1.5623      0.00000
     15      -1.5623      0.00000
     16      -0.5653      0.00000
     17      -0.5653      0.00000
     18      -0.0420      0.00000


--------------------------------------------------------------------------------------------------------


 soft charge-density along one line, spin component           1
         0         1         2         3         4         5         6         7         8         9
 total charge-density along one line
 
 soft charge-density along one line, spin component           2
         0         1         2         3         4         5         6         7         8         9
 total charge-density along one line
 
 pseudopotential strength for first ion, spin component:           1
-16.097   0.000  -0.000   0.000  -0.000 -15.703   0.000  -0.000
  0.000 -16.091   0.000   0.000  -0.000   0.000 -15.698   0.000
 -0.000   0.000 -16.089   0.000  -0.000  -0.000   0.000 -15.696
  0.000   0.000   0.000 -16.091   0.000   0.000   0.000   0.000
 -0.000  -0.000  -0.000   0.000 -16.097  -0.000  -0.000  -0.000
-15.703   0.000  -0.000   0.000  -0.000 -15.297   0.000  -0.000
  0.000 -15.698   0.000   0.000  -0.000   0.000 -15.292   0.000
 -0.000   0.000 -15.696   0.000  -0.000  -0.000   0.000 -15.290
  0.000   0.000   0.000 -15.698   0.000   0.000   0.000   0.000
 -0.000  -0.000  -0.000   0.000 -15.703  -0.000  -0.000  -0.000
 -0.000  -0.000   0.000  -0.000  -0.000  -0.000  -0.000   0.000
 -0.000  -0.000  -0.002  -0.000   0.000  -0.000  -0.000  -0.002
 -0.000   0.001   0.000   0.000   0.000  -0.000   0.001   0.000
  0.000  -0.000   0.001  -0.000  -0.000   0.000   0.000   0.001
 -0.000   0.000   0.000   0.001  -0.000  -0.000   0.000   0.000
  0.000  -0.000  -0.000  -0.000  -0.000   0.000  -0.000  -0.000
 -0.000   0.000  -0.001   0.000  -0.000  -0.000   0.000  -0.001
  0.000  -0.000  -0.000  -0.000   0.000   0.000  -0.000  -0.000
 -0.000   0.000   0.000  -0.000   0.000  -0.000   0.000   0.000
 -0.002  -0.000   0.000  -0.000  -0.000  -0.002  -0.000   0.000
  0.000  -0.002   0.000   0.000   0.000   0.000  -0.002   0.000
  0.000   0.000  -0.001   0.000  -0.000   0.000   0.000  -0.001
  0.000   0.000   0.000  -0.002  -0.000   0.000   0.000   0.000
 -0.000   0.000  -0.000  -0.000  -0.002  -0.000   0.000  -0.000
  0.000   0.000  -0.000  -0.000   0.000   0.000   0.000  -0.000
  0.000  -0.000  -0.000   0.000  -0.000   0.000  -0.000  -0.000
  0.003   0.000  -0.000   0.000   0.000   0.003   0.000  -0.000
  0.000   0.003  -0.000  -0.000  -0.000  -0.000   0.003  -0.000
 -0.000  -0.000   0.002  -0.000   0.000  -0.000  -0.000   0.002
  0.000  -0.000  -0.000   0.003   0.000  -0.000  -0.000  -0.000
  0.000  -0.000   0.000   0.000   0.003   0.000  -0.000   0.000
 -0.000  -0.000   0.000   0.000  -0.000  -0.000  -0.000   0.000
 pseudopotential strength for first ion, spin component:           2
-16.097   0.000  -0.000   0.000  -0.000 -15.703   0.000  -0.000
  0.000 -16.092   0.000   0.000  -0.000   0.000 -15.698   0.000
 -0.000   0.000 -16.089   0.000   0.000  -0.000   0.000 -15.696
  0.000   0.000   0.000 -16.092   0.000   0.000   0.000   0.000
 -0.000  -0.000   0.000   0.000 -16.097  -0.000  -0.000   0.000
-15.703   0.000  -0.000   0.000  -0.000 -15.297   0.000  -0.000
  0.000 -15.698   0.000   0.000  -0.000   0.000 -15.292   0.000
 -0.000   0.000 -15.696   0.000   0.000  -0.000   0.000 -15.290
  0.000   0.000   0.000 -15.698   0.000   0.000   0.000   0.000
 -0.000  -0.000   0.000   0.000 -15.703  -0.000  -0.000   0.000
 -0.000  -0.000   0.000  -0.000  -0.000  -0.000  -0.000   0.000
 -0.000  -0.000  -0.002  -0.000   0.000  -0.000  -0.000  -0.002
 -0.000   0.001   0.000   0.000   0.000  -0.000   0.001   0.000
  0.000  -0.000   0.001  -0.000  -0.000   0.000  -0.000   0.001
 -0.000   0.000   0.000   0.001  -0.000  -0.000   0.000   0.000
  0.000  -0.000  -0.000  -0.000  -0.000   0.000  -0.000  -0.000
 -0.000   0.000  -0.001   0.000   0.000  -0.000   0.000  -0.001
  0.000  -0.000  -0.000  -0.000   0.000   0.000  -0.000  -0.000
  0.000   0.000   0.000  -0.000   0.000   0.000   0.000   0.000
 -0.002  -0.000   0.000  -0.000   0.000  -0.002  -0.000   0.000
 -0.000  -0.002   0.000   0.000   0.000  -0.000  -0.002   0.000
  0.000   0.000  -0.001   0.000  -0.000   0.000   0.000  -0.001
 -0.000   0.000   0.000  -0.002  -0.000  -0.000   0.000   0.000
  0.000   0.000  -0.000  -0.000  -0.002  -0.000   0.000  -0.000
 -0.000   0.000  -0.000  -0.000   0.000  -0.000   0.000  -0.000
 -0.000  -0.000  -0.000   0.000  -0.000  -0.000  -0.000  -0.000
  0.003   0.000  -0.000   0.000  -0.000   0.003   0.000  -0.000
  0.000   0.003  -0.000  -0.000  -0.000   0.000   0.003  -0.000
 -0.000  -0.000   0.002  -0.000   0.000  -0.000  -0.000   0.002
  0.000  -0.000  -0.000   0.003   0.000   0.000  -0.000  -0.000
 -0.000  -0.000   0.000   0.000   0.003  -0.000  -0.000   0.000
  0.000  -0.000   0.000   0.000  -0.000   0.000  -0.000   0.000
 total augmentation occupancy for first ion, spin component:           1
  2.029   0.000  -0.000   0.000  -0.000  -0.015   0.000   0.000  -0.000   0.000   0.000   0.000   0.000   0.000  -0.000   0.000
  0.000   2.027  -0.000   0.000   0.000   0.000  -0.015   0.000   0.000   0.000  -0.000   0.000   0.001   0.000   0.000  -0.000
 -0.000  -0.000   2.139  -0.000   0.000  -0.000   0.000  -0.127   0.000   0.000  -0.028  -0.002   0.000  -0.049   0.000   0.000
  0.000   0.000  -0.000   2.027   0.000  -0.000   0.000  -0.000  -0.015  -0.000  -0.000   0.000   0.000  -0.000   0.001   0.000
 -0.000   0.000   0.000   0.000   2.029  -0.000   0.000   0.000  -0.000  -0.015   0.000   0.000   0.000   0.000   0.000   0.000
 -0.015   0.000  -0.000  -0.000  -0.000   0.000   0.000   0.000  -0.000  -0.000   0.000   0.000   0.000   0.000  -0.000   0.000
  0.000  -0.015   0.000   0.000   0.000   0.000   0.002   0.000   0.000   0.000   0.000   0.000   0.000   0.000   0.000   0.000
  0.000   0.000  -0.127  -0.000   0.000   0.000   0.000   0.112   0.000   0.000   0.022   0.002   0.000   0.048   0.000   0.000
 -0.000   0.000   0.000  -0.015  -0.000  -0.000   0.000   0.000   0.002  -0.000   0.000   0.000   0.000  -0.000   0.000   0.000
  0.000   0.000   0.000  -0.000  -0.015  -0.000   0.000   0.000  -0.000   0.000   0.000   0.000  -0.000   0.000   0.000   0.000
  0.000  -0.000  -0.028  -0.000   0.000   0.000   0.000   0.022   0.000   0.000   1.972  -0.001   0.000  -0.005   0.000   0.000
  0.000   0.000  -0.002   0.000   0.000   0.000   0.000   0.002   0.000   0.000  -0.001   0.000   0.000   0.001   0.000   0.000
  0.000   0.001   0.000   0.000   0.000   0.000   0.000   0.000   0.000  -0.000   0.000   0.000   0.000   0.000   0.000   0.000
  0.000   0.000  -0.049  -0.000   0.000   0.000   0.000   0.048  -0.000   0.000  -0.005   0.001   0.000   0.021   0.000   0.000
 -0.000   0.000   0.000   0.001   0.000  -0.000   0.000   0.000   0.000   0.000   0.000   0.000   0.000   0.000   0.000   0.000
  0.000  -0.000   0.000   0.000   0.000   0.000   0.000   0.000   0.000   0.000   0.000   0.000   0.000   0.000   0.000   0.000
  0.000   0.000  -0.002   0.000   0.000   0.000   0.000   0.002   0.000   0.000   0.001   0.000   0.000   0.001   0.000   0.000
  0.000   0.000   0.000  -0.000  -0.000   0.000  -0.000   0.000   0.000   0.000   0.000   0.000   0.000   0.000   0.000   0.000
  0.000  -0.000   0.000  -0.000  -0.000   0.000   0.000   0.000  -0.000  -0.000   0.000   0.000  -0.000   0.000  -0.000   0.000
  0.000   0.000   0.000  -0.000   0.000   0.000   0.000   0.000   0.000   0.000   0.000   0.000   0.000   0.000   0.000  -0.000
 -0.000   0.001   0.000  -0.000   0.000  -0.000   0.000   0.000   0.000   0.000   0.000   0.000   0.000   0.000   0.000   0.000
 -0.000   0.000  -0.006   0.000   0.000   0.000   0.000   0.007  -0.000   0.000   0.003   0.000   0.000   0.003   0.000   0.000
 -0.000   0.000   0.000   0.001   0.000   0.000   0.000   0.000   0.000  -0.000   0.000   0.000   0.000   0.000   0.000   0.000
  0.000   0.000   0.000  -0.000   0.000   0.000   0.000   0.000   0.000   0.000   0.000   0.000   0.000   0.000   0.000   0.000
  0.000   0.000   0.000   0.000  -0.000   0.000   0.000  -0.000  -0.000  -0.000   0.000  -0.000   0.000   0.000   0.000  -0.000
  0.000  -0.000   0.000  -0.000  -0.000   0.000   0.000   0.000   0.000   0.000   0.000  -0.000  -0.000   0.000  -0.000   0.000
 -0.000   0.000  -0.000  -0.000   0.000   0.000  -0.000   0.000  -0.000  -0.000   0.000   0.000   0.000   0.000  -0.000   0.000
 -0.000   0.000   0.000  -0.000   0.000  -0.000   0.000   0.000  -0.000   0.000   0.000   0.000   0.000   0.000  -0.000   0.000
 -0.000   0.000  -0.003   0.000   0.000   0.000  -0.000   0.003   0.000   0.000   0.002   0.000   0.000   0.001   0.000   0.000
 -0.000   0.000  -0.000   0.000   0.000   0.000  -0.000   0.000   0.000   0.000   0.000   0.000  -0.000   0.000   0.000  -0.000
 -0.000   0.000   0.000  -0.000  -0.000   0.000   0.000   0.000   0.000   0.000   0.000   0.000   0.000   0.000  -0.000   0.000
 -0.000  -0.000   0.000   0.000   0.000   0.000   0.000  -0.000  -0.000  -0.000  -0.000  -0.000   0.000  -0.000   0.000   0.000
 total augmentation occupancy for first ion, spin component:           2
 -0.000   0.000  -0.000   0.000   0.000   0.000   0.000   0.000   0.000   0.000   0.000   0.000  -0.000   0.000   0.000   0.000
  0.000  -0.000   0.000   0.000   0.000   0.000   0.000   0.000   0.000   0.000   0.000  -0.000  -0.000  -0.000  -0.000  -0.000
 -0.000   0.000  -0.000  -0.000   0.000   0.000   0.000   0.000   0.000   0.000  -0.000  -0.000   0.000  -0.000   0.000  -0.000
  0.000   0.000  -0.000  -0.000  -0.000  -0.000   0.000   0.000   0.000  -0.000  -0.000   0.000   0.000  -0.000  -0.000   0.000
  0.000   0.000   0.000  -0.000  -0.000   0.000   0.000   0.000   0.000   0.000   0.000   0.000   0.000   0.000   0.000   0.000
  0.000   0.000   0.000  -0.000   0.000  -0.000   0.000   0.000   0.000   0.000   0.000   0.000   0.000   0.000   0.000  -0.000
  0.000   0.000   0.000   0.000   0.000   0.000  -0.000   0.000   0.000   0.000   0.000   0.000   0.000   0.000   0.000   0.000
  0.000   0.000   0.000   0.000   0.000   0.000   0.000   0.000   0.000   0.000   0.000   0.000   0.000   0.000   0.000   0.000
  0.000   0.000   0.000   0.000   0.000   0.000   0.000   0.000  -0.000   0.000   0.000   0.000   0.000   0.000   0.000   0.000
  0.000   0.000   0.000  -0.000   0.000   0.000   0.000   0.000   0.000  -0.000   0.000   0.000   0.000   0.000  -0.000   0.000
  0.000   0.000  -0.000  -0.000   0.000   0.000   0.000   0.000   0.000   0.000   0.000  -0.000   0.000   0.000   0.000   0.000
  0.000  -0.000  -0.000   0.000   0.000   0.000   0.000   0.000   0.000   0.000  -0.000  -0.000   0.000  -0.000  -0.000  -0.000
 -0.000  -0.000   0.000   0.000   0.000   0.000   0.000   0.000   0.000   0.000   0.000   0.000  -0.000  -0.000   0.000  -0.000
  0.000  -0.000  -0.000  -0.000   0.000   0.000   0.000   0.000   0.000   0.000   0.000  -0.000  -0.000   0.000  -0.000   0.000
  0.000  -0.000   0.000  -0.000   0.000   0.000   0.000   0.000   0.000  -0.000   0.000  -0.000   0.000  -0.000  -0.000   0.000
  0.000  -0.000  -0.000   0.000   0.000  -0.000   0.000   0.000   0.000   0.000   0.000  -0.000  -0.000   0.000   0.000   0.000
 -0.000   0.000  -0.000   0.000   0.000   0.000   0.000   0.000   0.000   0.000   0.000   0.000   0.000   0.000   0.000  -0.000
  0.000  -0.000   0.000  -0.000   0.000   0.000   0.000   0.000   0.000   0.000  -0.000  -0.000   0.000   0.000  -0.000   0.000
 -0.000  -0.000   0.000   0.000   0.000   0.000   0.000   0.000  -0.000  -0.000   0.000  -0.000  -0.000   0.000   0.000   0.000
 -0.000   0.000   0.000   0.000  -0.000   0.000  -0.000   0.000  -0.000  -0.000   0.000   0.000  -0.000   0.000   0.000   0.000
  0.000   0.000   0.000  -0.000   0.000   0.000   0.000   0.000   0.000  -0.000   0.000  -0.000   0.000   0.000   0.000  -0.000
  0.000   0.000  -0.000   0.000   0.000   0.000   0.000   0.000   0.000  -0.000   0.000   0.000   0.000   0.000  -0.000  -0.000
 -0.000  -0.000   0.000   0.000   0.000   0.000   0.000   0.000   0.000  -0.000   0.000   0.000   0.000   0.000   0.000   0.000
 -0.000   0.000   0.000   0.000  -0.000  -0.000   0.000   0.000   0.000   0.000   0.000   0.000   0.000   0.000  -0.000   0.000
 -0.000  -0.000   0.000   0.000   0.000  -0.000   0.000   0.000  -0.000   0.000   0.000  -0.000   0.000  -0.000   0.000   0.000
  0.000  -0.000   0.000  -0.000   0.000   0.000   0.000   0.000  -0.000  -0.000   0.000   0.000  -0.000   0.000  -0.000   0.000
 -0.000  -0.000   0.000  -0.000  -0.000   0.000   0.000   0.000   0.000  -0.000   0.000   0.000   0.000  -0.000   0.000   0.000
  0.000   0.000   0.000   0.000   0.000   0.000   0.000   0.000   0.000   0.000   0.000   0.000   0.000   0.000   0.000  -0.000
  0.000   0.000  -0.000   0.000   0.000  -0.000   0.000   0.000  -0.000   0.000   0.000   0.000   0.000   0.000   0.000   0.000
  0.000  -0.000   0.000   0.000   0.000   0.000   0.000   0.000   0.000   0.000   0.000   0.000   0.000   0.000   0.000   0.000
 -0.000  -0.000   0.000   0.000  -0.000   0.000  -0.000   0.000  -0.000   0.000   0.000   0.000   0.000   0.000  -0.000   0.000
  0.000   0.000   0.000   0.000   0.000  -0.000   0.000  -0.000  -0.000  -0.000   0.000   0.000   0.000  -0.000   0.000  -0.000


------------------------ aborting loop because EDIFF is reached ----------------------------------------


 


 total charge     
 
# of ion       s       p       d       f       tot
--------------------------------------------------
    1        0.902   0.013   9.644   0.000  10.560
    2        0.902   0.013   9.644   0.000  10.560
--------------------------------------------------
tot          1.804   0.027  19.288   0.000  21.119

 


 magnetization (x)
 
# of ion       s       p       d       f       tot
--------------------------------------------------
    1        0.000   0.000   0.000   0.000   0.000
    2        0.000   0.000   0.000   0.000   0.000
--------------------------------------------------
tot          0.000   0.000   0.000   0.000   0.000

 
    CHARGE:  cpu time    2.4146: real time    2.4187
    FORLOC:  cpu time    0.0300: real time    0.0298
    FORNL :  cpu time   12.3841: real time   12.4051
    FORCOR:  cpu time    6.5930: real time    6.6399
    FORHAR:  cpu time    0.4189: real time    0.4199
    MIXING:  cpu time    0.2060: real time    0.2066
    OFIELD:  cpu time    0.0000: real time    0.0000

 VOLUME and BASIS-vectors are now :
 -----------------------------------------------------------------------------
  energy-cutoff  :      500.00
  volume of cell :     4913.00
      direct lattice vectors                 reciprocal lattice vectors
    17.000000000  0.000000000  0.000000000     0.058823529  0.000000000  0.000000000
     0.000000000 17.000000000  0.000000000     0.000000000  0.058823529  0.000000000
     0.000000000  0.000000000 17.000000000     0.000000000  0.000000000  0.058823529

  length of vectors
    17.000000000 17.000000000 17.000000000     0.058823529  0.058823529  0.058823529


 FORCES acting on ions
    electron-ion (+dipol)            ewald-force                    non-local-force                 convergence-correction
 -----------------------------------------------------------------------------------------------
   -.802E-13 -.604E-12 0.160E+03   -.131E-16 0.718E-16 -.161E+03   0.000E+00 0.000E+00 0.295E+00   0.745E-14 0.984E-12 0.431E-01
   -.884E-13 0.679E-12 -.160E+03   -.813E-17 -.898E-16 0.161E+03   0.424E-21 -.212E-21 -.295E+00   -.305E-12 0.267E-12 -.431E-01
 -----------------------------------------------------------------------------------------------
   -.169E-12 0.746E-13 0.251E-11   -.212E-16 -.180E-16 0.000E+00   0.424E-21 -.212E-21 0.000E+00   -.297E-12 0.125E-11 0.102E-12
 
 
 POSITION                                       TOTAL-FORCE (eV/Angst)
 -----------------------------------------------------------------------------------
      0.00000     -0.00000     15.24175         0.000000      0.000000      0.004580
     -0.00000      0.00000      1.75825         0.000000     -0.000000     -0.004580
 -----------------------------------------------------------------------------------
    total drift:                               -0.000000      0.000000      0.000000


--------------------------------------------------------------------------------------------------------



  FREE ENERGIE OF THE ION-ELECTRON SYSTEM (eV)
  ---------------------------------------------------
  free  energy   TOTEN  =        -0.08957996 eV

  energy  without entropy=       -0.08957996  energy(sigma->0) =       -0.08957996
 
 d Force = 0.5039568E-01[-0.192E-02, 0.103E+00]  d Energy = 0.3748940E-01 0.129E-01
 d Force = 0.7770052E+02[ 0.673E+02, 0.881E+02]  d Ewald  = 0.7705946E+02 0.641E+00


--------------------------------------------------------------------------------------------------------


    POTLOK:  cpu time    6.9359: real time    6.9426


--------------------------------------------------------------------------------------------------------




--------------------------------------------------------------------------------------------------------


  
 reached required accuracy - stopping structural energy minimisation
     LOOP+:  cpu time  184.8579: real time  186.4196
    4ORBIT:  cpu time    0.0000: real time    0.0000
 


 total charge     
 
# of ion       s       p       d       f       tot
--------------------------------------------------
    1        0.902   0.013   9.644   0.000  10.560
    2        0.902   0.013   9.644   0.000  10.560
--------------------------------------------------
tot          1.804   0.027  19.288   0.000  21.119

 


 magnetization (x)
 
# of ion       s       p       d       f       tot
--------------------------------------------------
    1        0.000   0.000   0.000   0.000   0.000
    2        0.000   0.000   0.000   0.000   0.000
--------------------------------------------------
tot          0.000   0.000   0.000   0.000   0.000

 

 total amount of memory used by VASP MPI-rank0   251156. kBytes
=======================================================================

   base      :      30000. kBytes
   nonlr-proj:        384. kBytes
   fftplans  :     134259. kBytes
   grid      :      81985. kBytes
   one-center:         49. kBytes
   wavefun   :       4479. kBytes
 
  
  
 General timing and accounting informations for this job:
 ========================================================
  
                  Total CPU time used (sec):      696.663
                            User time (sec):      689.034
                          System time (sec):        7.629
                         Elapsed time (sec):      796.009
  
                   Maximum memory used (kb):      777300.
                   Average memory used (kb):           0.
  
                          Minor page faults:       241208
                          Major page faults:           26
                 Voluntary context switches:          955
