PROCAR new format
# of k-points:    1         # of bands:   18         # of ions:    2

 k-point     1 :    0.00000000 0.00000000 0.00000000     weight = 1.00000000

band     1 # energy  -11.77959785 # occ.  1.00000000
 
ion      s      p      d      f    tot
    1  0.000  0.000  0.478  0.000  0.478
    2  0.000  0.000  0.478  0.000  0.478
tot    0.000  0.000  0.956  0.000  0.957
 
band     2 # energy  -11.71584743 # occ.  1.00000000
 
ion      s      p      d      f    tot
    1  0.000  0.000  0.480  0.000  0.480
    2  0.000  0.000  0.480  0.000  0.480
tot    0.000  0.000  0.960  0.000  0.960
 
band     3 # energy  -11.71584743 # occ.  1.00000000
 
ion      s      p      d      f    tot
    1  0.000  0.000  0.480  0.000  0.480
    2  0.000  0.000  0.480  0.000  0.480
tot    0.000  0.000  0.960  0.000  0.960
 
band     4 # energy  -11.68787827 # occ.  1.00000000
 
ion      s      p      d      f    tot
    1  0.000  0.000  0.482  0.000  0.482
    2  0.000  0.000  0.482  0.000  0.482
tot    0.000  0.000  0.964  0.000  0.964
 
band     5 # energy  -11.68786688 # occ.  1.00000000
 
ion      s      p      d      f    tot
    1  0.000  0.000  0.482  0.000  0.482
    2  0.000  0.000  0.482  0.000  0.482
tot    0.000  0.000  0.964  0.000  0.964
 
band     6 # energy  -11.67771502 # occ.  1.00000000
 
ion      s      p      d      f    tot
    1  0.000  0.000  0.483  0.000  0.483
    2  0.000  0.000  0.483  0.000  0.483
tot    0.000  0.000  0.965  0.000  0.965
 
band     7 # energy  -11.67770358 # occ.  1.00000000
 
ion      s      p      d      f    tot
    1  0.000  0.000  0.483  0.000  0.483
    2  0.000  0.000  0.483  0.000  0.483
tot    0.000  0.000  0.965  0.000  0.965
 
band     8 # energy  -11.63645265 # occ.  1.00000000
 
ion      s      p      d      f    tot
    1  0.000  0.000  0.484  0.000  0.484
    2  0.000  0.000  0.484  0.000  0.484
tot    0.000  0.000  0.968  0.000  0.968
 
band     9 # energy  -11.63645265 # occ.  1.00000000
 
ion      s      p      d      f    tot
    1  0.000  0.000  0.484  0.000  0.484
    2  0.000  0.000  0.484  0.000  0.484
tot    0.000  0.000  0.968  0.000  0.968
 
band    10 # energy  -11.58737543 # occ.  1.00000000
 
ion      s      p      d      f    tot
    1  0.000  0.000  0.484  0.000  0.485
    2  0.000  0.000  0.484  0.000  0.485
tot    0.000  0.000  0.969  0.000  0.969
 
band    11 # energy   -6.24221571 # occ.  1.00000000
 
ion      s      p      d      f    tot
    1  0.214  0.003  0.001  0.000  0.219
    2  0.214  0.003  0.001  0.000  0.219
tot    0.429  0.006  0.003  0.000  0.438
 
band    12 # energy   -5.04124444 # occ.  1.00000000
 
ion      s      p      d      f    tot
    1  0.236  0.003  0.001  0.000  0.240
    2  0.236  0.003  0.001  0.000  0.240
tot    0.472  0.007  0.001  0.000  0.480
 
band    13 # energy   -1.62259828 # occ.  0.00000000
 
ion      s      p      d      f    tot
    1  0.003  0.103  0.001  0.000  0.107
    2  0.003  0.103  0.001  0.000  0.107
tot    0.007  0.206  0.001  0.000  0.214
 
band    14 # energy   -1.56184461 # occ.  0.00000000
 
ion      s      p      d      f    tot
    1  0.000  0.076  0.001  0.000  0.077
    2  0.000  0.076  0.001  0.000  0.077
tot    0.000  0.152  0.001  0.000  0.153
 
band    15 # energy   -1.56184461 # occ.  0.00000000
 
ion      s      p      d      f    tot
    1  0.000  0.076  0.001  0.000  0.077
    2  0.000  0.076  0.001  0.000  0.077
tot    0.000  0.152  0.001  0.000  0.153
 
band    16 # energy   -0.56510289 # occ.  0.00000000
 
ion      s      p      d      f    tot
    1  0.000  0.080  0.001  0.000  0.081
    2  0.000  0.080  0.001  0.000  0.081
tot    0.000  0.161  0.002  0.000  0.163
 
band    17 # energy   -0.56510288 # occ.  0.00000000
 
ion      s      p      d      f    tot
    1  0.000  0.080  0.001  0.000  0.081
    2  0.000  0.080  0.001  0.000  0.081
tot    0.000  0.161  0.002  0.000  0.163
 
band    18 # energy   -0.04283247 # occ.  0.00000000
 
ion      s      p      d      f    tot
    1  0.008  0.002  0.000  0.000  0.010
    2  0.008  0.002  0.000  0.000  0.010
tot    0.016  0.004  0.000  0.000  0.021
 
# of k-points:    1         # of bands:   18         # of ions:    2

 k-point     1 :    0.00000000 0.00000000 0.00000000     weight = 1.00000000

band     1 # energy  -11.77966252 # occ.  1.00000000
 
ion      s      p      d      f    tot
    1  0.000  0.000  0.478  0.000  0.478
    2  0.000  0.000  0.478  0.000  0.478
tot    0.000  0.000  0.956  0.000  0.957
 
band     2 # energy  -11.71591163 # occ.  1.00000000
 
ion      s      p      d      f    tot
    1  0.000  0.000  0.480  0.000  0.480
    2  0.000  0.000  0.480  0.000  0.480
tot    0.000  0.000  0.960  0.000  0.960
 
band     3 # energy  -11.71591163 # occ.  1.00000000
 
ion      s      p      d      f    tot
    1  0.000  0.000  0.480  0.000  0.480
    2  0.000  0.000  0.480  0.000  0.480
tot    0.000  0.000  0.960  0.000  0.960
 
band     4 # energy  -11.68798658 # occ.  1.00000000
 
ion      s      p      d      f    tot
    1  0.000  0.000  0.482  0.000  0.482
    2  0.000  0.000  0.482  0.000  0.482
tot    0.000  0.000  0.964  0.000  0.964
 
band     5 # energy  -11.68797324 # occ.  1.00000000
 
ion      s      p      d      f    tot
    1  0.000  0.000  0.482  0.000  0.482
    2  0.000  0.000  0.482  0.000  0.482
tot    0.000  0.000  0.964  0.000  0.964
 
band     6 # energy  -11.67782333 # occ.  1.00000000
 
ion      s      p      d      f    tot
    1  0.000  0.000  0.483  0.000  0.483
    2  0.000  0.000  0.483  0.000  0.483
tot    0.000  0.000  0.965  0.000  0.965
 
band     7 # energy  -11.67780994 # occ.  1.00000000
 
ion      s      p      d      f    tot
    1  0.000  0.000  0.483  0.000  0.483
    2  0.000  0.000  0.483  0.000  0.483
tot    0.000  0.000  0.965  0.000  0.965
 
band     8 # energy  -11.63651833 # occ.  1.00000000
 
ion      s      p      d      f    tot
    1  0.000  0.000  0.484  0.000  0.484
    2  0.000  0.000  0.484  0.000  0.484
tot    0.000  0.000  0.968  0.000  0.968
 
band     9 # energy  -11.63651832 # occ.  1.00000000
 
ion      s      p      d      f    tot
    1  0.000  0.000  0.484  0.000  0.484
    2  0.000  0.000  0.484  0.000  0.484
tot    0.000  0.000  0.968  0.000  0.968
 
band    10 # energy  -11.58743856 # occ.  1.00000000
 
ion      s      p      d      f    tot
    1  0.000  0.000  0.484  0.000  0.485
    2  0.000  0.000  0.484  0.000  0.485
tot    0.000  0.000  0.969  0.000  0.969
 
band    11 # energy   -6.24235054 # occ.  1.00000000
 
ion      s      p      d      f    tot
    1  0.214  0.003  0.001  0.000  0.219
    2  0.214  0.003  0.001  0.000  0.219
tot    0.429  0.006  0.003  0.000  0.438
 
band    12 # energy   -5.04133533 # occ.  1.00000000
 
ion      s      p      d      f    tot
    1  0.236  0.003  0.001  0.000  0.240
    2  0.236  0.003  0.001  0.000  0.240
tot    0.472  0.007  0.001  0.000  0.480
 
band    13 # energy   -1.62269795 # occ.  0.00000000
 
ion      s      p      d      f    tot
    1  0.003  0.103  0.001  0.000  0.107
    2  0.003  0.103  0.001  0.000  0.107
tot    0.007  0.206  0.001  0.000  0.214
 
band    14 # energy   -1.56225456 # occ.  0.00000000
 
ion      s      p      d      f    tot
    1  0.000  0.076  0.001  0.000  0.077
    2  0.000  0.076  0.001  0.000  0.077
tot    0.000  0.152  0.001  0.000  0.153
 
band    15 # energy   -1.56225455 # occ.  0.00000000
 
ion      s      p      d      f    tot
    1  0.000  0.076  0.001  0.000  0.077
    2  0.000  0.076  0.001  0.000  0.077
tot    0.000  0.152  0.001  0.000  0.153
 
band    16 # energy   -0.56528843 # occ.  0.00000000
 
ion      s      p      d      f    tot
    1  0.000  0.080  0.001  0.000  0.081
    2  0.000  0.080  0.001  0.000  0.081
tot    0.000  0.161  0.002  0.000  0.163
 
band    17 # energy   -0.56528842 # occ.  0.00000000
 
ion      s      p      d      f    tot
    1  0.000  0.080  0.001  0.000  0.081
    2  0.000  0.080  0.001  0.000  0.081
tot    0.000  0.161  0.002  0.000  0.163
 
band    18 # energy   -0.04202455 # occ.  0.00000000
 
ion      s      p      d      f    tot
    1  0.008  0.002  0.000  0.000  0.010
    2  0.008  0.002  0.000  0.000  0.010
tot    0.017  0.004  0.000  0.000  0.021
 
