Cd                                      
           1
    17.000000    0.000000    0.000000
     0.000000   17.000000    0.000000
     0.000000    0.000000   17.000000
   Cd
   2
Direct configuration=     1
   0.00000000  0.00000000  0.91747059
   0.00000000  0.00000000  0.08252941
Direct configuration=     2
   0.00000000 -0.00000000  0.91506400
  -0.00000000  0.00000000  0.08493600
Direct configuration=     3
   0.00000000 -0.00000000  0.90890053
  -0.00000000  0.00000000  0.09109947
Direct configuration=     4
   0.00000000 -0.00000000  0.89657359
  -0.00000000  0.00000000  0.10342641
