    6    6  200    2
  0.8188333E+03  0.1700000E-08  0.1700000E-08  0.1700000E-08  0.5000000E-15
  1.000000000000000E-004
  CAR 
 CuRh                                    
     66      1     42
 
  0.0000000E+00  0.0000000E+00  0.0000000E+00  0.1000000E+01
    1       -8.444960     -8.445384
    2       -7.185951     -7.186014
    3       -7.184880     -7.184917
    4       -6.823796     -6.823990
    5       -6.218708     -6.218644
    6       -6.216597     -6.216532
    7       -6.212559     -6.212489
    8       -6.211038     -6.210968
    9       -6.126146     -6.126229
   10       -5.839061     -5.838968
   11       -5.735508     -5.735436
   12       -5.681306     -5.681215
   13       -5.629567     -5.629523
   14       -5.628429     -5.628387
   15       -5.549177     -5.549114
   16       -5.463538     -5.463446
   17       -5.439153     -5.439045
   18       -5.438287     -5.438190
   19       -5.347808     -5.347693
   20       -5.346645     -5.346515
   21       -5.249244     -5.249231
   22       -5.247709     -5.247673
   23       -5.138899     -5.138792
   24       -5.138108     -5.137994
   25       -5.067109     -5.067038
   26       -5.058026     -5.057973
   27       -5.057602     -5.057549
   28       -4.948007     -4.947921
   29       -4.946957     -4.946840
   30       -4.898556     -4.898402
   31       -4.890399     -4.890293
   32       -4.669860     -4.669619
   33       -4.669223     -4.668987
   34       -2.890291     -2.890579
   35       -2.543086     -2.542902
   36       -2.541753     -2.541582
   37       -2.134658     -2.134666
   38       -0.919152     -0.919271
   39       -0.915502     -0.915629
   40       -0.495081     -0.495129
   41       -0.488604     -0.488698
   42       -0.123011     -0.123132
