       N       E                     dE             d eps       ncg     rms          rms(c)
DAV:   1     0.502941740285E+03    0.50294E+03   -0.12665E+04   168   0.902E+02
DAV:   2     0.315442211385E+03   -0.18750E+03   -0.17660E+03   320   0.131E+02
DAV:   3     0.150628911329E+03   -0.16481E+03   -0.15263E+03   328   0.913E+01
DAV:   4     0.380198950694E+02   -0.11261E+03   -0.10741E+03   304   0.114E+02
DAV:   5     0.449070007489E-01   -0.37975E+02   -0.34888E+02   296   0.756E+01
DAV:   6    -0.121571828635E+02   -0.12202E+02   -0.95232E+01   256   0.384E+01
DAV:   7    -0.137766844595E+02   -0.16195E+01   -0.15991E+01   248   0.187E+01
DAV:   8    -0.138780882935E+02   -0.10140E+00   -0.10120E+00   272   0.373E+00    0.177E+01
DAV:   9    -0.137758044462E+02    0.10228E+00   -0.12715E-01   254   0.316E+00    0.162E+01
DAV:  10    -0.132297537110E+02    0.54605E+00   -0.54235E+00   280   0.267E+01    0.662E+00
DAV:  11    -0.132797206301E+02   -0.49967E-01   -0.42512E-01   260   0.712E+00    0.683E+00
DAV:  12    -0.132789148796E+02    0.80575E-03   -0.14716E-02   272   0.566E-01    0.684E+00
DAV:  13    -0.133654496821E+02   -0.86535E-01   -0.83331E-02   312   0.660E+00    0.751E+00
DAV:  14    -0.131874473970E+02    0.17800E+00   -0.32595E+00   288   0.340E+01    0.885E+00
DAV:  15    -0.132435042729E+02   -0.56057E-01   -0.30058E-01   208   0.519E+00    0.988E+00
DAV:  16    -0.132438824112E+02   -0.37814E-03   -0.14571E-02   296   0.836E-01    0.982E+00
DAV:  17    -0.131516882979E+02    0.92194E-01   -0.14562E-01   280   0.919E+00    0.856E+00
DAV:  18    -0.132195704752E+02   -0.67882E-01   -0.20183E-01   284   0.911E+00    0.884E+00
DAV:  19    -0.132344067107E+02   -0.14836E-01   -0.53033E-02   224   0.456E+00    0.929E+00
DAV:  20    -0.130776618585E+02    0.15674E+00   -0.20365E-01   224   0.536E+00    0.764E+00
DAV:  21    -0.130644882945E+02    0.13174E-01   -0.69434E-02   224   0.481E+00    0.664E+00
DAV:  22    -0.130550972626E+02    0.93910E-02   -0.12281E-02   320   0.145E+00    0.622E+00
DAV:  23    -0.130424538081E+02    0.12643E-01   -0.15533E-02   206   0.192E+00    0.524E+00
DAV:  24    -0.130365863187E+02    0.58675E-02   -0.31539E-03   302   0.507E-01    0.494E+00
DAV:  25    -0.130363554566E+02    0.23086E-03   -0.27520E-04   184   0.230E-01    0.483E+00
DAV:  26    -0.130381830875E+02   -0.18276E-02   -0.31451E-04   272   0.372E-01    0.495E+00
DAV:  27    -0.130342694659E+02    0.39136E-02   -0.56050E-04   260   0.304E-01    0.457E+00
DAV:  28    -0.130228772295E+02    0.11392E-01   -0.10488E-02   172   0.139E+00    0.340E+00
DAV:  29    -0.130090468497E+02    0.13830E-01   -0.54916E-02   194   0.242E+00    0.643E-01
DAV:  30    -0.130102050183E+02   -0.11582E-02   -0.89431E-03   272   0.108E+00    0.498E-01
DAV:  31    -0.130102349824E+02   -0.29964E-04   -0.28703E-04   240   0.913E-02    0.434E-01
DAV:  32    -0.130103445150E+02   -0.10953E-03   -0.63616E-05   240   0.109E-01    0.418E-01
DAV:  33    -0.130103793503E+02   -0.34835E-04   -0.21732E-03   264   0.111E+00    0.409E-01
DAV:  34    -0.130104192717E+02   -0.39921E-04   -0.72141E-04   224   0.245E-01    0.349E-01
DAV:  35    -0.130104286666E+02   -0.93950E-05   -0.19988E-05   224   0.351E-02    0.379E-01
DAV:  36    -0.130103960278E+02    0.32639E-04   -0.33187E-04   294   0.333E-01    0.359E-01
DAV:  37    -0.130102255349E+02    0.17049E-03   -0.25073E-04   318   0.290E-01    0.205E-01
DAV:  38    -0.130102197681E+02    0.57668E-05   -0.11341E-04   172   0.122E-01    0.247E-01
DAV:  39    -0.130101816149E+02    0.38153E-04   -0.41110E-05   278   0.801E-02    0.198E-01
DAV:  40    -0.130101416054E+02    0.40010E-04   -0.76980E-05   264   0.134E-01    0.125E-01
DAV:  41    -0.130101437013E+02   -0.20959E-05   -0.32234E-05   224   0.644E-02    0.102E-01
DAV:  42    -0.130101433737E+02    0.32757E-06   -0.90541E-07   116   0.175E-02
   1 F= -.13010143E+02 E0= -.13010143E+02  d E =-.130101E+02  mag=    -0.0002
       N       E                     dE             d eps       ncg     rms          rms(c)
DAV:   1    -0.130101271455E+02    0.16556E-04   -0.24639E-02   172   0.107E+00    0.638E-02
DAV:   2    -0.130101586588E+02   -0.31513E-04   -0.34625E-04   256   0.146E-01    0.611E-02
DAV:   3    -0.130101543628E+02    0.42960E-05   -0.57099E-06   234   0.482E-02    0.570E-02
DAV:   4    -0.130101483161E+02    0.60467E-05   -0.44706E-05   288   0.145E-01    0.509E-02
DAV:   5    -0.130101476422E+02    0.67387E-06   -0.74049E-06   204   0.756E-02    0.420E-02
DAV:   6    -0.130101520277E+02   -0.43855E-05   -0.35588E-05   280   0.627E-02    0.125E-02
DAV:   7    -0.130101519311E+02    0.96608E-07   -0.34800E-06   152   0.272E-02
   2 F= -.13010152E+02 E0= -.13010152E+02  d E =-.855737E-05  mag=     0.0000
