CuRh                                    
   1.00000000000000     
    17.0000000000000000    0.0000000000000000    0.0000000000000000
     0.0000000000000000   17.0000000000000000    0.0000000000000000
     0.0000000000000000    0.0000000000000000   17.0000000000000000
   Cu
     6
Direct
  0.9254363960207939  0.9886435995863284  0.0303377488426752
  0.1494442389588376  0.0190468194501799  0.9489206791203304
  0.9141127424774058  0.8773299983442469  0.9503442858907509
  0.0326853630715912  0.9466746401032737  0.9483360230795869
  0.9407328392970615  0.1011276984759961  0.1079269712663658
  0.0465801848801996  0.0615878322752651  0.0296195859179437
 
  0.00000000E+00  0.00000000E+00  0.00000000E+00
  0.00000000E+00  0.00000000E+00  0.00000000E+00
  0.00000000E+00  0.00000000E+00  0.00000000E+00
  0.00000000E+00  0.00000000E+00  0.00000000E+00
  0.00000000E+00  0.00000000E+00  0.00000000E+00
  0.00000000E+00  0.00000000E+00  0.00000000E+00
