PROCAR new format
# of k-points:    1         # of bands:  42         # of ions:   6

 k-point    1 :    0.00000000 0.00000000 0.00000000     weight = 1.00000000

band   1 # energy   -8.44496018 # occ.  1.00000000
 
ion      s      p      d      f    tot
  1  0.108  0.009  0.033  0.000  0.150
  2  0.038  0.008  0.020  0.000  0.066
  3  0.038  0.008  0.020  0.000  0.066
  4  0.108  0.009  0.033  0.000  0.150
  5  0.038  0.008  0.020  0.000  0.066
  6  0.108  0.009  0.033  0.000  0.150
tot  0.439  0.051  0.157  0.000  0.648
 
band   2 # energy   -7.18595068 # occ.  1.00000000
 
ion      s      p      d      f    tot
  1  0.004  0.015  0.172  0.000  0.191
  2  0.003  0.004  0.075  0.000  0.082
  3  0.018  0.005  0.079  0.000  0.102
  4  0.047  0.001  0.121  0.000  0.169
  5  0.036  0.007  0.083  0.000  0.126
  6  0.024  0.009  0.148  0.000  0.181
tot  0.132  0.041  0.678  0.000  0.851
 
band   3 # energy   -7.18488010 # occ.  1.00000000
 
ion      s      p      d      f    tot
  1  0.046  0.001  0.121  0.000  0.169
  2  0.035  0.007  0.083  0.000  0.125
  3  0.020  0.006  0.079  0.000  0.104
  4  0.003  0.015  0.175  0.000  0.193
  5  0.002  0.004  0.074  0.000  0.080
  6  0.026  0.008  0.146  0.000  0.180
tot  0.132  0.041  0.678  0.000  0.851
 
band   4 # energy   -6.82379637 # occ.  1.00000000
 
ion      s      p      d      f    tot
  1  0.006  0.006  0.271  0.000  0.284
  2  0.005  0.001  0.014  0.000  0.021
  3  0.005  0.001  0.014  0.000  0.021
  4  0.006  0.006  0.271  0.000  0.284
  5  0.006  0.001  0.015  0.000  0.021
  6  0.006  0.006  0.271  0.000  0.284
tot  0.035  0.021  0.857  0.001  0.914
 
band   5 # energy   -6.21870818 # occ.  1.00000000
 
ion      s      p      d      f    tot
  1  0.000  0.001  0.085  0.000  0.086
  2  0.000  0.002  0.159  0.000  0.161
  3  0.000  0.002  0.134  0.000  0.136
  4  0.000  0.000  0.364  0.000  0.364
  5  0.000  0.000  0.021  0.000  0.021
  6  0.000  0.001  0.132  0.000  0.133
tot  0.001  0.005  0.896  0.000  0.901
 
band   6 # energy   -6.21659690 # occ.  1.00000000
 
ion      s      p      d      f    tot
  1  0.000  0.000  0.303  0.000  0.303
  2  0.000  0.000  0.050  0.000  0.051
  3  0.000  0.001  0.073  0.000  0.074
  4  0.000  0.001  0.022  0.000  0.023
  5  0.000  0.002  0.191  0.000  0.193
  6  0.000  0.000  0.257  0.000  0.258
tot  0.000  0.005  0.896  0.000  0.901
 
band   7 # energy   -6.21255946 # occ.  1.00000000
 
ion      s      p      d      f    tot
  1  0.000  0.000  0.235  0.000  0.235
  2  0.000  0.001  0.127  0.000  0.128
  3  0.007  0.000  0.109  0.000  0.116
  4  0.003  0.002  0.144  0.000  0.150
  5  0.011  0.000  0.099  0.000  0.110
  6  0.002  0.002  0.172  0.000  0.176
tot  0.023  0.005  0.885  0.001  0.914
 
band   8 # energy   -6.21103789 # occ.  1.00000000
 
ion      s      p      d      f    tot
  1  0.003  0.003  0.132  0.000  0.138
  2  0.012  0.000  0.097  0.000  0.109
  3  0.005  0.000  0.115  0.000  0.121
  4  0.000  0.000  0.225  0.000  0.226
  5  0.002  0.000  0.122  0.000  0.124
  6  0.001  0.001  0.193  0.000  0.195
tot  0.023  0.005  0.884  0.001  0.913
 
band   9 # energy   -6.12614646 # occ.  1.00000000
 
ion      s      p      d      f    tot
  1  0.000  0.004  0.270  0.000  0.273
  2  0.000  0.000  0.022  0.000  0.023
  3  0.000  0.000  0.023  0.000  0.023
  4  0.000  0.004  0.269  0.000  0.273
  5  0.000  0.000  0.023  0.000  0.023
  6  0.000  0.004  0.269  0.000  0.273
tot  0.000  0.011  0.876  0.000  0.888
 
band  10 # energy   -5.83906106 # occ.  1.00000000
 
ion      s      p      d      f    tot
  1  0.000  0.007  0.061  0.000  0.069
  2  0.000  0.001  0.244  0.000  0.245
  3  0.000  0.001  0.244  0.000  0.244
  4  0.000  0.008  0.061  0.000  0.069
  5  0.000  0.001  0.239  0.000  0.240
  6  0.000  0.007  0.062  0.000  0.069
tot  0.000  0.025  0.910  0.000  0.936
 
band  11 # energy   -5.73550763 # occ.  1.00000000
 
ion      s      p      d      f    tot
  1  0.010  0.000  0.188  0.000  0.198
  2  0.007  0.000  0.067  0.000  0.074
  3  0.007  0.000  0.067  0.000  0.073
  4  0.010  0.000  0.188  0.000  0.198
  5  0.007  0.000  0.067  0.000  0.074
  6  0.010  0.000  0.188  0.000  0.198
tot  0.049  0.001  0.764  0.000  0.814
 
band  12 # energy   -5.68130557 # occ.  1.00000000
 
ion      s      p      d      f    tot
  1  0.000  0.000  0.142  0.000  0.142
  2  0.000  0.000  0.168  0.000  0.168
  3  0.000  0.000  0.167  0.000  0.167
  4  0.000  0.000  0.140  0.000  0.140
  5  0.000  0.000  0.169  0.000  0.169
  6  0.000  0.000  0.142  0.000  0.142
tot  0.000  0.000  0.928  0.000  0.928
 
band  13 # energy   -5.62956672 # occ.  1.00000000
 
ion      s      p      d      f    tot
  1  0.001  0.007  0.009  0.000  0.018
  2  0.042  0.001  0.201  0.000  0.244
  3  0.042  0.001  0.201  0.000  0.244
  4  0.000  0.030  0.033  0.000  0.063
  5  0.000  0.000  0.256  0.000  0.257
  6  0.001  0.008  0.009  0.000  0.018
tot  0.087  0.046  0.710  0.001  0.844
 
band  14 # energy   -5.62842873 # occ.  1.00000000
 
ion      s      p      d      f    tot
  1  0.000  0.022  0.026  0.000  0.049
  2  0.014  0.000  0.236  0.000  0.250
  3  0.014  0.000  0.237  0.000  0.251
  4  0.002  0.000  0.001  0.000  0.003
  5  0.056  0.001  0.185  0.000  0.242
  6  0.000  0.022  0.025  0.000  0.048
tot  0.087  0.046  0.710  0.001  0.844
 
band  15 # energy   -5.54917705 # occ.  1.00000000
 
ion      s      p      d      f    tot
  1  0.000  0.003  0.015  0.000  0.018
  2  0.003  0.000  0.283  0.000  0.286
  3  0.003  0.000  0.282  0.000  0.285
  4  0.000  0.003  0.015  0.000  0.018
  5  0.003  0.000  0.280  0.000  0.283
  6  0.000  0.003  0.015  0.000  0.018
tot  0.008  0.010  0.890  0.000  0.908
 
band  16 # energy   -5.46353808 # occ.  1.00000000
 
ion      s      p      d      f    tot
  1  0.000  0.002  0.027  0.000  0.029
  2  0.000  0.000  0.284  0.000  0.284
  3  0.000  0.000  0.282  0.000  0.282
  4  0.000  0.002  0.031  0.000  0.032
  5  0.000  0.000  0.273  0.000  0.274
  6  0.000  0.002  0.027  0.000  0.029
tot  0.000  0.005  0.925  0.000  0.930
 
band  17 # energy   -5.43915319 # occ.  1.00000000
 
ion      s      p      d      f    tot
  1  0.000  0.000  0.009  0.000  0.009
  2  0.000  0.000  0.371  0.000  0.371
  3  0.000  0.000  0.235  0.000  0.235
  4  0.000  0.002  0.120  0.000  0.122
  5  0.000  0.000  0.118  0.000  0.118
  6  0.000  0.001  0.068  0.000  0.070
tot  0.000  0.004  0.921  0.000  0.925
 
band  18 # energy   -5.43828681 # occ.  1.00000000
 
ion      s      p      d      f    tot
  1  0.000  0.002  0.124  0.000  0.126
  2  0.000  0.000  0.108  0.000  0.108
  3  0.000  0.000  0.246  0.000  0.246
  4  0.000  0.000  0.009  0.000  0.009
  5  0.000  0.000  0.370  0.000  0.370
  6  0.000  0.001  0.064  0.000  0.065
tot  0.000  0.004  0.921  0.000  0.925
 
band  19 # energy   -5.34780807 # occ.  1.00000000
 
ion      s      p      d      f    tot
  1  0.000  0.000  0.044  0.000  0.044
  2  0.000  0.000  0.012  0.000  0.012
  3  0.001  0.000  0.130  0.000  0.131
  4  0.000  0.001  0.322  0.000  0.323
  5  0.001  0.000  0.222  0.000  0.223
  6  0.000  0.000  0.203  0.000  0.204
tot  0.003  0.001  0.933  0.000  0.938
 
band  20 # energy   -5.34664461 # occ.  1.00000000
 
ion      s      p      d      f    tot
  1  0.000  0.001  0.337  0.000  0.338
  2  0.002  0.000  0.228  0.000  0.229
  3  0.001  0.000  0.111  0.000  0.112
  4  0.000  0.000  0.056  0.000  0.057
  5  0.000  0.000  0.022  0.000  0.022
  6  0.000  0.000  0.178  0.000  0.179
tot  0.003  0.001  0.933  0.000  0.937
 
band  21 # energy   -5.24924449 # occ.  1.00000000
 
ion      s      p      d      f    tot
  1  0.004  0.005  0.048  0.000  0.057
  2  0.008  0.001  0.049  0.000  0.057
  3  0.019  0.001  0.110  0.000  0.129
  4  0.026  0.001  0.088  0.000  0.115
  5  0.051  0.001  0.284  0.000  0.336
  6  0.010  0.004  0.059  0.000  0.073
tot  0.117  0.012  0.638  0.000  0.768
 
band  22 # energy   -5.24770941 # occ.  1.00000000
 
ion      s      p      d      f    tot
  1  0.023  0.001  0.081  0.000  0.105
  2  0.044  0.001  0.247  0.000  0.292
  3  0.033  0.001  0.186  0.000  0.220
  4  0.000  0.006  0.042  0.000  0.048
  5  0.001  0.001  0.012  0.000  0.013
  6  0.017  0.003  0.071  0.000  0.090
tot  0.117  0.012  0.639  0.000  0.768
 
band  23 # energy   -5.13889901 # occ.  1.00000000
 
ion      s      p      d      f    tot
  1  0.000  0.000  0.136  0.000  0.136
  2  0.000  0.000  0.128  0.000  0.128
  3  0.000  0.000  0.006  0.000  0.006
  4  0.000  0.000  0.092  0.000  0.092
  5  0.000  0.000  0.145  0.000  0.145
  6  0.000  0.000  0.452  0.000  0.452
tot  0.000  0.000  0.959  0.000  0.959
 
band  24 # energy   -5.13810758 # occ.  1.00000000
 
ion      s      p      d      f    tot
  1  0.000  0.000  0.317  0.000  0.317
  2  0.000  0.000  0.058  0.000  0.058
  3  0.000  0.000  0.180  0.000  0.180
  4  0.000  0.000  0.361  0.000  0.361
  5  0.000  0.000  0.041  0.000  0.041
  6  0.000  0.000  0.001  0.000  0.001
tot  0.000  0.000  0.959  0.000  0.959
 
band  25 # energy   -5.06710924 # occ.  1.00000000
 
ion      s      p      d      f    tot
  1  0.002  0.000  0.089  0.000  0.091
  2  0.004  0.000  0.209  0.000  0.214
  3  0.004  0.000  0.212  0.000  0.217
  4  0.001  0.000  0.067  0.000  0.069
  5  0.006  0.000  0.248  0.000  0.254
  6  0.002  0.000  0.087  0.000  0.089
tot  0.018  0.001  0.913  0.000  0.933
 
band  26 # energy   -5.05802635 # occ.  1.00000000
 
ion      s      p      d      f    tot
  1  0.001  0.001  0.164  0.000  0.166
  2  0.015  0.000  0.184  0.000  0.199
  3  0.020  0.000  0.242  0.000  0.262
  4  0.000  0.002  0.035  0.000  0.037
  5  0.000  0.000  0.032  0.000  0.033
  6  0.001  0.000  0.208  0.000  0.210
tot  0.037  0.004  0.866  0.000  0.907
 
band  27 # energy   -5.05760187 # occ.  1.00000000
 
ion      s      p      d      f    tot
  1  0.000  0.002  0.100  0.000  0.102
  2  0.009  0.000  0.135  0.000  0.144
  3  0.004  0.000  0.075  0.000  0.079
  4  0.002  0.000  0.251  0.000  0.253
  5  0.022  0.000  0.249  0.000  0.270
  6  0.000  0.002  0.057  0.000  0.059
tot  0.037  0.004  0.866  0.000  0.907
 
band  28 # energy   -4.94800726 # occ.  1.00000000
 
ion      s      p      d      f    tot
  1  0.000  0.000  0.200  0.000  0.200
  2  0.000  0.000  0.085  0.000  0.086
  3  0.000  0.001  0.134  0.000  0.135
  4  0.000  0.000  0.030  0.000  0.030
  5  0.000  0.002  0.334  0.000  0.337
  6  0.000  0.000  0.165  0.000  0.166
tot  0.000  0.004  0.949  0.000  0.953
 
band  29 # energy   -4.94695681 # occ.  1.00000000
 
ion      s      p      d      f    tot
  1  0.000  0.000  0.067  0.000  0.067
  2  0.000  0.002  0.283  0.000  0.285
  3  0.000  0.002  0.235  0.000  0.236
  4  0.000  0.000  0.228  0.000  0.228
  5  0.000  0.000  0.037  0.000  0.037
  6  0.000  0.000  0.100  0.000  0.101
tot  0.000  0.004  0.949  0.000  0.953
 
band  30 # energy   -4.89855585 # occ.  1.00000000
 
ion      s      p      d      f    tot
  1  0.000  0.000  0.243  0.000  0.244
  2  0.000  0.002  0.069  0.000  0.071
  3  0.000  0.002  0.069  0.000  0.071
  4  0.000  0.000  0.244  0.000  0.245
  5  0.000  0.002  0.069  0.000  0.071
  6  0.000  0.000  0.243  0.000  0.244
tot  0.000  0.007  0.938  0.001  0.946
 
band  31 # energy   -4.89039918 # occ.  1.00000000
 
ion      s      p      d      f    tot
  1  0.000  0.000  0.175  0.000  0.175
  2  0.000  0.000  0.146  0.000  0.147
  3  0.000  0.000  0.146  0.000  0.146
  4  0.000  0.000  0.183  0.000  0.183
  5  0.000  0.000  0.143  0.000  0.143
  6  0.000  0.000  0.175  0.000  0.175
tot  0.000  0.000  0.968  0.000  0.969
 
band  32 # energy   -4.66985999 # occ.  1.00000000
 
ion      s      p      d      f    tot
  1  0.009  0.003  0.210  0.000  0.223
  2  0.008  0.001  0.086  0.000  0.095
  3  0.012  0.001  0.078  0.000  0.091
  4  0.000  0.002  0.058  0.000  0.061
  5  0.000  0.000  0.100  0.000  0.101
  6  0.014  0.004  0.294  0.000  0.311
tot  0.043  0.011  0.827  0.000  0.882
 
band  33 # energy   -4.66922292 # occ.  1.00000000
 
ion      s      p      d      f    tot
  1  0.006  0.003  0.165  0.000  0.174
  2  0.005  0.001  0.091  0.000  0.097
  3  0.001  0.000  0.098  0.000  0.101
  4  0.015  0.004  0.317  0.000  0.336
  5  0.013  0.001  0.076  0.000  0.090
  6  0.002  0.002  0.081  0.000  0.085
tot  0.043  0.011  0.827  0.000  0.882
 
band  34 # energy   -2.89029116 # occ.  0.00000000
 
ion      s      p      d      f    tot
  1  0.017  0.015  0.019  0.000  0.050
  2  0.042  0.022  0.014  0.000  0.077
  3  0.042  0.022  0.014  0.000  0.078
  4  0.016  0.016  0.018  0.000  0.050
  5  0.042  0.022  0.014  0.000  0.078
  6  0.016  0.015  0.019  0.000  0.050
tot  0.175  0.113  0.096  0.000  0.384
 
band  35 # energy   -2.54308650 # occ.  0.00000000
 
ion      s      p      d      f    tot
  1  0.049  0.014  0.009  0.000  0.072
  2  0.022  0.021  0.013  0.000  0.056
  3  0.031  0.012  0.006  0.000  0.050
  4  0.002  0.005  0.018  0.000  0.025
  5  0.001  0.042  0.027  0.000  0.069
  6  0.069  0.018  0.005  0.000  0.093
tot  0.174  0.112  0.078  0.000  0.365
 
band  36 # energy   -2.54175346 # occ.  0.00000000
 
ion      s      p      d      f    tot
  1  0.031  0.011  0.012  0.000  0.054
  2  0.014  0.029  0.018  0.000  0.061
  3  0.005  0.038  0.024  0.000  0.067
  4  0.078  0.020  0.004  0.000  0.102
  5  0.035  0.008  0.004  0.000  0.047
  6  0.011  0.007  0.016  0.000  0.034
tot  0.174  0.112  0.078  0.000  0.364
 
band  37 # energy   -2.13465780 # occ.  0.00000000
 
ion      s      p      d      f    tot
  1  0.000  0.035  0.005  0.000  0.040
  2  0.000  0.020  0.009  0.000  0.029
  3  0.000  0.020  0.009  0.000  0.029
  4  0.000  0.035  0.005  0.000  0.040
  5  0.000  0.020  0.009  0.000  0.029
  6  0.000  0.035  0.005  0.000  0.040
tot  0.000  0.164  0.042  0.000  0.207
 
band  38 # energy   -0.91915222 # occ.  0.00000000
 
ion      s      p      d      f    tot
  1  0.000  0.055  0.007  0.000  0.063
  2  0.000  0.017  0.000  0.000  0.017
  3  0.000  0.046  0.001  0.000  0.047
  4  0.009  0.009  0.006  0.000  0.024
  5  0.000  0.069  0.001  0.000  0.070
  6  0.005  0.030  0.007  0.000  0.041
tot  0.014  0.227  0.022  0.000  0.263
 
band  39 # energy   -0.91550240 # occ.  0.00000000
 
ion      s      p      d      f    tot
  1  0.009  0.007  0.006  0.000  0.022
  2  0.000  0.072  0.001  0.000  0.073
  3  0.000  0.042  0.001  0.000  0.043
  4  0.001  0.054  0.007  0.000  0.062
  5  0.000  0.019  0.000  0.000  0.020
  6  0.004  0.033  0.007  0.000  0.044
tot  0.014  0.228  0.022  0.000  0.264
 
band  40 # energy   -0.49508140 # occ.  0.00000000
 
ion      s      p      d      f    tot
  1  0.000  0.001  0.022  0.000  0.023
  2  0.000  0.002  0.003  0.000  0.005
  3  0.000  0.031  0.001  0.000  0.032
  4  0.000  0.016  0.005  0.000  0.021
  5  0.000  0.049  0.000  0.000  0.049
  6  0.000  0.010  0.011  0.000  0.022
tot  0.000  0.109  0.042  0.000  0.151
 
band  41 # energy   -0.48860436 # occ.  0.00000000
 
ion      s      p      d      f    tot
  1  0.000  0.017  0.004  0.000  0.021
  2  0.000  0.053  0.000  0.000  0.054
  3  0.000  0.024  0.002  0.000  0.026
  4  0.000  0.002  0.021  0.000  0.023
  5  0.000  0.006  0.002  0.000  0.008
  6  0.000  0.008  0.014  0.000  0.022
tot  0.000  0.110  0.043  0.000  0.153
 
band  42 # energy   -0.12301079 # occ.  0.00000000
 
ion      s      p      d      f    tot
  1  0.000  0.012  0.017  0.000  0.028
  2  0.000  0.043  0.000  0.000  0.043
  3  0.000  0.043  0.000  0.000  0.043
  4  0.000  0.011  0.017  0.000  0.028
  5  0.000  0.043  0.000  0.000  0.043
  6  0.000  0.011  0.017  0.000  0.028
tot  0.000  0.163  0.051  0.000  0.214
 
# of k-points:    1         # of bands:  42         # of ions:   6

 k-point    1 :    0.00000000 0.00000000 0.00000000     weight = 1.00000000

band   1 # energy   -8.44538398 # occ.  1.00000000
 
ion      s      p      d      f    tot
  1  0.108  0.009  0.033  0.000  0.150
  2  0.038  0.008  0.020  0.000  0.066
  3  0.038  0.008  0.020  0.000  0.066
  4  0.108  0.009  0.033  0.000  0.150
  5  0.038  0.008  0.020  0.000  0.066
  6  0.108  0.009  0.033  0.000  0.150
tot  0.439  0.051  0.157  0.000  0.648
 
band   2 # energy   -7.18601363 # occ.  1.00000000
 
ion      s      p      d      f    tot
  1  0.004  0.015  0.172  0.000  0.191
  2  0.003  0.004  0.075  0.000  0.082
  3  0.018  0.005  0.078  0.000  0.101
  4  0.047  0.001  0.121  0.000  0.169
  5  0.036  0.007  0.083  0.000  0.127
  6  0.023  0.009  0.149  0.000  0.181
tot  0.132  0.041  0.678  0.000  0.851
 
band   3 # energy   -7.18491666 # occ.  1.00000000
 
ion      s      p      d      f    tot
  1  0.046  0.002  0.122  0.000  0.169
  2  0.035  0.007  0.083  0.000  0.125
  3  0.020  0.006  0.079  0.000  0.105
  4  0.002  0.015  0.175  0.000  0.193
  5  0.002  0.004  0.074  0.000  0.080
  6  0.027  0.008  0.145  0.000  0.179
tot  0.132  0.041  0.678  0.000  0.851
 
band   4 # energy   -6.82398978 # occ.  1.00000000
 
ion      s      p      d      f    tot
  1  0.006  0.006  0.271  0.000  0.284
  2  0.005  0.001  0.014  0.000  0.021
  3  0.006  0.001  0.014  0.000  0.021
  4  0.006  0.006  0.271  0.000  0.284
  5  0.006  0.001  0.015  0.000  0.021
  6  0.006  0.006  0.271  0.000  0.284
tot  0.035  0.021  0.857  0.001  0.914
 
band   5 # energy   -6.21864350 # occ.  1.00000000
 
ion      s      p      d      f    tot
  1  0.000  0.001  0.085  0.000  0.086
  2  0.000  0.002  0.158  0.000  0.161
  3  0.000  0.002  0.134  0.000  0.136
  4  0.000  0.000  0.364  0.000  0.364
  5  0.000  0.000  0.021  0.000  0.021
  6  0.000  0.001  0.132  0.000  0.133
tot  0.001  0.005  0.896  0.000  0.901
 
band   6 # energy   -6.21653184 # occ.  1.00000000
 
ion      s      p      d      f    tot
  1  0.000  0.000  0.302  0.000  0.303
  2  0.000  0.000  0.050  0.000  0.051
  3  0.000  0.001  0.073  0.000  0.073
  4  0.000  0.001  0.022  0.000  0.023
  5  0.000  0.002  0.191  0.000  0.193
  6  0.000  0.000  0.258  0.000  0.258
tot  0.000  0.005  0.896  0.000  0.901
 
band   7 # energy   -6.21248942 # occ.  1.00000000
 
ion      s      p      d      f    tot
  1  0.000  0.000  0.235  0.000  0.235
  2  0.000  0.001  0.127  0.000  0.128
  3  0.007  0.000  0.109  0.000  0.116
  4  0.003  0.002  0.144  0.000  0.150
  5  0.011  0.000  0.099  0.000  0.110
  6  0.002  0.002  0.172  0.000  0.176
tot  0.023  0.005  0.885  0.001  0.914
 
band   8 # energy   -6.21096803 # occ.  1.00000000
 
ion      s      p      d      f    tot
  1  0.003  0.003  0.132  0.000  0.138
  2  0.012  0.000  0.097  0.000  0.109
  3  0.005  0.000  0.115  0.000  0.121
  4  0.000  0.000  0.225  0.000  0.226
  5  0.002  0.000  0.122  0.000  0.124
  6  0.001  0.001  0.193  0.000  0.195
tot  0.023  0.005  0.884  0.001  0.913
 
band   9 # energy   -6.12622929 # occ.  1.00000000
 
ion      s      p      d      f    tot
  1  0.000  0.004  0.270  0.000  0.273
  2  0.000  0.000  0.023  0.000  0.023
  3  0.000  0.000  0.023  0.000  0.023
  4  0.000  0.004  0.269  0.000  0.273
  5  0.000  0.000  0.023  0.000  0.023
  6  0.000  0.004  0.269  0.000  0.273
tot  0.000  0.011  0.876  0.000  0.888
 
band  10 # energy   -5.83896752 # occ.  1.00000000
 
ion      s      p      d      f    tot
  1  0.000  0.007  0.061  0.000  0.069
  2  0.000  0.001  0.244  0.000  0.245
  3  0.000  0.001  0.244  0.000  0.245
  4  0.000  0.008  0.061  0.000  0.069
  5  0.000  0.001  0.239  0.000  0.240
  6  0.000  0.007  0.061  0.000  0.069
tot  0.000  0.025  0.910  0.000  0.936
 
band  11 # energy   -5.73543593 # occ.  1.00000000
 
ion      s      p      d      f    tot
  1  0.010  0.000  0.188  0.000  0.197
  2  0.007  0.000  0.067  0.000  0.074
  3  0.007  0.000  0.067  0.000  0.073
  4  0.010  0.000  0.188  0.000  0.198
  5  0.007  0.000  0.067  0.000  0.074
  6  0.010  0.000  0.188  0.000  0.198
tot  0.049  0.001  0.764  0.000  0.814
 
band  12 # energy   -5.68121505 # occ.  1.00000000
 
ion      s      p      d      f    tot
  1  0.000  0.000  0.142  0.000  0.142
  2  0.000  0.000  0.168  0.000  0.168
  3  0.000  0.000  0.167  0.000  0.167
  4  0.000  0.000  0.140  0.000  0.140
  5  0.000  0.000  0.169  0.000  0.169
  6  0.000  0.000  0.142  0.000  0.142
tot  0.000  0.000  0.928  0.000  0.928
 
band  13 # energy   -5.62952307 # occ.  1.00000000
 
ion      s      p      d      f    tot
  1  0.001  0.008  0.009  0.000  0.018
  2  0.042  0.001  0.201  0.000  0.244
  3  0.042  0.001  0.201  0.000  0.244
  4  0.000  0.030  0.033  0.000  0.063
  5  0.000  0.000  0.256  0.000  0.257
  6  0.001  0.007  0.009  0.000  0.018
tot  0.087  0.046  0.710  0.001  0.844
 
band  14 # energy   -5.62838696 # occ.  1.00000000
 
ion      s      p      d      f    tot
  1  0.000  0.022  0.026  0.000  0.049
  2  0.014  0.000  0.236  0.000  0.250
  3  0.014  0.000  0.237  0.000  0.251
  4  0.002  0.000  0.001  0.000  0.003
  5  0.056  0.001  0.185  0.000  0.242
  6  0.000  0.022  0.025  0.000  0.048
tot  0.087  0.046  0.710  0.001  0.843
 
band  15 # energy   -5.54911421 # occ.  1.00000000
 
ion      s      p      d      f    tot
  1  0.000  0.003  0.015  0.000  0.018
  2  0.003  0.000  0.283  0.000  0.286
  3  0.003  0.000  0.282  0.000  0.285
  4  0.000  0.003  0.015  0.000  0.018
  5  0.003  0.000  0.280  0.000  0.283
  6  0.000  0.003  0.015  0.000  0.018
tot  0.008  0.010  0.890  0.000  0.908
 
band  16 # energy   -5.46344620 # occ.  1.00000000
 
ion      s      p      d      f    tot
  1  0.000  0.002  0.027  0.000  0.029
  2  0.000  0.000  0.284  0.000  0.284
  3  0.000  0.000  0.282  0.000  0.282
  4  0.000  0.002  0.031  0.000  0.032
  5  0.000  0.000  0.274  0.000  0.274
  6  0.000  0.002  0.027  0.000  0.029
tot  0.000  0.005  0.925  0.000  0.930
 
band  17 # energy   -5.43904461 # occ.  1.00000000
 
ion      s      p      d      f    tot
  1  0.000  0.000  0.009  0.000  0.009
  2  0.000  0.000  0.371  0.000  0.371
  3  0.000  0.000  0.233  0.000  0.233
  4  0.000  0.002  0.120  0.000  0.122
  5  0.000  0.000  0.119  0.000  0.119
  6  0.000  0.001  0.069  0.000  0.070
tot  0.000  0.004  0.921  0.000  0.925
 
band  18 # energy   -5.43819049 # occ.  1.00000000
 
ion      s      p      d      f    tot
  1  0.000  0.002  0.124  0.000  0.126
  2  0.000  0.000  0.107  0.000  0.107
  3  0.000  0.000  0.248  0.000  0.248
  4  0.000  0.000  0.009  0.000  0.010
  5  0.000  0.000  0.370  0.000  0.370
  6  0.000  0.001  0.063  0.000  0.064
tot  0.000  0.004  0.921  0.000  0.925
 
band  19 # energy   -5.34769276 # occ.  1.00000000
 
ion      s      p      d      f    tot
  1  0.000  0.000  0.045  0.000  0.045
  2  0.000  0.000  0.013  0.000  0.013
  3  0.001  0.000  0.129  0.000  0.130
  4  0.000  0.001  0.323  0.000  0.324
  5  0.001  0.000  0.222  0.000  0.223
  6  0.000  0.000  0.202  0.000  0.202
tot  0.003  0.001  0.933  0.000  0.938
 
band  20 # energy   -5.34651464 # occ.  1.00000000
 
ion      s      p      d      f    tot
  1  0.000  0.001  0.336  0.000  0.338
  2  0.002  0.000  0.227  0.000  0.229
  3  0.001  0.000  0.112  0.000  0.113
  4  0.000  0.000  0.056  0.000  0.056
  5  0.000  0.000  0.022  0.000  0.022
  6  0.000  0.000  0.179  0.000  0.180
tot  0.003  0.001  0.933  0.000  0.937
 
band  21 # energy   -5.24923057 # occ.  1.00000000
 
ion      s      p      d      f    tot
  1  0.004  0.005  0.048  0.000  0.058
  2  0.008  0.001  0.050  0.000  0.058
  3  0.019  0.001  0.109  0.000  0.129
  4  0.026  0.001  0.088  0.000  0.115
  5  0.051  0.001  0.285  0.000  0.336
  6  0.010  0.004  0.059  0.000  0.072
tot  0.117  0.012  0.638  0.000  0.768
 
band  22 # energy   -5.24767296 # occ.  1.00000000
 
ion      s      p      d      f    tot
  1  0.022  0.001  0.081  0.000  0.105
  2  0.044  0.001  0.247  0.000  0.291
  3  0.033  0.001  0.187  0.000  0.221
  4  0.000  0.006  0.042  0.000  0.048
  5  0.001  0.001  0.012  0.000  0.013
  6  0.017  0.003  0.071  0.000  0.090
tot  0.117  0.012  0.639  0.000  0.768
 
band  23 # energy   -5.13879212 # occ.  1.00000000
 
ion      s      p      d      f    tot
  1  0.000  0.000  0.138  0.000  0.138
  2  0.000  0.000  0.127  0.000  0.127
  3  0.000  0.000  0.006  0.000  0.006
  4  0.000  0.000  0.091  0.000  0.091
  5  0.000  0.000  0.146  0.000  0.146
  6  0.000  0.000  0.452  0.000  0.452
tot  0.000  0.000  0.959  0.000  0.959
 
band  24 # energy   -5.13799407 # occ.  1.00000000
 
ion      s      p      d      f    tot
  1  0.000  0.000  0.316  0.000  0.316
  2  0.000  0.000  0.059  0.000  0.059
  3  0.000  0.000  0.180  0.000  0.180
  4  0.000  0.000  0.363  0.000  0.363
  5  0.000  0.000  0.040  0.000  0.040
  6  0.000  0.000  0.002  0.000  0.002
tot  0.000  0.000  0.959  0.000  0.959
 
band  25 # energy   -5.06703801 # occ.  1.00000000
 
ion      s      p      d      f    tot
  1  0.002  0.000  0.089  0.000  0.091
  2  0.004  0.000  0.209  0.000  0.213
  3  0.004  0.000  0.212  0.000  0.216
  4  0.001  0.000  0.067  0.000  0.069
  5  0.006  0.000  0.248  0.000  0.255
  6  0.002  0.000  0.088  0.000  0.089
tot  0.018  0.001  0.913  0.000  0.933
 
band  26 # energy   -5.05797327 # occ.  1.00000000
 
ion      s      p      d      f    tot
  1  0.001  0.001  0.165  0.000  0.167
  2  0.015  0.000  0.186  0.000  0.201
  3  0.020  0.000  0.241  0.000  0.261
  4  0.000  0.002  0.034  0.000  0.037
  5  0.000  0.000  0.032  0.000  0.032
  6  0.001  0.000  0.208  0.000  0.209
tot  0.037  0.004  0.866  0.000  0.907
 
band  27 # energy   -5.05754942 # occ.  1.00000000
 
ion      s      p      d      f    tot
  1  0.000  0.002  0.099  0.000  0.101
  2  0.009  0.000  0.133  0.000  0.142
  3  0.004  0.000  0.076  0.000  0.080
  4  0.002  0.000  0.251  0.000  0.253
  5  0.022  0.000  0.248  0.000  0.270
  6  0.000  0.002  0.058  0.000  0.060
tot  0.037  0.004  0.866  0.000  0.907
 
band  28 # energy   -4.94792051 # occ.  1.00000000
 
ion      s      p      d      f    tot
  1  0.000  0.000  0.199  0.000  0.199
  2  0.000  0.000  0.087  0.000  0.087
  3  0.000  0.001  0.132  0.000  0.133
  4  0.000  0.000  0.030  0.000  0.030
  5  0.000  0.002  0.335  0.000  0.337
  6  0.000  0.000  0.167  0.000  0.167
tot  0.000  0.004  0.949  0.000  0.953
 
band  29 # energy   -4.94684049 # occ.  1.00000000
 
ion      s      p      d      f    tot
  1  0.000  0.000  0.068  0.000  0.068
  2  0.000  0.002  0.281  0.000  0.283
  3  0.000  0.002  0.236  0.000  0.238
  4  0.000  0.000  0.228  0.000  0.228
  5  0.000  0.000  0.036  0.000  0.036
  6  0.000  0.000  0.099  0.000  0.099
tot  0.000  0.004  0.949  0.000  0.953
 
band  30 # energy   -4.89840163 # occ.  1.00000000
 
ion      s      p      d      f    tot
  1  0.000  0.000  0.243  0.000  0.244
  2  0.000  0.002  0.069  0.000  0.071
  3  0.000  0.002  0.069  0.000  0.071
  4  0.000  0.000  0.244  0.000  0.245
  5  0.000  0.002  0.069  0.000  0.071
  6  0.000  0.000  0.243  0.000  0.244
tot  0.000  0.007  0.938  0.001  0.946
 
band  31 # energy   -4.89029307 # occ.  1.00000000
 
ion      s      p      d      f    tot
  1  0.000  0.000  0.175  0.000  0.175
  2  0.000  0.000  0.146  0.000  0.147
  3  0.000  0.000  0.146  0.000  0.146
  4  0.000  0.000  0.183  0.000  0.183
  5  0.000  0.000  0.143  0.000  0.143
  6  0.000  0.000  0.175  0.000  0.175
tot  0.000  0.000  0.968  0.000  0.969
 
band  32 # energy   -4.66961943 # occ.  1.00000000
 
ion      s      p      d      f    tot
  1  0.009  0.003  0.211  0.000  0.223
  2  0.008  0.001  0.086  0.000  0.095
  3  0.012  0.001  0.078  0.000  0.091
  4  0.000  0.002  0.058  0.000  0.061
  5  0.000  0.000  0.100  0.000  0.101
  6  0.014  0.004  0.293  0.000  0.311
tot  0.043  0.011  0.827  0.000  0.882
 
band  33 # energy   -4.66898676 # occ.  1.00000000
 
ion      s      p      d      f    tot
  1  0.006  0.003  0.164  0.000  0.173
  2  0.005  0.001  0.091  0.000  0.097
  3  0.001  0.000  0.098  0.000  0.101
  4  0.015  0.004  0.317  0.000  0.336
  5  0.013  0.001  0.076  0.000  0.090
  6  0.002  0.002  0.081  0.000  0.085
tot  0.043  0.011  0.828  0.000  0.882
 
band  34 # energy   -2.89057912 # occ.  0.00000000
 
ion      s      p      d      f    tot
  1  0.017  0.015  0.019  0.000  0.050
  2  0.042  0.022  0.014  0.000  0.077
  3  0.042  0.022  0.014  0.000  0.078
  4  0.016  0.016  0.018  0.000  0.050
  5  0.042  0.022  0.014  0.000  0.078
  6  0.016  0.015  0.019  0.000  0.050
tot  0.175  0.113  0.096  0.000  0.384
 
band  35 # energy   -2.54290180 # occ.  0.00000000
 
ion      s      p      d      f    tot
  1  0.049  0.014  0.009  0.000  0.072
  2  0.022  0.021  0.013  0.000  0.056
  3  0.031  0.012  0.006  0.000  0.050
  4  0.002  0.005  0.018  0.000  0.025
  5  0.001  0.042  0.027  0.000  0.069
  6  0.069  0.018  0.005  0.000  0.093
tot  0.174  0.112  0.078  0.000  0.364
 
band  36 # energy   -2.54158163 # occ.  0.00000000
 
ion      s      p      d      f    tot
  1  0.031  0.011  0.012  0.000  0.054
  2  0.014  0.029  0.018  0.000  0.061
  3  0.005  0.038  0.024  0.000  0.067
  4  0.078  0.020  0.004  0.000  0.102
  5  0.035  0.008  0.004  0.000  0.047
  6  0.011  0.007  0.016  0.000  0.034
tot  0.174  0.112  0.078  0.000  0.364
 
band  37 # energy   -2.13466610 # occ.  0.00000000
 
ion      s      p      d      f    tot
  1  0.000  0.035  0.005  0.000  0.040
  2  0.000  0.020  0.009  0.000  0.029
  3  0.000  0.020  0.009  0.000  0.029
  4  0.000  0.035  0.005  0.000  0.040
  5  0.000  0.020  0.009  0.000  0.029
  6  0.000  0.035  0.005  0.000  0.040
tot  0.000  0.164  0.042  0.000  0.207
 
band  38 # energy   -0.91927140 # occ.  0.00000000
 
ion      s      p      d      f    tot
  1  0.001  0.055  0.007  0.000  0.063
  2  0.000  0.017  0.000  0.000  0.018
  3  0.000  0.046  0.001  0.000  0.047
  4  0.009  0.009  0.006  0.000  0.024
  5  0.000  0.070  0.001  0.000  0.071
  6  0.005  0.030  0.007  0.000  0.041
tot  0.014  0.227  0.022  0.000  0.263
 
band  39 # energy   -0.91562921 # occ.  0.00000000
 
ion      s      p      d      f    tot
  1  0.009  0.007  0.006  0.000  0.023
  2  0.000  0.072  0.001  0.000  0.073
  3  0.000  0.043  0.001  0.000  0.043
  4  0.001  0.054  0.007  0.000  0.062
  5  0.000  0.019  0.000  0.000  0.019
  6  0.005  0.033  0.007  0.000  0.044
tot  0.014  0.228  0.022  0.000  0.264
 
band  40 # energy   -0.49512881 # occ.  0.00000000
 
ion      s      p      d      f    tot
  1  0.000  0.001  0.022  0.000  0.023
  2  0.000  0.002  0.003  0.000  0.005
  3  0.000  0.031  0.001  0.000  0.032
  4  0.000  0.016  0.005  0.000  0.021
  5  0.000  0.049  0.000  0.000  0.049
  6  0.000  0.010  0.011  0.000  0.022
tot  0.000  0.109  0.042  0.000  0.151
 
band  41 # energy   -0.48869799 # occ.  0.00000000
 
ion      s      p      d      f    tot
  1  0.000  0.017  0.004  0.000  0.021
  2  0.000  0.053  0.000  0.000  0.054
  3  0.000  0.024  0.002  0.000  0.025
  4  0.000  0.002  0.021  0.000  0.023
  5  0.000  0.006  0.002  0.000  0.008
  6  0.000  0.008  0.014  0.000  0.022
tot  0.000  0.110  0.043  0.000  0.153
 
band  42 # energy   -0.12313230 # occ.  0.00000000
 
ion      s      p      d      f    tot
  1  0.000  0.012  0.017  0.000  0.028
  2  0.000  0.043  0.000  0.000  0.043
  3  0.000  0.043  0.000  0.000  0.043
  4  0.000  0.011  0.017  0.000  0.028
  5  0.000  0.043  0.000  0.000  0.043
  6  0.000  0.011  0.017  0.000  0.028
tot  0.000  0.163  0.051  0.000  0.214
 
