CuRh                                    
           1
    17.000000    0.000000    0.000000
     0.000000   17.000000    0.000000
     0.000000    0.000000   17.000000
   Cu
   6
Direct configuration=     1
   0.92546744  0.98865657  0.03033956
   0.14943906  0.01903244  0.94890643
   0.91411165  0.87731657  0.95032446
   0.03268105  0.94669597  0.94835946
   0.94073146  0.10114393  0.10793835
   0.04656111  0.06156512  0.02961704
Direct configuration=     2
   0.92543640  0.98864360  0.03033775
   0.14944424  0.01904682  0.94892068
   0.91411274  0.87733000  0.95034429
   0.03268536  0.94667464  0.94833602
   0.94073284  0.10112770  0.10792697
   0.04658018  0.06158783  0.02961959
