    4    4  200    2
  0.1228250E+04  0.1700000E-08  0.1700000E-08  0.1700000E-08  0.5000000E-15
  1.000000000000000E-004
  CAR 
 Cd                                      
     48      1     30
 
  0.0000000E+00  0.0000000E+00  0.0000000E+00  0.1000000E+01
    1      -12.279792    -12.279790   1.000000   1.000000
    2      -12.098927    -12.098925   1.000000   1.000000
    3      -12.095263    -12.095262   1.000000   1.000000
    4      -12.093697    -12.093696   1.000000   1.000000
    5      -12.061975    -12.061974   1.000000   1.000000
    6      -12.059924    -12.059923   1.000000   1.000000
    7      -11.903589    -11.903587   1.000000   1.000000
    8      -11.901992    -11.901991   1.000000   1.000000
    9      -11.901814    -11.901813   1.000000   1.000000
   10      -11.763242    -11.763241   1.000000   1.000000
   11      -11.762904    -11.762904   1.000000   1.000000
   12      -11.761432    -11.761430   1.000000   1.000000
   13      -11.749386    -11.749385   1.000000   1.000000
   14      -11.748780    -11.748778   1.000000   1.000000
   15      -11.728761    -11.728762   1.000000   1.000000
   16      -11.726719    -11.726717   1.000000   1.000000
   17      -11.725602    -11.725599   1.000000   1.000000
   18      -11.603778    -11.603777   1.000000   1.000000
   19      -11.601171    -11.601170   1.000000   1.000000
   20      -11.598827    -11.598825   1.000000   1.000000
   21       -8.075884     -8.075884   1.000000   1.000000
   22       -5.171306     -5.171306   1.000000   1.000000
   23       -5.158239     -5.158239   1.000000   1.000000
   24       -5.155381     -5.155381   1.000000   1.000000
   25       -2.212931     -2.212935   0.000000   0.000000
   26       -1.774162     -1.774164   0.000000   0.000000
   27       -1.768052     -1.768054   0.000000   0.000000
   28       -1.762464     -1.762467   0.000000   0.000000
   29       -1.343075     -1.343078   0.000000   0.000000
   30       -1.337140     -1.337143   0.000000   0.000000
