       N       E                     dE             d eps       ncg     rms          rms(c)
DAV:   1     0.570040006620E+03    0.57004E+03   -0.88641E+03   120   0.883E+02
DAV:   2     0.259152726443E+03   -0.31089E+03   -0.28349E+03   240   0.223E+02
DAV:   3     0.330884058083E+02   -0.22606E+03   -0.20734E+03   176   0.149E+02
DAV:   4     0.625961455984E+00   -0.32462E+02   -0.32318E+02   176   0.112E+02
DAV:   5    -0.129158615999E+00   -0.75512E+00   -0.75418E+00   150   0.238E+01
DAV:   6    -0.154539148340E+00   -0.25381E-01   -0.25378E-01   174   0.419E+00
DAV:   7    -0.154931080277E+00   -0.39193E-03   -0.39193E-03   170   0.498E-01
DAV:   8    -0.154946001576E+00   -0.14921E-04   -0.14921E-04   180   0.905E-02    0.932E+00
DAV:   9    -0.251738113731E+00   -0.96792E-01   -0.14768E-03   136   0.300E-01    0.843E+00
DAV:  10    -0.675103002455E+00   -0.42336E+00   -0.10214E-01   144   0.218E+00    0.133E+00
DAV:  11    -0.674027465120E+00    0.10755E-02   -0.47795E-03   164   0.367E-01    0.123E+00
DAV:  12    -0.670482871722E+00    0.35446E-02   -0.29544E-02   144   0.140E+00    0.891E-01
DAV:  13    -0.670995461048E+00   -0.51259E-03   -0.23861E-03   164   0.285E-01    0.837E-01
DAV:  14    -0.672106172435E+00   -0.11107E-02   -0.29017E-03   160   0.437E-01    0.381E-01
DAV:  15    -0.671803871089E+00    0.30230E-03   -0.10725E-03   164   0.318E-01    0.295E-01
DAV:  16    -0.671385512594E+00    0.41836E-03   -0.26801E-03   152   0.418E-01    0.785E-02
DAV:  17    -0.671406995678E+00   -0.21483E-04   -0.13290E-04   180   0.827E-02    0.476E-02
DAV:  18    -0.671363434331E+00    0.43561E-04   -0.12118E-04   152   0.103E-01    0.201E-02
DAV:  19    -0.671354125794E+00    0.93085E-05   -0.83243E-05   180   0.786E-02    0.117E-02
DAV:  20    -0.671354560881E+00   -0.43509E-06   -0.26197E-06    88   0.914E-03
   1 F= -.67135456E+00 E0= -.67135456E+00  d E =-.671355E+00  mag=     0.0013
       N       E                     dE             d eps       ncg     rms          rms(c)
DAV:   1    -0.672869806250E+00   -0.15157E-02   -0.11114E+00   180   0.121E+01    0.173E-02
DAV:   2    -0.673069115832E+00   -0.19931E-03   -0.20153E-03   136   0.423E-01    0.170E-02
DAV:   3    -0.673071185489E+00   -0.20697E-05   -0.44899E-05   192   0.724E-02    0.163E-02
DAV:   4    -0.673069164265E+00    0.20212E-05   -0.79844E-07    72   0.113E-02    0.142E-02
DAV:   5    -0.673070162877E+00   -0.99861E-06   -0.42077E-06    88   0.179E-02    0.107E-02
DAV:   6    -0.673070243236E+00   -0.80359E-07   -0.86195E-07    60   0.117E-02
   2 F= -.67307024E+00 E0= -.67307024E+00  d E =-.171568E-02  mag=    -0.0001
       N       E                     dE             d eps       ncg     rms          rms(c)
DAV:   1    -0.667888802754E+00    0.51814E-02   -0.99358E+00   164   0.363E+01    0.133E-01
DAV:   2    -0.677413510188E+00   -0.95247E-02   -0.95798E-02   168   0.225E+00    0.400E-02
DAV:   3    -0.677469510512E+00   -0.56000E-04   -0.51269E-04   176   0.297E-01    0.373E-02
DAV:   4    -0.677464103783E+00    0.54067E-05   -0.18440E-05   168   0.445E-02    0.357E-02
DAV:   5    -0.677480541306E+00   -0.16438E-04   -0.46304E-05   152   0.754E-02    0.160E-02
DAV:   6    -0.677487254676E+00   -0.67134E-05   -0.16138E-05   132   0.251E-02    0.161E-02
DAV:   7    -0.677487132777E+00    0.12190E-06   -0.28026E-07    60   0.583E-03
   3 F= -.67748713E+00 E0= -.67748713E+00  d E =-.613257E-02  mag=    -0.0001
       N       E                     dE             d eps       ncg     rms          rms(c)
DAV:   1    -0.637418211122E+00    0.40069E-01   -0.39707E+01   164   0.724E+01    0.365E-01
DAV:   2    -0.682840856474E+00   -0.45423E-01   -0.45673E-01   168   0.509E+00    0.767E-02
DAV:   3    -0.683170400230E+00   -0.32954E-03   -0.29584E-03   176   0.709E-01    0.689E-02
DAV:   4    -0.683160493893E+00    0.99063E-05   -0.90747E-05   168   0.951E-02    0.661E-02
DAV:   5    -0.683190266447E+00   -0.29773E-04   -0.14866E-04   152   0.170E-01    0.298E-02
DAV:   6    -0.683214819180E+00   -0.24553E-04   -0.75244E-05   132   0.565E-02    0.309E-02
DAV:   7    -0.683213502784E+00    0.13164E-05   -0.15972E-06    88   0.113E-02    0.317E-02
DAV:   8    -0.683203209878E+00    0.10293E-04   -0.24723E-05   136   0.115E-01    0.185E-02
DAV:   9    -0.683204441108E+00   -0.12312E-05   -0.19259E-05   164   0.336E-02    0.135E-02
DAV:  10    -0.683204536843E+00   -0.95735E-07   -0.92853E-07    60   0.898E-03
   4 F= -.68320454E+00 E0= -.68320454E+00  d E =-.118500E-01  mag=    -0.0001
       N       E                     dE             d eps       ncg     rms          rms(c)
DAV:   1    -0.559866851876E+00    0.12334E+00   -0.16051E+02   180   0.145E+02    0.114E+00
DAV:   2    -0.681590158457E+00   -0.12172E+00   -0.12250E+00   168   0.913E+00    0.153E-01
DAV:   3    -0.683315519864E+00   -0.17254E-02   -0.14810E-02   192   0.149E+00    0.129E-01
DAV:   4    -0.683313128049E+00    0.23918E-05   -0.38009E-04   168   0.172E-01    0.128E-01
DAV:   5    -0.683330085327E+00   -0.16957E-04   -0.42601E-04   152   0.274E-01    0.641E-02
DAV:   6    -0.683448951836E+00   -0.11887E-03   -0.29205E-04   164   0.117E-01    0.537E-02
DAV:   7    -0.683450244249E+00   -0.12924E-05   -0.13243E-05   132   0.269E-02    0.566E-02
DAV:   8    -0.683391686033E+00    0.58558E-04   -0.13956E-04   136   0.234E-01    0.359E-02
DAV:   9    -0.683417823921E+00   -0.26138E-04   -0.50054E-05   132   0.506E-02    0.219E-02
DAV:  10    -0.683417924261E+00   -0.10034E-06   -0.14018E-06    88   0.101E-02
   5 F= -.68341792E+00 E0= -.68341792E+00  d E =-.120634E-01  mag=    -0.0000
       N       E                     dE             d eps       ncg     rms          rms(c)
DAV:   1    -0.650934927607E+00    0.32483E-01   -0.37251E+01   164   0.697E+01    0.347E-01
DAV:   2    -0.683953250615E+00   -0.33018E-01   -0.33208E-01   152   0.481E+00    0.610E-02
DAV:   3    -0.685053384238E+00   -0.11001E-02   -0.10639E-02   192   0.108E+00    0.523E-02
DAV:   4    -0.685053622477E+00   -0.23824E-06   -0.21352E-04   152   0.120E-01    0.503E-02
DAV:   5    -0.685018718707E+00    0.34904E-04   -0.11267E-04   168   0.110E-01    0.326E-02
DAV:   6    -0.685046677127E+00   -0.27958E-04   -0.99150E-05   164   0.824E-02    0.280E-02
DAV:   7    -0.685052787275E+00   -0.61101E-05   -0.12517E-05   116   0.245E-02    0.300E-02
DAV:   8    -0.685048604029E+00    0.41832E-05   -0.23746E-05   120   0.889E-02    0.212E-02
DAV:   9    -0.685054715216E+00   -0.61112E-05   -0.14766E-05   156   0.398E-02    0.163E-02
DAV:  10    -0.685054937931E+00   -0.22272E-06   -0.10097E-06    60   0.161E-02
   6 F= -.68505494E+00 E0= -.68505494E+00  d E =-.137004E-01  mag=    -0.0000
       N       E                     dE             d eps       ncg     rms          rms(c)
DAV:   1    -0.685095649404E+00   -0.40934E-04   -0.34737E+00   180   0.213E+01    0.507E-02
DAV:   2    -0.686049418699E+00   -0.95377E-03   -0.95653E-03   152   0.803E-01    0.276E-02
DAV:   3    -0.686059533230E+00   -0.10115E-04   -0.15635E-04   180   0.127E-01    0.277E-02
DAV:   4    -0.686057170472E+00    0.23628E-05   -0.30891E-06   132   0.166E-02    0.272E-02
DAV:   5    -0.686062497134E+00   -0.53267E-05   -0.42092E-05   168   0.630E-02    0.168E-02
DAV:   6    -0.686065366046E+00   -0.28689E-05   -0.32434E-06   100   0.126E-02    0.150E-02
DAV:   7    -0.686065519264E+00   -0.15322E-06   -0.13759E-06    72   0.212E-02
   7 F= -.68606552E+00 E0= -.68606552E+00  d E =-.101058E-02  mag=    -0.0000
       N       E                     dE             d eps       ncg     rms          rms(c)
DAV:   1    -0.683281404005E+00    0.27840E-02   -0.99660E+00   180   0.362E+01    0.116E-01
DAV:   2    -0.686921364355E+00   -0.36400E-02   -0.36508E-02   152   0.156E+00    0.487E-02
DAV:   3    -0.686973697835E+00   -0.52333E-04   -0.61330E-04   180   0.267E-01    0.493E-02
DAV:   4    -0.686969704002E+00    0.39938E-05   -0.13784E-05   180   0.344E-02    0.486E-02
DAV:   5    -0.686967840500E+00    0.18635E-05   -0.57698E-05   168   0.806E-02    0.344E-02
DAV:   6    -0.686986019819E+00   -0.18179E-04   -0.42863E-05   180   0.598E-02    0.273E-02
DAV:   7    -0.686984536930E+00    0.14829E-05   -0.24185E-06    88   0.193E-02    0.246E-02
DAV:   8    -0.686987204592E+00   -0.26677E-05   -0.15907E-05   136   0.494E-02    0.101E-02
DAV:   9    -0.686987427634E+00   -0.22304E-06   -0.23829E-06    88   0.110E-02
   8 F= -.68698743E+00 E0= -.68698743E+00  d E =-.193249E-02  mag=    -0.0000
       N       E                     dE             d eps       ncg     rms          rms(c)
DAV:   1    -0.686830252683E+00    0.15695E-03   -0.99737E-01   180   0.115E+01    0.268E-02
DAV:   2    -0.687040246257E+00   -0.20999E-03   -0.21088E-03   152   0.382E-01    0.197E-02
DAV:   3    -0.687041417289E+00   -0.11710E-05   -0.32415E-05   192   0.590E-02    0.193E-02
DAV:   4    -0.687041243221E+00    0.17407E-06   -0.78396E-07    60   0.136E-02    0.163E-02
DAV:   5    -0.687047168170E+00   -0.59249E-05   -0.13225E-05   136   0.454E-02    0.590E-03
DAV:   6    -0.687047928925E+00   -0.76076E-06   -0.24529E-06   100   0.113E-02
   9 F= -.68704793E+00 E0= -.68704793E+00  d E =-.199299E-02  mag=     0.0000
       N       E                     dE             d eps       ncg     rms          rms(c)
DAV:   1    -0.687068987711E+00   -0.21820E-04   -0.82579E-01   180   0.105E+01    0.148E-02
DAV:   2    -0.687216685733E+00   -0.14770E-03   -0.14909E-03   152   0.359E-01    0.117E-02
DAV:   3    -0.687217068814E+00   -0.38308E-06   -0.25581E-05   192   0.531E-02    0.113E-02
DAV:   4    -0.687215656949E+00    0.14119E-05   -0.76567E-07    60   0.135E-02    0.101E-02
DAV:   5    -0.687217518274E+00   -0.18613E-05   -0.15617E-05   152   0.505E-02    0.677E-03
DAV:   6    -0.687218284092E+00   -0.76582E-06   -0.31982E-06   100   0.127E-02
  10 F= -.68721828E+00 E0= -.68721828E+00  d E =-.170355E-03  mag=    -0.0000
