 vasp.5.4.4.18Apr17-6-g9f103f2a35 (build Feb 27 2020 20:42:00) gamma-only       
  
 executed on             LinuxIFC date 2022.07.13  11:51:55
 running on    8 total cores
 distrk:  each k-point on    8 cores,    1 groups
 distr:  one band on NCORES_PER_BAND=   4 cores,    2 groups


--------------------------------------------------------------------------------------------------------


 INCAR:
 POTCAR:    PAW Cd_GW 18May2010                   
 POTCAR:    PAW Cd_GW 18May2010                   
  local pseudopotential read in
  partial core-charges read in
  partial kinetic energy density read in
  kinetic energy density of atom read in
  atomic valenz-charges read in
  non local Contribution for L=           2  read in
    real space projection operators read in
  non local Contribution for L=           2  read in
    real space projection operators read in
  non local Contribution for L=           0  read in
    real space projection operators read in
  non local Contribution for L=           0  read in
    real space projection operators read in
  non local Contribution for L=           1  read in
    real space projection operators read in
  non local Contribution for L=           1  read in
    real space projection operators read in
  non local Contribution for L=           3  read in
    real space projection operators read in
  non local Contribution for L=           3  read in
    real space projection operators read in
    PAW grid and wavefunctions read in
 
   number of l-projection  operators is LMAX  =           8
   number of lm-projection operators is LMMAX =          32
 

 ----------------------------------------------------------------------------- 
|                                                                             |
|  ADVICE TO THIS USER RUNNING 'VASP/VAMP'   (HEAR YOUR MASTER'S VOICE ...):  |
|                                                                             |
|      You have a (more or less) 'small supercell' and for smaller cells      |
|      it is recommended  to use the reciprocal-space projection scheme!      |
|      The real space optimization is not  efficient for small cells and it   |
|      is also less accurate ...                                              |
|      Therefore set LREAL=.FALSE. in the  INCAR file                         |
|                                                                             |
 ----------------------------------------------------------------------------- 

 Optimization of the real space projectors (new method)

 maximal supplied QI-value         = 14.36
 optimisation between [QCUT,QGAM] = [ 11.35, 22.84] = [ 36.05,146.02] Ry 
 Optimized for a Real-space Cutoff    1.52 Angstroem

   l    n(q)    QCUT    max X(q) W(low)/X(q) W(high)/X(q)  e(spline) 
   2      9    11.346    58.407    0.18E-03    0.98E-04    0.25E-06
   2      9    11.346    57.882    0.18E-03    0.10E-03    0.26E-06
   0     10    11.346    15.543    0.53E-04    0.26E-04    0.23E-06
   0     10    11.346    11.688    0.43E-04    0.25E-04    0.23E-06
   1     10    11.346     5.784    0.15E-03    0.22E-04    0.23E-06
   1     10    11.346     4.474    0.94E-04    0.13E-04    0.15E-06
   3      9    11.346    19.874    0.24E-03    0.42E-03    0.37E-06
   3      9    11.346    17.509    0.24E-03    0.42E-03    0.36E-06
  PAW Cd_GW 18May2010                   :
 energy of atom  1       EATOM=-1293.1815
 kinetic energy error for atom=    0.0054 (will be added to EATOM!!)
 
 
 POSCAR: Cd                                      
  positions in direct lattice
  velocities in cartesian coordinates
 exchange correlation table for  LEXCH =        8
   RHO(1)=    0.500       N(1)  =     2000
   RHO(2)=  100.500       N(2)  =     4000
 


--------------------------------------------------------------------------------------------------------


 ion  position               nearest neighbor table
   1  0.938  0.015  0.085-   3 3.17   2 3.18   4 3.20
   2  0.053  0.082  0.954-   3 3.07   4 3.13   1 3.18
   3  0.948  0.940  0.915-   2 3.07   1 3.17   4 3.33
   4  0.098  0.926  0.041-   2 3.13   1 3.20   3 3.33
 
  LATTYP: Found a simple cubic cell.
 ALAT       =    17.0000000000
  
  Lattice vectors:
  
 A1 = (  17.0000000000,   0.0000000000,   0.0000000000)
 A2 = (   0.0000000000,  17.0000000000,   0.0000000000)
 A3 = (   0.0000000000,   0.0000000000,  17.0000000000)


Analysis of symmetry for initial positions (statically):
=====================================================================
 Subroutine PRICEL returns:
 Original cell was already a primitive cell.
 

 Routine SETGRP: Setting up the symmetry group for a 
 simple cubic supercell.


 Subroutine GETGRP returns: Found  1 space group operations
 (whereof  1 operations were pure point group operations)
 out of a pool of 48 trial point group operations.


The static configuration has the point symmetry C_1 .


Analysis of symmetry for dynamics (positions and initial velocities):
=====================================================================
 Subroutine PRICEL returns:
 Original cell was already a primitive cell.
 

 Routine SETGRP: Setting up the symmetry group for a 
 simple cubic supercell.


 Subroutine GETGRP returns: Found  1 space group operations
 (whereof  1 operations were pure point group operations)
 out of a pool of 48 trial point group operations.


The dynamic configuration has the point symmetry C_1 .


Analysis of structural, dynamic, and magnetic symmetry:
=====================================================================
 Subroutine PRICEL returns:
 Original cell was already a primitive cell.
 

 Routine SETGRP: Setting up the symmetry group for a 
 simple cubic supercell.


 Subroutine GETGRP returns: Found  1 space group operations
 (whereof  1 operations were pure point group operations)
 out of a pool of 48 trial point group operations.


The magnetic configuration has the point symmetry C_1 .


 Subroutine INISYM returns: Found  1 space group operations
 (whereof  1 operations are pure point group operations),
 and found     1 'primitive' translations

 
 
 KPOINTS: XXX                          ! Comment l

Automatic generation of k-mesh.
Space group operators:
 irot       det(A)        alpha          n_x          n_y          n_z        tau_x        tau_y        tau_z
    1     1.000000     0.000000     1.000000     0.000000     0.000000     0.000000     0.000000     0.000000
 
 Subroutine IBZKPT returns following result:
 ===========================================
 
 Found      1 irreducible k-points:
 
 Following reciprocal coordinates:
            Coordinates               Weight
  0.000000  0.000000  0.000000      1.000000
 
 Following cartesian coordinates:
            Coordinates               Weight
  0.000000  0.000000  0.000000      1.000000
 


--------------------------------------------------------------------------------------------------------




 Dimension of arrays:
   k-points           NKPTS =      1   k-points in BZ     NKDIM =      1   number of bands    NBANDS=     30
   number of dos      NEDOS =    301   number of ions     NIONS =      4
   non local maximal  LDIM  =      8   non local SUM 2l+1 LMDIM =     32
   total plane-waves  NPLWV = 884736
   max r-space proj   IRMAX =   2691   max aug-charges    IRDMAX=  74009
   dimension x,y,z NGX =    96 NGY =   96 NGZ =   96
   dimension x,y,z NGXF=   192 NGYF=  192 NGZF=  192
   support grid    NGXF=   384 NGYF=  384 NGZF=  384
   ions per type =               4
   NGX,Y,Z   is equivalent  to a cutoff of   9.39,  9.39,  9.39 a.u.
   NGXF,Y,Z  is equivalent  to a cutoff of  18.78, 18.78, 18.78 a.u.

 SYSTEM =  Cd                                      
 POSCAR =  Cd                                      

 Startparameter for this run:
   NWRITE =      1    write-flag & timer
   PREC   = normal    normal or accurate (medium, high low for compatibility)
   ISTART =      0    job   : 0-new  1-cont  2-samecut
   ICHARG =      2    charge: 1-file 2-atom 10-const
   ISPIN  =      2    spin polarized calculation?
   LNONCOLLINEAR =      F non collinear calculations
   LSORBIT =      F    spin-orbit coupling
   INIWAV =      1    electr: 0-lowe 1-rand  2-diag
   LASPH  =      T    aspherical Exc in radial PAW
   METAGGA=      F    non-selfconsistent MetaGGA calc.

 Electronic Relaxation 1
   ENCUT  =  500.0 eV  36.75 Ry    6.06 a.u.  30.99 30.99 30.99*2*pi/ulx,y,z
   ENINI  =  500.0     initial cutoff
   ENAUG  =  591.2 eV  augmentation charge cutoff
   NELM   =    120;   NELMIN=  6; NELMDL= -8     # of ELM steps 
   EDIFF  = 0.1E-05   stopping-criterion for ELM
   LREAL  =      T    real-space projection
   NLSPLINE    = F    spline interpolate recip. space projectors
   LCOMPAT=      F    compatible to vasp.4.4
   GGA_COMPAT  = T    GGA compatible to vasp.4.4-vasp.4.6
   LMAXPAW     = -100 max onsite density
   LMAXMIX     =    2 max onsite mixed and CHGCAR
   VOSKOWN=      0    Vosko Wilk Nusair interpolation
   ROPT   =   -0.00050
 Ionic relaxation
   EDIFFG = -.1E-01   stopping-criterion for IOM
   NSW    =    200    number of steps for IOM
   NBLOCK =      1;   KBLOCK =    200    inner block; outer block 
   IBRION =      2    ionic relax: 0-MD 1-quasi-New 2-CG
   NFREE  =      1    steps in history (QN), initial steepest desc. (CG)
   ISIF   =      0    stress and relaxation
   IWAVPR =     11    prediction:  0-non 1-charg 2-wave 3-comb
   ISYM   =      2    0-nonsym 1-usesym 2-fastsym
   LCORR  =      T    Harris-Foulkes like correction to forces

   POTIM  = 0.5000    time-step for ionic-motion
   TEIN   =    0.0    initial temperature
   TEBEG  =    0.0;   TEEND  =   0.0 temperature during run
   SMASS  =  -3.00    Nose mass-parameter (am)
   estimated Nose-frequenzy (Omega)   =  0.10E-29 period in steps =****** mass=  -0.660E-26a.u.
   SCALEE = 1.0000    scale energy and forces
   NPACO  =    256;   APACO  = 16.0  distance and # of slots for P.C.
   PSTRESS=    0.0 pullay stress

  Mass of Ions in am
   POMASS = 112.41
  Ionic Valenz
   ZVAL   =  12.00
  Atomic Wigner-Seitz radii
   RWIGS  =  -1.00
  virtual crystal weights 
   VCA    =   1.00
   NELECT =      48.0000    total number of electrons
   NUPDOWN=      -1.0000    fix difference up-down

 DOS related values:
   EMIN   =  10.00;   EMAX   =-10.00  energy-range for DOS
   EFERMI =   0.00
   ISMEAR =     0;   SIGMA  =   0.01  broadening in eV -4-tet -1-fermi 0-gaus

 Electronic relaxation 2 (details)
   IALGO  =     38    algorithm
   LDIAG  =      T    sub-space diagonalisation (order eigenvalues)
   LSUBROT=      F    optimize rotation matrix (better conditioning)
   TURBO    =      0    0=normal 1=particle mesh
   IRESTART =      0    0=no restart 2=restart with 2 vectors
   NREBOOT  =      0    no. of reboots
   NMIN     =      0    reboot dimension
   EREF     =   0.00    reference energy to select bands
   IMIX   =      4    mixing-type and parameters
     AMIX     =   0.02;   BMIX     =  0.00
     AMIX_MAG =   0.10;   BMIX_MAG =  0.00
     AMIN     =   0.02
     WC   =   100.;   INIMIX=   1;  MIXPRE=   1;  MAXMIX= -45

 Intra band minimization:
   WEIMIN = 0.0010     energy-eigenvalue tresh-hold
   EBREAK =  0.83E-08  absolut break condition
   DEPER  =   0.30     relativ break condition  

   TIME   =   0.40     timestep for ELM

  volume/ion in A,a.u.               =    1228.25      8288.64
  Fermi-wavevector in a.u.,A,eV,Ry     =   0.349977  0.661361  1.666496  0.122484
  Thomas-Fermi vector in A             =   1.261461
 
 Write flags
   LWAVE        =      F    write WAVECAR
   LDOWNSAMPLE  =      F    k-point downsampling of WAVECAR
   LCHARG       =      F    write CHGCAR
   LVTOT        =      F    write LOCPOT, total local potential
   LVHAR        =      F    write LOCPOT, Hartree potential only
   LELF         =      F    write electronic localiz. function (ELF)
   LORBIT       =     10    0 simple, 1 ext, 2 COOP (PROOUT), +10 PAW based schemes


 Dipole corrections
   LMONO  =      F    monopole corrections only (constant potential shift)
   LDIPOL =      F    correct potential (dipole corrections)
   IDIPOL =      0    1-x, 2-y, 3-z, 4-all directions 
   EPSILON=  1.0000000 bulk dielectric constant

 Exchange correlation treatment:
   GGA     =    --    GGA type
   LEXCH   =     8    internal setting for exchange type
   VOSKOWN=      0    Vosko Wilk Nusair interpolation
   LHFCALC =     F    Hartree Fock is set to
   LHFONE  =     F    Hartree Fock one center treatment
   AEXX    =    0.0000 exact exchange contribution

 Linear response parameters
   LEPSILON=     F    determine dielectric tensor
   LRPA    =     F    only Hartree local field effects (RPA)
   LNABLA  =     F    use nabla operator in PAW spheres
   LVEL    =     F    velocity operator in full k-point grid
   LINTERFAST=   F  fast interpolation
   KINTER  =     0    interpolate to denser k-point grid
   CSHIFT  =0.1000    complex shift for real part using Kramers Kronig
   OMEGAMAX=  -1.0    maximum frequency
   DEG_THRESHOLD= 0.2000000E-02 threshold for treating states as degnerate
   RTIME   =   -0.100 relaxation time in fs
  (WPLASMAI=    0.000 imaginary part of plasma frequency in eV, 0.658/RTIME)
   DFIELD  = 0.0000000 0.0000000 0.0000000 field for delta impulse in time
 
 Orbital magnetization related:
   ORBITALMAG=     F  switch on orbital magnetization
   LCHIMAG   =     F  perturbation theory with respect to B field
   DQ        =  0.001000  dq finite difference perturbation B field
   LLRAUG    =     F  two centre corrections for induced B field



--------------------------------------------------------------------------------------------------------


 conjugate gradient relaxation of ions
 charge density and potential will be updated during run
 spin polarized calculation
 Variant of blocked Davidson
 Davidson routine will perform the subspace rotation
 perform sub-space diagonalisation
    after iterative eigenvector-optimisation
 modified Broyden-mixing scheme, WC =      100.0
 initial mixing is a Kerker type mixing with AMIX =  0.0200 and BMIX =      0.0000
 Hartree-type preconditioning will be used
 using additional bands            6
 real space projection scheme for non local part
 use partial core corrections
 calculate Harris-corrections to forces 
   (improved forces if not selfconsistent)
 use gradient corrections 
 use of overlap-Matrix (Vanderbilt PP)
 Gauss-broadening in eV      SIGMA  =   0.01


--------------------------------------------------------------------------------------------------------


  energy-cutoff  :      500.00
  volume of cell :     4913.00
      direct lattice vectors                 reciprocal lattice vectors
    17.000000000  0.000000000  0.000000000     0.058823529  0.000000000  0.000000000
     0.000000000 17.000000000  0.000000000     0.000000000  0.058823529  0.000000000
     0.000000000  0.000000000 17.000000000     0.000000000  0.000000000  0.058823529

  length of vectors
    17.000000000 17.000000000 17.000000000     0.058823529  0.058823529  0.058823529


 
 k-points in units of 2pi/SCALE and weight: XXX                          ! Comment l
   0.00000000  0.00000000  0.00000000       1.000
 
 k-points in reciprocal lattice and weights: XXX                          ! Comment l
   0.00000000  0.00000000  0.00000000       1.000
 
 position of ions in fractional coordinates (direct lattice) 
   0.93822900  0.01484682  0.08541281
   0.05259607  0.08164835  0.95364072
   0.94849354  0.93953118  0.91521064
   0.09813198  0.92618953  0.04071289
 
 position of ions in cartesian coordinates  (Angst):
  15.94989302  0.25239597  1.45201781
   0.89413319  1.38802194 16.21189220
  16.12439016 15.97203014 15.55858081
   1.66824363 15.74522195  0.69211917
 


--------------------------------------------------------------------------------------------------------


 use parallel FFT for orbitals z direction half grid
 k-point  1 :   0.0000 0.0000 0.0000  plane waves:   62145

 maximum and minimum number of plane-waves per node :     15539    15530

 maximum number of plane-waves:     62145
 maximum index in each direction: 
   IXMAX=   30   IYMAX=   30   IZMAX=   30
   IXMIN=  -30   IYMIN=  -30   IZMIN=    0


 real space projection operators:
  total allocation   :       2567.75 KBytes
  max/ min on nodes  :        648.75        633.25


 parallel 3D FFT for wavefunctions:
    minimum data exchange during FFTs selected (reduces bandwidth)
 parallel 3D FFT for charge:
    minimum data exchange during FFTs selected (reduces bandwidth)


 total amount of memory used by VASP MPI-rank0   254555. kBytes
=======================================================================

   base      :      30000. kBytes
   nonlr-proj:        797. kBytes
   fftplans  :     134259. kBytes
   grid      :      81985. kBytes
   one-center:         49. kBytes
   wavefun   :       7465. kBytes
 
     INWAV:  cpu time    0.0000: real time    0.0002
 Broyden mixing: mesh for mixing (old mesh)
   NGX = 61   NGY = 61   NGZ = 61
  (NGX  =192   NGY  =192   NGZ  =192)
  gives a total of 226981 points

 initial charge density was supplied:
 charge density of overlapping atoms calculated
 number of electron      48.0000000 magnetization       4.0000000
 keeping initial charge density in first step


--------------------------------------------------------------------------------------------------------


 Maximum index for non-local projection operator          657
 Maximum index for augmentation-charges         9001 (set IRDMAX)


--------------------------------------------------------------------------------------------------------


 First call to EWALD:  gamma=   0.104
 Maximum number of real-space cells 3x 3x 3
 Maximum number of reciprocal cells 3x 3x 3

    FEWALD:  cpu time    0.0010: real time    0.0010


--------------------------------------- Iteration      1(   1)  ---------------------------------------


    POTLOK:  cpu time    2.4486: real time    2.4837
    SETDIJ:  cpu time    2.4106: real time    2.4169
     EDDAV:  cpu time    3.3745: real time    3.3840
       DOS:  cpu time    0.0000: real time    0.0001
    --------------------------------------------
      LOOP:  cpu time    8.2337: real time    8.2847

 eigenvalue-minimisations  :   120
 total energy-change (2. order) : 0.5700400E+03  (-0.8864076E+03)
 number of electron      48.0000000 magnetization       4.0000000
 augmentation part       48.0000000 magnetization       4.0000000

 Free energy of the ion-electron system (eV)
  ---------------------------------------------------
  alpha Z        PSCENC =         4.83781458
  Ewald energy   TEWEN  =      1202.61712670
  -Hartree energ DENC   =     -5943.68237527
  -exchange      EXHF   =         0.00000000
  -V(xc)+E(xc)   XCENC  =        15.97278350
  PAW double counting   =      4712.74651672    -4651.29208614
  entropy T*S    EENTRO =        -0.00000000
  eigenvalues    EBANDS =        56.13574687
  atomic energy  EATOM  =      5172.70447966
  Solvation  Ediel_sol  =         0.00000000
  ---------------------------------------------------
  free energy    TOTEN  =       570.04000662 eV

  energy without entropy =      570.04000662  energy(sigma->0) =      570.04000662


--------------------------------------------------------------------------------------------------------




--------------------------------------- Iteration      1(   2)  ---------------------------------------


     EDDAV:  cpu time    5.8521: real time    5.8833
       DOS:  cpu time    0.0000: real time    0.0001
    --------------------------------------------
      LOOP:  cpu time    5.8521: real time    5.8834

 eigenvalue-minimisations  :   240
 total energy-change (2. order) :-0.3108873E+03  (-0.2834867E+03)
 number of electron      48.0000000 magnetization       4.0000000
 augmentation part       48.0000000 magnetization       4.0000000

 Free energy of the ion-electron system (eV)
  ---------------------------------------------------
  alpha Z        PSCENC =         4.83781458
  Ewald energy   TEWEN  =      1202.61712670
  -Hartree energ DENC   =     -5943.68237527
  -exchange      EXHF   =         0.00000000
  -V(xc)+E(xc)   XCENC  =        15.97278350
  PAW double counting   =      4712.74651672    -4651.29208614
  entropy T*S    EENTRO =        -0.00000000
  eigenvalues    EBANDS =      -254.75153330
  atomic energy  EATOM  =      5172.70447966
  Solvation  Ediel_sol  =         0.00000000
  ---------------------------------------------------
  free energy    TOTEN  =       259.15272644 eV

  energy without entropy =      259.15272644  energy(sigma->0) =      259.15272644


--------------------------------------------------------------------------------------------------------




--------------------------------------- Iteration      1(   3)  ---------------------------------------


     EDDAV:  cpu time    4.5203: real time    4.5509
       DOS:  cpu time    0.0000: real time    0.0001
    --------------------------------------------
      LOOP:  cpu time    4.5203: real time    4.5510

 eigenvalue-minimisations  :   176
 total energy-change (2. order) :-0.2260643E+03  (-0.2073422E+03)
 number of electron      48.0000000 magnetization       4.0000000
 augmentation part       48.0000000 magnetization       4.0000000

 Free energy of the ion-electron system (eV)
  ---------------------------------------------------
  alpha Z        PSCENC =         4.83781458
  Ewald energy   TEWEN  =      1202.61712670
  -Hartree energ DENC   =     -5943.68237527
  -exchange      EXHF   =         0.00000000
  -V(xc)+E(xc)   XCENC  =        15.97278350
  PAW double counting   =      4712.74651672    -4651.29208614
  entropy T*S    EENTRO =        -0.00000000
  eigenvalues    EBANDS =      -480.81585394
  atomic energy  EATOM  =      5172.70447966
  Solvation  Ediel_sol  =         0.00000000
  ---------------------------------------------------
  free energy    TOTEN  =        33.08840581 eV

  energy without entropy =       33.08840581  energy(sigma->0) =       33.08840581


--------------------------------------------------------------------------------------------------------




--------------------------------------- Iteration      1(   4)  ---------------------------------------


     EDDAV:  cpu time    4.4943: real time    4.5507
       DOS:  cpu time    0.0000: real time    0.0001
    --------------------------------------------
      LOOP:  cpu time    4.4943: real time    4.5507

 eigenvalue-minimisations  :   176
 total energy-change (2. order) :-0.3246244E+02  (-0.3231767E+02)
 number of electron      48.0000000 magnetization       4.0000000
 augmentation part       48.0000000 magnetization       4.0000000

 Free energy of the ion-electron system (eV)
  ---------------------------------------------------
  alpha Z        PSCENC =         4.83781458
  Ewald energy   TEWEN  =      1202.61712670
  -Hartree energ DENC   =     -5943.68237527
  -exchange      EXHF   =         0.00000000
  -V(xc)+E(xc)   XCENC  =        15.97278350
  PAW double counting   =      4712.74651672    -4651.29208614
  entropy T*S    EENTRO =        -0.00000000
  eigenvalues    EBANDS =      -513.27829829
  atomic energy  EATOM  =      5172.70447966
  Solvation  Ediel_sol  =         0.00000000
  ---------------------------------------------------
  free energy    TOTEN  =         0.62596146 eV

  energy without entropy =        0.62596146  energy(sigma->0) =        0.62596146


--------------------------------------------------------------------------------------------------------




--------------------------------------- Iteration      1(   5)  ---------------------------------------


     EDDAV:  cpu time    3.9854: real time    4.0032
       DOS:  cpu time    0.0000: real time    0.0001
    --------------------------------------------
      LOOP:  cpu time    3.9854: real time    4.0033

 eigenvalue-minimisations  :   150
 total energy-change (2. order) :-0.7551201E+00  (-0.7541807E+00)
 number of electron      48.0000000 magnetization       4.0000000
 augmentation part       48.0000000 magnetization       4.0000000

 Free energy of the ion-electron system (eV)
  ---------------------------------------------------
  alpha Z        PSCENC =         4.83781458
  Ewald energy   TEWEN  =      1202.61712670
  -Hartree energ DENC   =     -5943.68237527
  -exchange      EXHF   =         0.00000000
  -V(xc)+E(xc)   XCENC  =        15.97278350
  PAW double counting   =      4712.74651672    -4651.29208614
  entropy T*S    EENTRO =        -0.00000000
  eigenvalues    EBANDS =      -514.03341836
  atomic energy  EATOM  =      5172.70447966
  Solvation  Ediel_sol  =         0.00000000
  ---------------------------------------------------
  free energy    TOTEN  =        -0.12915862 eV

  energy without entropy =       -0.12915862  energy(sigma->0) =       -0.12915862


--------------------------------------------------------------------------------------------------------




--------------------------------------- Iteration      1(   6)  ---------------------------------------


     EDDAV:  cpu time    4.4743: real time    4.5015
       DOS:  cpu time    0.0000: real time    0.0001
    --------------------------------------------
      LOOP:  cpu time    4.4743: real time    4.5016

 eigenvalue-minimisations  :   174
 total energy-change (2. order) :-0.2538053E-01  (-0.2537794E-01)
 number of electron      48.0000000 magnetization       4.0000000
 augmentation part       48.0000000 magnetization       4.0000000

 Free energy of the ion-electron system (eV)
  ---------------------------------------------------
  alpha Z        PSCENC =         4.83781458
  Ewald energy   TEWEN  =      1202.61712670
  -Hartree energ DENC   =     -5943.68237527
  -exchange      EXHF   =         0.00000000
  -V(xc)+E(xc)   XCENC  =        15.97278350
  PAW double counting   =      4712.74651672    -4651.29208614
  entropy T*S    EENTRO =        -0.00000000
  eigenvalues    EBANDS =      -514.05879890
  atomic energy  EATOM  =      5172.70447966
  Solvation  Ediel_sol  =         0.00000000
  ---------------------------------------------------
  free energy    TOTEN  =        -0.15453915 eV

  energy without entropy =       -0.15453915  energy(sigma->0) =       -0.15453915


--------------------------------------------------------------------------------------------------------




--------------------------------------- Iteration      1(   7)  ---------------------------------------


     EDDAV:  cpu time    4.3983: real time    4.6338
       DOS:  cpu time    0.0000: real time    0.0001
    --------------------------------------------
      LOOP:  cpu time    4.3983: real time    4.6339

 eigenvalue-minimisations  :   170
 total energy-change (2. order) :-0.3919319E-03  (-0.3919306E-03)
 number of electron      48.0000000 magnetization       4.0000000
 augmentation part       48.0000000 magnetization       4.0000000

 Free energy of the ion-electron system (eV)
  ---------------------------------------------------
  alpha Z        PSCENC =         4.83781458
  Ewald energy   TEWEN  =      1202.61712670
  -Hartree energ DENC   =     -5943.68237527
  -exchange      EXHF   =         0.00000000
  -V(xc)+E(xc)   XCENC  =        15.97278350
  PAW double counting   =      4712.74651672    -4651.29208614
  entropy T*S    EENTRO =        -0.00000000
  eigenvalues    EBANDS =      -514.05919083
  atomic energy  EATOM  =      5172.70447966
  Solvation  Ediel_sol  =         0.00000000
  ---------------------------------------------------
  free energy    TOTEN  =        -0.15493108 eV

  energy without entropy =       -0.15493108  energy(sigma->0) =       -0.15493108


--------------------------------------------------------------------------------------------------------




--------------------------------------- Iteration      1(   8)  ---------------------------------------


     EDDAV:  cpu time    4.5983: real time    6.0811
       DOS:  cpu time    0.0000: real time    0.0002
    CHARGE:  cpu time    1.7157: real time    1.7246
    MIXING:  cpu time    0.0530: real time    0.0531
    --------------------------------------------
      LOOP:  cpu time    6.3670: real time    7.8591

 eigenvalue-minimisations  :   180
 total energy-change (2. order) :-0.1492130E-04  (-0.1492121E-04)
 number of electron      48.0000002 magnetization       3.6000000
 augmentation part       24.2661043 magnetization       3.6409079

 Broyden mixing:
  rms(total) = 0.93182E+00    rms(broyden)= 0.93181E+00
  rms(prec ) = 0.93392E+00
  weight for this iteration     100.00

 Free energy of the ion-electron system (eV)
  ---------------------------------------------------
  alpha Z        PSCENC =         4.83781458
  Ewald energy   TEWEN  =      1202.61712670
  -Hartree energ DENC   =     -5943.68237527
  -exchange      EXHF   =         0.00000000
  -V(xc)+E(xc)   XCENC  =        15.97278350
  PAW double counting   =      4712.74651672    -4651.29208614
  entropy T*S    EENTRO =        -0.00000000
  eigenvalues    EBANDS =      -514.05920575
  atomic energy  EATOM  =      5172.70447966
  Solvation  Ediel_sol  =         0.00000000
  ---------------------------------------------------
  free energy    TOTEN  =        -0.15494600 eV

  energy without entropy =       -0.15494600  energy(sigma->0) =       -0.15494600


--------------------------------------------------------------------------------------------------------




--------------------------------------- Iteration      1(   9)  ---------------------------------------


    POTLOK:  cpu time    2.4636: real time    2.4759
    SETDIJ:  cpu time    2.4036: real time    2.4409
     EDDAV:  cpu time    3.6894: real time    3.7057
       DOS:  cpu time    0.0000: real time    0.0003
    CHARGE:  cpu time    1.7007: real time    1.7059
    MIXING:  cpu time    0.0640: real time    0.0643
    --------------------------------------------
      LOOP:  cpu time   10.3214: real time   10.3929

 eigenvalue-minimisations  :   136
 total energy-change (2. order) :-0.9679211E-01  (-0.1476758E-03)
 number of electron      48.0000002 magnetization      -0.0956212
 augmentation part       24.2687774 magnetization      -0.0585787

 Broyden mixing:
  rms(total) = 0.84296E+00    rms(broyden)= 0.84296E+00
  rms(prec ) = 0.84507E+00
  weight for this iteration     100.00

 eigenvalues of (default mixing * dielectric matrix)
  average eigenvalue GAMMA=  10.2242
 10.2242

 Free energy of the ion-electron system (eV)
  ---------------------------------------------------
  alpha Z        PSCENC =         4.83781458
  Ewald energy   TEWEN  =      1202.61712670
  -Hartree energ DENC   =     -5943.48637832
  -exchange      EXHF   =         0.00000000
  -V(xc)+E(xc)   XCENC  =        15.89751792
  PAW double counting   =      4712.72698430    -4651.28223015
  entropy T*S    EENTRO =        -0.00000000
  eigenvalues    EBANDS =      -514.26705280
  atomic energy  EATOM  =      5172.70447966
  Solvation  Ediel_sol  =         0.00000000
  ---------------------------------------------------
  free energy    TOTEN  =        -0.25173811 eV

  energy without entropy =       -0.25173811  energy(sigma->0) =       -0.25173811


--------------------------------------------------------------------------------------------------------




--------------------------------------- Iteration      1(  10)  ---------------------------------------


    POTLOK:  cpu time    2.4666: real time    2.4737
    SETDIJ:  cpu time    2.4306: real time    2.4359
     EDDAV:  cpu time    3.8584: real time    3.8726
       DOS:  cpu time    0.0010: real time    0.0004
    CHARGE:  cpu time    1.7027: real time    1.7087
    MIXING:  cpu time    0.0670: real time    0.0673
    --------------------------------------------
      LOOP:  cpu time   10.5264: real time   10.5586

 eigenvalue-minimisations  :   144
 total energy-change (2. order) :-0.4233649E+00  (-0.1021362E-01)
 number of electron      48.0000002 magnetization      -0.0705563
 augmentation part       24.2949880 magnetization      -0.0687747

 Broyden mixing:
  rms(total) = 0.13291E+00    rms(broyden)= 0.13291E+00
  rms(prec ) = 0.13663E+00
  weight for this iteration     100.00

 eigenvalues of (default mixing * dielectric matrix)
  average eigenvalue GAMMA=  10.2846
 10.2846 10.2846

 Free energy of the ion-electron system (eV)
  ---------------------------------------------------
  alpha Z        PSCENC =         4.83781458
  Ewald energy   TEWEN  =      1202.61712670
  -Hartree energ DENC   =     -5941.50668061
  -exchange      EXHF   =         0.00000000
  -V(xc)+E(xc)   XCENC  =        15.49040121
  PAW double counting   =      4712.30253655    -4650.97159164
  entropy T*S    EENTRO =        -0.00000000
  eigenvalues    EBANDS =      -516.14918947
  atomic energy  EATOM  =      5172.70447966
  Solvation  Ediel_sol  =         0.00000000
  ---------------------------------------------------
  free energy    TOTEN  =        -0.67510300 eV

  energy without entropy =       -0.67510300  energy(sigma->0) =       -0.67510300


--------------------------------------------------------------------------------------------------------




--------------------------------------- Iteration      1(  11)  ---------------------------------------


    POTLOK:  cpu time    2.4666: real time    2.4819
    SETDIJ:  cpu time    2.4276: real time    2.4351
     EDDAV:  cpu time    4.2634: real time    4.2875
       DOS:  cpu time    0.0010: real time    0.0004
    CHARGE:  cpu time    1.7007: real time    1.7072
    MIXING:  cpu time    0.0720: real time    0.0731
    --------------------------------------------
      LOOP:  cpu time   10.9313: real time   10.9851

 eigenvalue-minimisations  :   164
 total energy-change (2. order) : 0.1075537E-02  (-0.4779465E-03)
 number of electron      48.0000002 magnetization       0.0794510
 augmentation part       24.2983763 magnetization       0.0811384

 Broyden mixing:
  rms(total) = 0.12335E+00    rms(broyden)= 0.12335E+00
  rms(prec ) = 0.12640E+00
  weight for this iteration     100.00

 eigenvalues of (default mixing * dielectric matrix)
  average eigenvalue GAMMA=   8.4743
 12.9753  9.9850  2.4627

 Free energy of the ion-electron system (eV)
  ---------------------------------------------------
  alpha Z        PSCENC =         4.83781458
  Ewald energy   TEWEN  =      1202.61712670
  -Hartree energ DENC   =     -5940.96470648
  -exchange      EXHF   =         0.00000000
  -V(xc)+E(xc)   XCENC  =        15.46551638
  PAW double counting   =      4712.26911707    -4650.98716848
  entropy T*S    EENTRO =        -0.00000000
  eigenvalues    EBANDS =      -516.61620690
  atomic energy  EATOM  =      5172.70447966
  Solvation  Ediel_sol  =         0.00000000
  ---------------------------------------------------
  free energy    TOTEN  =        -0.67402747 eV

  energy without entropy =       -0.67402747  energy(sigma->0) =       -0.67402747


--------------------------------------------------------------------------------------------------------




--------------------------------------- Iteration      1(  12)  ---------------------------------------


    POTLOK:  cpu time    2.4656: real time    2.4728
    SETDIJ:  cpu time    2.4086: real time    2.4381
     EDDAV:  cpu time    3.8534: real time    3.8709
       DOS:  cpu time    0.0000: real time    0.0003
    CHARGE:  cpu time    1.7017: real time    1.7083
    MIXING:  cpu time    0.0780: real time    0.0789
    --------------------------------------------
      LOOP:  cpu time   10.5074: real time   10.5694

 eigenvalue-minimisations  :   144
 total energy-change (2. order) : 0.3544593E-02  (-0.2954359E-02)
 number of electron      48.0000002 magnetization       0.0967302
 augmentation part       24.3258128 magnetization       0.0943794

 Broyden mixing:
  rms(total) = 0.89125E-01    rms(broyden)= 0.89125E-01
  rms(prec ) = 0.89814E-01
  weight for this iteration     100.00

 eigenvalues of (default mixing * dielectric matrix)
  average eigenvalue GAMMA=   8.3992
 19.9611 10.1207  3.0027  0.5123

 Free energy of the ion-electron system (eV)
  ---------------------------------------------------
  alpha Z        PSCENC =         4.83781458
  Ewald energy   TEWEN  =      1202.61712670
  -Hartree energ DENC   =     -5937.28754237
  -exchange      EXHF   =         0.00000000
  -V(xc)+E(xc)   XCENC  =        15.30033860
  PAW double counting   =      4712.21092545    -4651.27082270
  entropy T*S    EENTRO =        -0.00000000
  eigenvalues    EBANDS =      -519.78280279
  atomic energy  EATOM  =      5172.70447966
  Solvation  Ediel_sol  =         0.00000000
  ---------------------------------------------------
  free energy    TOTEN  =        -0.67048287 eV

  energy without entropy =       -0.67048287  energy(sigma->0) =       -0.67048287


--------------------------------------------------------------------------------------------------------




--------------------------------------- Iteration      1(  13)  ---------------------------------------


    POTLOK:  cpu time    2.4676: real time    2.4753
    SETDIJ:  cpu time    2.4306: real time    2.4372
     EDDAV:  cpu time    4.2654: real time    4.2873
       DOS:  cpu time    0.0000: real time    0.0003
    CHARGE:  cpu time    1.7017: real time    1.7081
    MIXING:  cpu time    0.0870: real time    0.0860
    --------------------------------------------
      LOOP:  cpu time   10.9523: real time   10.9943

 eigenvalue-minimisations  :   164
 total energy-change (2. order) :-0.5125893E-03  (-0.2386083E-03)
 number of electron      48.0000002 magnetization      -0.0019446
 augmentation part       24.3299563 magnetization      -0.0048357

 Broyden mixing:
  rms(total) = 0.83663E-01    rms(broyden)= 0.83663E-01
  rms(prec ) = 0.84519E-01
  weight for this iteration     100.00

 eigenvalues of (default mixing * dielectric matrix)
  average eigenvalue GAMMA=  12.5226
 40.3765 10.4243  9.8377  0.9873  0.9873

 Free energy of the ion-electron system (eV)
  ---------------------------------------------------
  alpha Z        PSCENC =         4.83781458
  Ewald energy   TEWEN  =      1202.61712670
  -Hartree energ DENC   =     -5936.57326060
  -exchange      EXHF   =         0.00000000
  -V(xc)+E(xc)   XCENC  =        15.26979707
  PAW double counting   =      4712.26010716    -4651.39374577
  entropy T*S    EENTRO =        -0.00000000
  eigenvalues    EBANDS =      -520.39331427
  atomic energy  EATOM  =      5172.70447966
  Solvation  Ediel_sol  =         0.00000000
  ---------------------------------------------------
  free energy    TOTEN  =        -0.67099546 eV

  energy without entropy =       -0.67099546  energy(sigma->0) =       -0.67099546


--------------------------------------------------------------------------------------------------------




--------------------------------------- Iteration      1(  14)  ---------------------------------------


    POTLOK:  cpu time    2.4636: real time    2.4829
    SETDIJ:  cpu time    2.4066: real time    2.4118
     EDDAV:  cpu time    4.1894: real time    4.2025
       DOS:  cpu time    0.0000: real time    0.0003
    CHARGE:  cpu time    1.6977: real time    1.7044
    MIXING:  cpu time    0.0960: real time    0.0976
    --------------------------------------------
      LOOP:  cpu time   10.8534: real time   10.8995

 eigenvalue-minimisations  :   160
 total energy-change (2. order) :-0.1110711E-02  (-0.2901665E-03)
 number of electron      48.0000002 magnetization      -0.0499278
 augmentation part       24.3367352 magnetization      -0.0499007

 Broyden mixing:
  rms(total) = 0.38063E-01    rms(broyden)= 0.38063E-01
  rms(prec ) = 0.39000E-01
  weight for this iteration     100.00

 eigenvalues of (default mixing * dielectric matrix)
  average eigenvalue GAMMA=  12.4503
 49.8486 10.0977 11.7875  1.0613  1.0822  0.8246

 Free energy of the ion-electron system (eV)
  ---------------------------------------------------
  alpha Z        PSCENC =         4.83781458
  Ewald energy   TEWEN  =      1202.61712670
  -Hartree energ DENC   =     -5933.98676179
  -exchange      EXHF   =         0.00000000
  -V(xc)+E(xc)   XCENC  =        15.18881137
  PAW double counting   =      4714.10177640    -4653.66459668
  entropy T*S    EENTRO =        -0.00000000
  eigenvalues    EBANDS =      -522.47075642
  atomic energy  EATOM  =      5172.70447966
  Solvation  Ediel_sol  =         0.00000000
  ---------------------------------------------------
  free energy    TOTEN  =        -0.67210617 eV

  energy without entropy =       -0.67210617  energy(sigma->0) =       -0.67210617


--------------------------------------------------------------------------------------------------------




--------------------------------------- Iteration      1(  15)  ---------------------------------------


    POTLOK:  cpu time    2.4376: real time    2.4814
    SETDIJ:  cpu time    2.3966: real time    2.4036
     EDDAV:  cpu time    4.2744: real time    4.2877
       DOS:  cpu time    0.0000: real time    0.0004
    CHARGE:  cpu time    1.7037: real time    1.7085
    MIXING:  cpu time    0.0990: real time    0.0993
    --------------------------------------------
      LOOP:  cpu time   10.9113: real time   10.9810

 eigenvalue-minimisations  :   164
 total energy-change (2. order) : 0.3023013E-03  (-0.1072534E-03)
 number of electron      48.0000002 magnetization      -0.0025634
 augmentation part       24.3367279 magnetization      -0.0007054

 Broyden mixing:
  rms(total) = 0.29466E-01    rms(broyden)= 0.29466E-01
  rms(prec ) = 0.30211E-01
  weight for this iteration     100.00

 eigenvalues of (default mixing * dielectric matrix)
  average eigenvalue GAMMA=  12.8492
 47.7594 18.4814  9.9906 10.7772  1.0059  1.0059  0.9241

 Free energy of the ion-electron system (eV)
  ---------------------------------------------------
  alpha Z        PSCENC =         4.83781458
  Ewald energy   TEWEN  =      1202.61712670
  -Hartree energ DENC   =     -5933.13993269
  -exchange      EXHF   =         0.00000000
  -V(xc)+E(xc)   XCENC  =        15.16823004
  PAW double counting   =      4715.16670304    -4654.92013593
  entropy T*S    EENTRO =        -0.00000000
  eigenvalues    EBANDS =      -523.10608927
  atomic energy  EATOM  =      5172.70447966
  Solvation  Ediel_sol  =         0.00000000
  ---------------------------------------------------
  free energy    TOTEN  =        -0.67180387 eV

  energy without entropy =       -0.67180387  energy(sigma->0) =       -0.67180387


--------------------------------------------------------------------------------------------------------




--------------------------------------- Iteration      1(  16)  ---------------------------------------


    POTLOK:  cpu time    2.4626: real time    2.4719
    SETDIJ:  cpu time    2.4136: real time    2.4198
     EDDAV:  cpu time    4.0244: real time    4.0370
       DOS:  cpu time    0.0000: real time    0.0002
    CHARGE:  cpu time    1.7037: real time    1.7092
    MIXING:  cpu time    0.1100: real time    0.1094
    --------------------------------------------
      LOOP:  cpu time   10.7144: real time   10.7476

 eigenvalue-minimisations  :   152
 total energy-change (2. order) : 0.4183585E-03  (-0.2680061E-03)
 number of electron      48.0000002 magnetization       0.0067247
 augmentation part       24.3273112 magnetization       0.0069202

 Broyden mixing:
  rms(total) = 0.78490E-02    rms(broyden)= 0.78488E-02
  rms(prec ) = 0.82229E-02
  weight for this iteration     100.00

 eigenvalues of (default mixing * dielectric matrix)
  average eigenvalue GAMMA=  11.9029
 49.7704 20.3312 10.0267 11.0130  0.9301  0.9506  1.0332  1.1678

 Free energy of the ion-electron system (eV)
  ---------------------------------------------------
  alpha Z        PSCENC =         4.83781458
  Ewald energy   TEWEN  =      1202.61712670
  -Hartree energ DENC   =     -5934.12883622
  -exchange      EXHF   =         0.00000000
  -V(xc)+E(xc)   XCENC  =        15.20635963
  PAW double counting   =      4716.69168498    -4656.54040292
  entropy T*S    EENTRO =        -0.00000000
  eigenvalues    EBANDS =      -522.05961192
  atomic energy  EATOM  =      5172.70447966
  Solvation  Ediel_sol  =         0.00000000
  ---------------------------------------------------
  free energy    TOTEN  =        -0.67138551 eV

  energy without entropy =       -0.67138551  energy(sigma->0) =       -0.67138551


--------------------------------------------------------------------------------------------------------




--------------------------------------- Iteration      1(  17)  ---------------------------------------


    POTLOK:  cpu time    2.4616: real time    2.4795
    SETDIJ:  cpu time    2.4106: real time    2.4154
     EDDAV:  cpu time    4.6043: real time    4.6184
       DOS:  cpu time    0.0000: real time    0.0002
    CHARGE:  cpu time    1.6887: real time    1.7062
    MIXING:  cpu time    0.1220: real time    0.1221
    --------------------------------------------
      LOOP:  cpu time   11.2873: real time   11.3418

 eigenvalue-minimisations  :   180
 total energy-change (2. order) :-0.2148308E-04  (-0.1328975E-04)
 number of electron      48.0000002 magnetization       0.0014569
 augmentation part       24.3257696 magnetization       0.0013002

 Broyden mixing:
  rms(total) = 0.47636E-02    rms(broyden)= 0.47635E-02
  rms(prec ) = 0.54169E-02
  weight for this iteration     100.00

 eigenvalues of (default mixing * dielectric matrix)
  average eigenvalue GAMMA=  11.2810
 50.5969 20.1033 10.9507 10.0009  5.9522  0.9236  0.9871  0.9871  1.0276

 Free energy of the ion-electron system (eV)
  ---------------------------------------------------
  alpha Z        PSCENC =         4.83781458
  Ewald energy   TEWEN  =      1202.61712670
  -Hartree energ DENC   =     -5934.21517486
  -exchange      EXHF   =         0.00000000
  -V(xc)+E(xc)   XCENC  =        15.20937822
  PAW double counting   =      4717.18740462    -4657.08736579
  entropy T*S    EENTRO =        -0.00000000
  eigenvalues    EBANDS =      -521.92507012
  atomic energy  EATOM  =      5172.70447966
  Solvation  Ediel_sol  =         0.00000000
  ---------------------------------------------------
  free energy    TOTEN  =        -0.67140700 eV

  energy without entropy =       -0.67140700  energy(sigma->0) =       -0.67140700


--------------------------------------------------------------------------------------------------------




--------------------------------------- Iteration      1(  18)  ---------------------------------------


    POTLOK:  cpu time    2.4476: real time    2.4714
    SETDIJ:  cpu time    2.4086: real time    2.4155
     EDDAV:  cpu time    4.0234: real time    4.0350
       DOS:  cpu time    0.0010: real time    0.0003
    CHARGE:  cpu time    1.6997: real time    1.7053
    MIXING:  cpu time    0.1300: real time    0.1300
    --------------------------------------------
      LOOP:  cpu time   10.7104: real time   10.7575

 eigenvalue-minimisations  :   152
 total energy-change (2. order) : 0.4356135E-04  (-0.1211828E-04)
 number of electron      48.0000002 magnetization       0.0000396
 augmentation part       24.3251264 magnetization      -0.0000402

 Broyden mixing:
  rms(total) = 0.20111E-02    rms(broyden)= 0.20108E-02
  rms(prec ) = 0.22931E-02
  weight for this iteration     100.00

 eigenvalues of (default mixing * dielectric matrix)
  average eigenvalue GAMMA=  11.2764
 49.9305 20.7427 16.2506 10.0068 10.8840  1.0573  0.9410  0.9410  1.0053  1.0053

 Free energy of the ion-electron system (eV)
  ---------------------------------------------------
  alpha Z        PSCENC =         4.83781458
  Ewald energy   TEWEN  =      1202.61712670
  -Hartree energ DENC   =     -5934.42111466
  -exchange      EXHF   =         0.00000000
  -V(xc)+E(xc)   XCENC  =        15.21182725
  PAW double counting   =      4717.54097538    -4657.46338089
  entropy T*S    EENTRO =        -0.00000000
  eigenvalues    EBANDS =      -521.69909146
  atomic energy  EATOM  =      5172.70447966
  Solvation  Ediel_sol  =         0.00000000
  ---------------------------------------------------
  free energy    TOTEN  =        -0.67136343 eV

  energy without entropy =       -0.67136343  energy(sigma->0) =       -0.67136343


--------------------------------------------------------------------------------------------------------




--------------------------------------- Iteration      1(  19)  ---------------------------------------


    POTLOK:  cpu time    2.4686: real time    2.4764
    SETDIJ:  cpu time    2.4116: real time    2.4162
     EDDAV:  cpu time    4.6033: real time    4.6181
       DOS:  cpu time    0.0000: real time    0.0003
    CHARGE:  cpu time    1.7067: real time    1.7114
    MIXING:  cpu time    0.1370: real time    0.1373
    --------------------------------------------
      LOOP:  cpu time   11.3273: real time   11.3596

 eigenvalue-minimisations  :   180
 total energy-change (2. order) : 0.9308537E-05  (-0.8324330E-05)
 number of electron      48.0000002 magnetization       0.0012598
 augmentation part       24.3242769 magnetization       0.0012103

 Broyden mixing:
  rms(total) = 0.11714E-02    rms(broyden)= 0.11709E-02
  rms(prec ) = 0.12599E-02
  weight for this iteration     100.00

 eigenvalues of (default mixing * dielectric matrix)
  average eigenvalue GAMMA=  10.7797
 50.2423 19.7574 18.2920 10.7992  9.9942  4.5404  0.9217  0.9860  0.9860  1.0287
  1.0287

 Free energy of the ion-electron system (eV)
  ---------------------------------------------------
  alpha Z        PSCENC =         4.83781458
  Ewald energy   TEWEN  =      1202.61712670
  -Hartree energ DENC   =     -5934.66523099
  -exchange      EXHF   =         0.00000000
  -V(xc)+E(xc)   XCENC  =        15.21714897
  PAW double counting   =      4717.70540846    -4657.62428437
  entropy T*S    EENTRO =        -0.00000000
  eigenvalues    EBANDS =      -521.46381713
  atomic energy  EATOM  =      5172.70447966
  Solvation  Ediel_sol  =         0.00000000
  ---------------------------------------------------
  free energy    TOTEN  =        -0.67135413 eV

  energy without entropy =       -0.67135413  energy(sigma->0) =       -0.67135413


--------------------------------------------------------------------------------------------------------




--------------------------------------- Iteration      1(  20)  ---------------------------------------


    POTLOK:  cpu time    2.4676: real time    2.4983
    SETDIJ:  cpu time    2.4136: real time    2.4201
     EDDAV:  cpu time    2.6906: real time    2.7125
       DOS:  cpu time    0.0000: real time    0.0001
    --------------------------------------------
      LOOP:  cpu time    7.5718: real time    7.6309

 eigenvalue-minimisations  :    88
 total energy-change (2. order) :-0.4350868E-06  (-0.2619654E-06)
 number of electron      48.0000002 magnetization       0.0012598
 augmentation part       24.3242769 magnetization       0.0012103

 Free energy of the ion-electron system (eV)
  ---------------------------------------------------
  alpha Z        PSCENC =         4.83781458
  Ewald energy   TEWEN  =      1202.61712670
  -Hartree energ DENC   =     -5934.65112655
  -exchange      EXHF   =         0.00000000
  -V(xc)+E(xc)   XCENC  =        15.21681687
  PAW double counting   =      4717.73454096    -4657.65451699
  entropy T*S    EENTRO =        -0.00000000
  eigenvalues    EBANDS =      -521.47648978
  atomic energy  EATOM  =      5172.70447966
  Solvation  Ediel_sol  =         0.00000000
  ---------------------------------------------------
  free energy    TOTEN  =        -0.67135456 eV

  energy without entropy =       -0.67135456  energy(sigma->0) =       -0.67135456


--------------------------------------------------------------------------------------------------------




 average (electrostatic) potential at core
  the test charge radii are     1.1405
  (the norm of the test charge is              1.0000)
       1 -75.9184       2 -75.9164       3 -75.9224       4 -75.9227
 
 
 
 E-fermi :  -4.9686     XC(G=0):  -0.5413     alpha+bet : -0.1736


 spin component 1

 k-point     1 :       0.0000    0.0000    0.0000
  band No.  band energies     occupation 
      1     -12.2770      1.00000
      2     -12.1381      1.00000
      3     -12.1090      1.00000
      4     -12.0790      1.00000
      5     -12.0626      1.00000
      6     -12.0271      1.00000
      7     -11.9162      1.00000
      8     -11.9097      1.00000
      9     -11.8826      1.00000
     10     -11.7868      1.00000
     11     -11.7678      1.00000
     12     -11.7570      1.00000
     13     -11.7555      1.00000
     14     -11.7437      1.00000
     15     -11.7331      1.00000
     16     -11.7294      1.00000
     17     -11.7051      1.00000
     18     -11.6332      1.00000
     19     -11.5989      1.00000
     20     -11.5739      1.00000
     21      -8.0630      1.00000
     22      -5.2947      1.00000
     23      -5.1900      1.00000
     24      -5.0055      1.00000
     25      -2.2194      0.00000
     26      -1.8328      0.00000
     27      -1.7806      0.00000
     28      -1.6863      0.00000
     29      -1.4337      0.00000
     30      -1.2418      0.00000

 spin component 2

 k-point     1 :       0.0000    0.0000    0.0000
  band No.  band energies     occupation 
      1     -12.2770      1.00000
      2     -12.1381      1.00000
      3     -12.1090      1.00000
      4     -12.0790      1.00000
      5     -12.0626      1.00000
      6     -12.0271      1.00000
      7     -11.9162      1.00000
      8     -11.9097      1.00000
      9     -11.8826      1.00000
     10     -11.7868      1.00000
     11     -11.7678      1.00000
     12     -11.7570      1.00000
     13     -11.7556      1.00000
     14     -11.7438      1.00000
     15     -11.7331      1.00000
     16     -11.7294      1.00000
     17     -11.7051      1.00000
     18     -11.6333      1.00000
     19     -11.5989      1.00000
     20     -11.5740      1.00000
     21      -8.0626      1.00000
     22      -5.2943      1.00000
     23      -5.1895      1.00000
     24      -5.0051      1.00000
     25      -2.2189      0.00000
     26      -1.8323      0.00000
     27      -1.7801      0.00000
     28      -1.6858      0.00000
     29      -1.4332      0.00000
     30      -1.2413      0.00000


--------------------------------------------------------------------------------------------------------


 soft charge-density along one line, spin component           1
         0         1         2         3         4         5         6         7         8         9
 total charge-density along one line
 
 soft charge-density along one line, spin component           2
         0         1         2         3         4         5         6         7         8         9
 total charge-density along one line
 
 pseudopotential strength for first ion, spin component:           1
-16.192   0.003  -0.001  -0.001   0.000 -15.792   0.003  -0.001
  0.003 -16.193  -0.001   0.001   0.001   0.003 -15.793  -0.001
 -0.001  -0.001 -16.195   0.002   0.002  -0.001  -0.001 -15.795
 -0.001   0.001   0.002 -16.196   0.003  -0.001   0.001   0.002
  0.000   0.001   0.002   0.003 -16.191   0.000   0.001   0.002
-15.792   0.003  -0.001  -0.001   0.000 -15.380   0.003  -0.001
  0.003 -15.793  -0.001   0.001   0.001   0.003 -15.382  -0.001
 -0.001  -0.001 -15.795   0.002   0.002  -0.001  -0.001 -15.384
 -0.001   0.001   0.002 -15.796   0.003  -0.001   0.001   0.002
  0.000   0.001   0.002   0.003 -15.792   0.000   0.001   0.002
 -0.000   0.000   0.001  -0.001   0.001  -0.000   0.000   0.001
 -0.000  -0.000  -0.000   0.000  -0.000  -0.000  -0.000  -0.000
 -0.002   0.002  -0.000   0.000  -0.000  -0.002   0.002  -0.000
  0.000   0.000   0.002  -0.001  -0.000   0.000   0.000   0.002
  0.000   0.000   0.001   0.002  -0.002   0.000   0.000   0.001
  0.001  -0.001   0.000   0.000   0.000   0.001  -0.001   0.000
  0.000  -0.000  -0.002   0.001  -0.000   0.000  -0.000  -0.002
 -0.000   0.000  -0.001  -0.002   0.001  -0.000   0.000  -0.001
  0.004   0.000   0.000  -0.001  -0.001   0.004   0.000   0.000
 -0.004   0.003   0.000  -0.001  -0.000  -0.004   0.003   0.000
 -0.002  -0.005  -0.000  -0.000  -0.000  -0.002  -0.005  -0.000
  0.001   0.000  -0.005  -0.003  -0.001   0.001   0.000  -0.005
  0.000  -0.000   0.003  -0.005  -0.001   0.000  -0.000   0.003
 -0.000   0.000  -0.000   0.002  -0.004  -0.000   0.000  -0.000
  0.001   0.001   0.000   0.000   0.004   0.001   0.001   0.000
 -0.007  -0.001  -0.000   0.001   0.001  -0.007  -0.001  -0.000
  0.007  -0.005  -0.000   0.001   0.000   0.006  -0.005  -0.000
  0.003   0.009   0.001   0.001   0.000   0.003   0.008   0.001
 -0.001  -0.001   0.009   0.004   0.001  -0.001  -0.001   0.008
 -0.000   0.001  -0.005   0.008   0.002  -0.000   0.001  -0.005
  0.000  -0.000   0.000  -0.004   0.007   0.000  -0.000   0.000
 -0.001  -0.001  -0.000  -0.001  -0.007  -0.001  -0.001  -0.000
 pseudopotential strength for first ion, spin component:           2
-16.192   0.003  -0.001  -0.001   0.000 -15.792   0.003  -0.001
  0.003 -16.193  -0.001   0.001   0.001   0.003 -15.793  -0.001
 -0.001  -0.001 -16.195   0.002   0.002  -0.001  -0.001 -15.795
 -0.001   0.001   0.002 -16.196   0.003  -0.001   0.001   0.002
  0.000   0.001   0.002   0.003 -16.192   0.000   0.001   0.002
-15.792   0.003  -0.001  -0.001   0.000 -15.380   0.003  -0.001
  0.003 -15.793  -0.001   0.001   0.001   0.003 -15.382  -0.001
 -0.001  -0.001 -15.795   0.002   0.002  -0.001  -0.001 -15.384
 -0.001   0.001   0.002 -15.796   0.003  -0.001   0.001   0.002
  0.000   0.001   0.002   0.003 -15.792   0.000   0.001   0.002
 -0.000   0.000   0.001  -0.001   0.001  -0.000   0.000   0.001
 -0.000  -0.000  -0.000   0.000  -0.000  -0.000  -0.000  -0.000
 -0.002   0.002  -0.000   0.000  -0.000  -0.002   0.002  -0.000
  0.000   0.000   0.002  -0.001  -0.000   0.000   0.000   0.002
  0.000   0.000   0.001   0.002  -0.002   0.000   0.000   0.001
  0.001  -0.001   0.000   0.000   0.000   0.001  -0.001   0.000
  0.000  -0.000  -0.002   0.001  -0.000   0.000  -0.000  -0.002
 -0.000   0.000  -0.001  -0.002   0.001  -0.000   0.000  -0.001
  0.004   0.000   0.000  -0.001  -0.001   0.004   0.000   0.000
 -0.004   0.003   0.000  -0.001  -0.000  -0.004   0.003   0.000
 -0.002  -0.005  -0.000  -0.000  -0.000  -0.002  -0.005  -0.000
  0.001   0.000  -0.005  -0.003  -0.001   0.001   0.000  -0.005
  0.000  -0.000   0.003  -0.005  -0.001   0.000  -0.000   0.003
 -0.000   0.000  -0.000   0.002  -0.004  -0.000   0.000  -0.000
  0.001   0.001   0.000   0.000   0.004   0.001   0.001   0.000
 -0.007  -0.001  -0.000   0.001   0.001  -0.007  -0.001  -0.000
  0.007  -0.005  -0.000   0.001   0.000   0.006  -0.005  -0.000
  0.003   0.009   0.001   0.001   0.000   0.003   0.008   0.001
 -0.001  -0.001   0.009   0.004   0.001  -0.001  -0.001   0.008
 -0.000   0.001  -0.005   0.008   0.002  -0.000   0.001  -0.005
  0.000  -0.000   0.000  -0.004   0.007   0.000  -0.000   0.000
 -0.001  -0.001  -0.000  -0.001  -0.007  -0.001  -0.001  -0.000
 total augmentation occupancy for first ion, spin component:           1
  2.248  -0.111   0.099  -0.026  -0.039  -0.222   0.118  -0.102   0.023   0.040   0.015   0.001  -0.072   0.020   0.032  -0.002
 -0.111   2.272   0.067   0.074  -0.046   0.118  -0.249  -0.070  -0.071   0.048  -0.018  -0.001   0.083   0.028   0.022   0.002
  0.099   0.067   2.312  -0.010  -0.080  -0.102  -0.070  -0.296   0.015   0.084  -0.040  -0.002  -0.005   0.088   0.046  -0.000
 -0.026   0.074  -0.010   2.225  -0.075   0.023  -0.071   0.015  -0.213   0.083   0.063   0.004   0.026  -0.046   0.068   0.000
 -0.039  -0.046  -0.080  -0.075   2.153   0.040   0.048   0.084   0.083  -0.125  -0.033  -0.002  -0.005  -0.006  -0.055  -0.000
 -0.222   0.118  -0.102   0.023   0.040   0.191  -0.125   0.105  -0.021  -0.041  -0.014  -0.001   0.071  -0.019  -0.032   0.002
  0.118  -0.249  -0.070  -0.071   0.048  -0.125   0.223   0.073   0.068  -0.050   0.017   0.002  -0.081  -0.028  -0.021  -0.003
 -0.102  -0.070  -0.296   0.015   0.084   0.105   0.073   0.275  -0.020  -0.088   0.038   0.002   0.005  -0.087  -0.045   0.000
  0.023  -0.071   0.015  -0.213   0.083  -0.021   0.068  -0.020   0.196  -0.091  -0.058  -0.004  -0.025   0.047  -0.067  -0.000
  0.040   0.048   0.084   0.083  -0.125  -0.041  -0.050  -0.088  -0.091   0.093   0.031   0.002   0.005   0.006   0.055   0.000
  0.015  -0.018  -0.040   0.063  -0.033  -0.014   0.017   0.038  -0.058   0.031   1.859   0.001  -0.002  -0.015   0.011  -0.001
  0.001  -0.001  -0.002   0.004  -0.002  -0.001   0.002   0.002  -0.004   0.002   0.001   0.000  -0.001  -0.002   0.002  -0.000
 -0.072   0.083  -0.005   0.026  -0.005   0.071  -0.081   0.005  -0.025   0.005  -0.002  -0.001   0.036   0.002  -0.001   0.001
  0.020   0.028   0.088  -0.046  -0.006  -0.019  -0.028  -0.087   0.047   0.006  -0.015  -0.002   0.002   0.041  -0.004   0.000
  0.032   0.022   0.046   0.068  -0.055  -0.032  -0.021  -0.045  -0.067   0.055   0.011   0.002  -0.001  -0.004   0.038  -0.000
 -0.002   0.002  -0.000   0.000  -0.000   0.002  -0.003   0.000  -0.000   0.000  -0.001  -0.000   0.001   0.000  -0.000   0.000
  0.000   0.001   0.003  -0.002   0.000  -0.000  -0.001  -0.003   0.002  -0.000  -0.003  -0.000   0.000   0.002  -0.000   0.000
  0.001   0.000   0.001   0.003  -0.002  -0.001  -0.000  -0.001  -0.003   0.002   0.002   0.000  -0.000  -0.000   0.001  -0.000
 -0.008   0.005  -0.007  -0.000   0.003   0.011  -0.005   0.008   0.000  -0.004  -0.003  -0.000   0.003  -0.001  -0.003   0.000
  0.008  -0.008   0.004  -0.005   0.000  -0.011   0.010  -0.004   0.004  -0.000  -0.005   0.000  -0.005   0.001   0.000  -0.000
 -0.003   0.009   0.009   0.004  -0.005   0.002  -0.013  -0.011  -0.004   0.006  -0.002  -0.000   0.003   0.003   0.003   0.000
  0.003   0.006   0.009   0.002  -0.006  -0.003  -0.006  -0.013  -0.004   0.006  -0.001  -0.000   0.001   0.003   0.003   0.000
 -0.008   0.004  -0.007   0.004  -0.000   0.008  -0.004   0.010  -0.008  -0.001  -0.001   0.000   0.003  -0.004   0.000   0.000
  0.001  -0.006  -0.004  -0.006   0.003  -0.000   0.006   0.004   0.008  -0.006   0.001  -0.000  -0.002   0.000  -0.003  -0.000
  0.001   0.002   0.001   0.001   0.000   0.000  -0.001  -0.001  -0.002   0.002  -0.001   0.000   0.000   0.000   0.001   0.000
 -0.003   0.002  -0.003  -0.000   0.001   0.005  -0.002   0.003   0.000  -0.002  -0.001  -0.000   0.001  -0.001  -0.001   0.000
  0.003  -0.003   0.002  -0.002   0.000  -0.005   0.004  -0.002   0.002  -0.000  -0.002   0.000  -0.002   0.000   0.000  -0.000
 -0.001   0.003   0.004   0.002  -0.002   0.001  -0.005  -0.005  -0.002   0.002  -0.001  -0.000   0.001   0.001   0.001   0.000
  0.002   0.003   0.003   0.001  -0.002  -0.001  -0.002  -0.005  -0.002   0.003  -0.000  -0.000   0.000   0.001   0.001   0.000
 -0.003   0.002  -0.003   0.001  -0.000   0.003  -0.002   0.004  -0.003  -0.000  -0.001   0.000   0.001  -0.002   0.000   0.000
  0.000  -0.002  -0.002  -0.002   0.001  -0.000   0.003   0.002   0.003  -0.003   0.000  -0.000  -0.001   0.000  -0.001  -0.000
  0.000   0.001   0.001   0.001   0.001   0.000  -0.001  -0.001  -0.001   0.001  -0.000   0.000   0.000   0.000   0.000   0.000
 total augmentation occupancy for first ion, spin component:           2
 -0.000  -0.000   0.000  -0.000   0.000   0.000   0.000  -0.000   0.000  -0.000  -0.000  -0.000  -0.000   0.000  -0.000  -0.000
 -0.000  -0.000   0.000   0.000  -0.000   0.000   0.000   0.000  -0.000   0.000   0.000   0.000   0.000  -0.000   0.000   0.000
  0.000   0.000  -0.000   0.000  -0.000  -0.000   0.000   0.000  -0.000   0.000   0.000   0.000  -0.000   0.000   0.000  -0.000
 -0.000   0.000   0.000  -0.000   0.000   0.000  -0.000  -0.000   0.000  -0.000  -0.000  -0.000   0.000   0.000  -0.000   0.000
  0.000  -0.000  -0.000   0.000  -0.000  -0.000   0.000   0.000  -0.000   0.000   0.000  -0.000  -0.000  -0.000  -0.000  -0.000
  0.000   0.000  -0.000   0.000  -0.000  -0.000   0.000   0.000  -0.000   0.000   0.000   0.000  -0.000  -0.000   0.000  -0.000
  0.000   0.000   0.000  -0.000   0.000   0.000  -0.000  -0.000   0.000  -0.000  -0.000  -0.000   0.000   0.000  -0.000   0.000
 -0.000   0.000   0.000  -0.000   0.000   0.000  -0.000  -0.000   0.000  -0.000  -0.000   0.000   0.000   0.000  -0.000   0.000
  0.000  -0.000  -0.000   0.000  -0.000  -0.000   0.000   0.000  -0.000   0.000   0.000  -0.000  -0.000  -0.000   0.000  -0.000
 -0.000   0.000   0.000  -0.000   0.000   0.000  -0.000  -0.000   0.000  -0.000  -0.000   0.000   0.000   0.000  -0.000   0.000
 -0.000   0.000   0.000  -0.000   0.000   0.000  -0.000  -0.000   0.000  -0.000  -0.000   0.000   0.000   0.000  -0.000   0.000
 -0.000   0.000   0.000  -0.000  -0.000   0.000  -0.000   0.000  -0.000   0.000   0.000   0.000  -0.000  -0.000   0.000  -0.000
 -0.000   0.000  -0.000   0.000  -0.000  -0.000   0.000   0.000  -0.000   0.000   0.000  -0.000   0.000  -0.000   0.000   0.000
  0.000  -0.000   0.000   0.000  -0.000  -0.000   0.000   0.000  -0.000   0.000   0.000  -0.000  -0.000  -0.000   0.000  -0.000
 -0.000   0.000   0.000  -0.000  -0.000   0.000  -0.000  -0.000   0.000  -0.000  -0.000   0.000   0.000   0.000   0.000   0.000
 -0.000   0.000  -0.000   0.000  -0.000  -0.000   0.000   0.000  -0.000   0.000   0.000  -0.000   0.000  -0.000   0.000  -0.000
 -0.000   0.000   0.000  -0.000  -0.000  -0.000   0.000   0.000  -0.000   0.000   0.000  -0.000  -0.000  -0.000   0.000  -0.000
  0.000   0.000   0.000   0.000  -0.000   0.000  -0.000  -0.000   0.000  -0.000  -0.000   0.000   0.000   0.000  -0.000   0.000
 -0.000  -0.000   0.000   0.000   0.000  -0.000   0.000  -0.000  -0.000   0.000   0.000  -0.000  -0.000   0.000   0.000  -0.000
  0.000  -0.000  -0.000   0.000   0.000   0.000  -0.000   0.000  -0.000  -0.000   0.000  -0.000   0.000   0.000  -0.000   0.000
  0.000   0.000  -0.000   0.000   0.000  -0.000   0.000   0.000  -0.000  -0.000  -0.000  -0.000  -0.000  -0.000  -0.000  -0.000
 -0.000  -0.000   0.000   0.000   0.000   0.000   0.000   0.000   0.000  -0.000   0.000  -0.000  -0.000  -0.000  -0.000  -0.000
  0.000  -0.000  -0.000   0.000   0.000  -0.000   0.000  -0.000   0.000   0.000   0.000   0.000  -0.000   0.000   0.000  -0.000
  0.000  -0.000   0.000  -0.000   0.000   0.000  -0.000  -0.000  -0.000   0.000  -0.000  -0.000   0.000   0.000   0.000   0.000
 -0.000  -0.000  -0.000  -0.000  -0.000   0.000   0.000   0.000   0.000   0.000   0.000  -0.000  -0.000  -0.000  -0.000  -0.000
 -0.000  -0.000   0.000   0.000   0.000  -0.000   0.000  -0.000  -0.000   0.000   0.000  -0.000  -0.000   0.000   0.000  -0.000
  0.000  -0.000  -0.000   0.000   0.000   0.000  -0.000   0.000   0.000  -0.000   0.000  -0.000   0.000   0.000  -0.000   0.000
  0.000   0.000   0.000   0.000   0.000  -0.000   0.000   0.000   0.000  -0.000  -0.000  -0.000  -0.000  -0.000  -0.000  -0.000
 -0.000  -0.000   0.000   0.000   0.000   0.000   0.000   0.000   0.000  -0.000  -0.000  -0.000  -0.000  -0.000  -0.000  -0.000
  0.000  -0.000  -0.000   0.000   0.000  -0.000   0.000  -0.000   0.000   0.000   0.000   0.000  -0.000   0.000   0.000  -0.000
  0.000  -0.000   0.000  -0.000   0.000   0.000  -0.000  -0.000  -0.000   0.000  -0.000  -0.000   0.000   0.000   0.000   0.000
 -0.000  -0.000  -0.000  -0.000  -0.000  -0.000   0.000   0.000   0.000  -0.000   0.000  -0.000  -0.000  -0.000  -0.000  -0.000


------------------------ aborting loop because EDIFF is reached ----------------------------------------


 


 total charge     
 
# of ion       s       p       d       f       tot
--------------------------------------------------
    1        0.850   0.073   9.641   0.001  10.566
    2        0.849   0.085   9.640   0.002  10.575
    3        0.851   0.074   9.641   0.001  10.568
    4        0.852   0.068   9.642   0.001  10.563
--------------------------------------------------
tot          3.402   0.300  38.564   0.006  42.271

 


 magnetization (x)
 
# of ion       s       p       d       f       tot
--------------------------------------------------
    1       -0.000   0.000  -0.000  -0.000  -0.000
    2       -0.000   0.000  -0.000  -0.000  -0.000
    3       -0.000   0.000  -0.000  -0.000  -0.000
    4       -0.000   0.000  -0.000  -0.000  -0.000
--------------------------------------------------
tot         -0.000   0.000  -0.000  -0.000  -0.000

 
    CHARGE:  cpu time    1.6418: real time    1.7069
    FORLOC:  cpu time    0.0310: real time    0.0315
    FORNL :  cpu time    9.0566: real time    9.0881
    FORCOR:  cpu time    4.6973: real time    4.7116
    FORHAR:  cpu time    0.2980: real time    0.2993
    MIXING:  cpu time    0.1470: real time    0.1477
    OFIELD:  cpu time    0.0000: real time    0.0000

 VOLUME and BASIS-vectors are now :
 -----------------------------------------------------------------------------
  energy-cutoff  :      500.00
  volume of cell :     4913.00
      direct lattice vectors                 reciprocal lattice vectors
    17.000000000  0.000000000  0.000000000     0.058823529  0.000000000  0.000000000
     0.000000000 17.000000000  0.000000000     0.000000000  0.058823529  0.000000000
     0.000000000  0.000000000 17.000000000     0.000000000  0.000000000  0.058823529

  length of vectors
    17.000000000 17.000000000 17.000000000     0.058823529  0.058823529  0.058823529


 FORCES acting on ions
    electron-ion (+dipol)            ewald-force                    non-local-force                 convergence-correction
 -----------------------------------------------------------------------------------------------
   0.301E+03 -.103E+03 -.371E+03   -.301E+03 0.103E+03 0.371E+03   0.516E-01 -.832E-01 -.569E-01   0.140E-01 -.454E-02 -.175E-01
   -.196E+03 -.416E+03 0.193E+03   0.196E+03 0.416E+03 -.193E+03   -.561E-01 -.223E+00 0.349E-01   -.997E-02 -.231E-01 0.892E-02
   0.252E+03 0.238E+03 0.346E+03   -.252E+03 -.239E+03 -.346E+03   0.884E-02 0.113E+00 0.558E-01   0.112E-01 0.142E-01 0.151E-01
   -.357E+03 0.280E+03 -.168E+03   0.357E+03 -.280E+03 0.168E+03   -.991E-02 0.761E-01 0.398E-01   -.141E-01 0.143E-01 -.661E-02
 -----------------------------------------------------------------------------------------------
   0.389E-02 0.114E+00 -.730E-01   0.000E+00 0.000E+00 -.284E-13   -.560E-02 -.116E+00 0.736E-01   0.111E-02 0.897E-03 -.111E-03
 
 
 POSITION                                       TOTAL-FORCE (eV/Angst)
 -----------------------------------------------------------------------------------
     15.94989      0.25240      1.45202         0.020714      0.011347     -0.009062
      0.89413      1.38802     16.21189         0.037938      0.119209      0.020740
     16.12439     15.97203     15.55858         0.016307     -0.101297      0.032784
      1.66824     15.74522      0.69212        -0.074959     -0.029259     -0.044462
 -----------------------------------------------------------------------------------
    total drift:                               -0.000594     -0.001225      0.000462


--------------------------------------------------------------------------------------------------------



  FREE ENERGIE OF THE ION-ELECTRON SYSTEM (eV)
  ---------------------------------------------------
  free  energy   TOTEN  =        -0.67135456 eV

  energy  without entropy=       -0.67135456  energy(sigma->0) =       -0.67135456
 


--------------------------------------------------------------------------------------------------------


    POTLOK:  cpu time    4.8833: real time    4.8977


--------------------------------------------------------------------------------------------------------




--------------------------------------------------------------------------------------------------------


    WAVPRE:  cpu time    0.1560: real time    0.1802
    FEWALD:  cpu time    0.0050: real time    0.0046

 real space projection operators:
  total allocation   :       2567.25 KBytes
  max/ min on nodes  :        648.50        633.25

    ORTHCH:  cpu time    0.3999: real time    0.4015
     LOOP+:  cpu time  190.2691: real time  192.9958


--------------------------------------- Iteration      2(   1)  ---------------------------------------


    POTLOK:  cpu time    2.4546: real time    2.4795
    SETDIJ:  cpu time    2.4016: real time    2.4081
     EDDAV:  cpu time    4.6053: real time    4.6260
       DOS:  cpu time    0.0010: real time    0.0004
    CHARGE:  cpu time    1.6647: real time    1.7106
    MIXING:  cpu time    0.0550: real time    0.0557
    --------------------------------------------
      LOOP:  cpu time   11.1823: real time   11.2802

 eigenvalue-minimisations  :   180
 total energy-change (2. order) :-0.1515680E-02  (-0.1111406E+00)
 number of electron      48.0000003 magnetization       0.0011533
 augmentation part       24.3249755 magnetization       0.0011782

  free energy =  -0.672869806250E+00  energy without entropy=  -0.672869806250E+00


--------------------------------------------------------------------------------------------------------




--------------------------------------- Iteration      2(   2)  ---------------------------------------


    POTLOK:  cpu time    2.4576: real time    2.4691
    SETDIJ:  cpu time    2.4346: real time    2.4412
     EDDAV:  cpu time    3.6934: real time    3.7050
       DOS:  cpu time    0.0000: real time    0.0002
    CHARGE:  cpu time    1.7007: real time    1.7052
    MIXING:  cpu time    0.0650: real time    0.0658
    --------------------------------------------
      LOOP:  cpu time   10.3514: real time   10.3864

 eigenvalue-minimisations  :   136
 total energy-change (2. order) :-0.1993096E-03  (-0.2015287E-03)
 number of electron      48.0000003 magnetization       0.0010834
 augmentation part       24.3245399 magnetization       0.0011054

 eigenvalues of (default mixing * dielectric matrix)
  average eigenvalue GAMMA=   0.6524
  0.6524

  free energy =  -0.673069115832E+00  energy without entropy=  -0.673069115832E+00


--------------------------------------------------------------------------------------------------------




--------------------------------------- Iteration      2(   3)  ---------------------------------------


    POTLOK:  cpu time    2.4646: real time    2.4704
    SETDIJ:  cpu time    2.4336: real time    2.4404
     EDDAV:  cpu time    4.8563: real time    4.8708
       DOS:  cpu time    0.0000: real time    0.0003
    CHARGE:  cpu time    1.7047: real time    1.7094
    MIXING:  cpu time    0.0670: real time    0.0679
    --------------------------------------------
      LOOP:  cpu time   11.5262: real time   11.5592

 eigenvalue-minimisations  :   192
 total energy-change (2. order) :-0.2069657E-05  (-0.4489909E-05)
 number of electron      48.0000003 magnetization       0.0006107
 augmentation part       24.3245787 magnetization       0.0006317

 eigenvalues of (default mixing * dielectric matrix)
  average eigenvalue GAMMA=   3.3756
  1.0965  5.6548

  free energy =  -0.673071185489E+00  energy without entropy=  -0.673071185489E+00


--------------------------------------------------------------------------------------------------------




--------------------------------------- Iteration      2(   4)  ---------------------------------------


    POTLOK:  cpu time    2.4656: real time    3.1003
    SETDIJ:  cpu time    2.4286: real time    2.4375
     EDDAV:  cpu time    2.3556: real time    2.3832
       DOS:  cpu time    0.0010: real time    0.0003
    CHARGE:  cpu time    1.6927: real time    1.7098
    MIXING:  cpu time    0.0720: real time    0.0739
    --------------------------------------------
      LOOP:  cpu time    9.0156: real time    9.7050

 eigenvalue-minimisations  :    72
 total energy-change (2. order) : 0.2021224E-05  (-0.7984409E-07)
 number of electron      48.0000003 magnetization      -0.0006479
 augmentation part       24.3245705 magnetization      -0.0006293

 eigenvalues of (default mixing * dielectric matrix)
  average eigenvalue GAMMA=   4.4737
 11.4454  1.1935  0.7822

  free energy =  -0.673069164265E+00  energy without entropy=  -0.673069164265E+00


--------------------------------------------------------------------------------------------------------




--------------------------------------- Iteration      2(   5)  ---------------------------------------


    POTLOK:  cpu time    2.4666: real time    2.4721
    SETDIJ:  cpu time    2.4336: real time    2.4407
     EDDAV:  cpu time    2.7026: real time    2.7115
       DOS:  cpu time    0.0000: real time    0.0003
    CHARGE:  cpu time    1.7017: real time    1.7075
    MIXING:  cpu time    0.0780: real time    0.0786
    --------------------------------------------
      LOOP:  cpu time    9.3826: real time    9.4107

 eigenvalue-minimisations  :    88
 total energy-change (2. order) :-0.9986115E-06  (-0.4207703E-06)
 number of electron      48.0000003 magnetization      -0.0004213
 augmentation part       24.3245276 magnetization      -0.0004207

 eigenvalues of (default mixing * dielectric matrix)
  average eigenvalue GAMMA=   5.3391
 12.3162  7.0254  1.0074  1.0074

  free energy =  -0.673070162877E+00  energy without entropy=  -0.673070162877E+00


--------------------------------------------------------------------------------------------------------




--------------------------------------- Iteration      2(   6)  ---------------------------------------


    POTLOK:  cpu time    2.4636: real time    2.4697
    SETDIJ:  cpu time    2.4336: real time    2.4398
     EDDAV:  cpu time    2.1237: real time    2.1316
       DOS:  cpu time    0.0000: real time    0.0001
    --------------------------------------------
      LOOP:  cpu time    7.0209: real time    7.0413

 eigenvalue-minimisations  :    60
 total energy-change (2. order) :-0.8035931E-07  (-0.8619505E-07)
 number of electron      48.0000003 magnetization      -0.0004213
 augmentation part       24.3245276 magnetization      -0.0004207

  free energy =  -0.673070243236E+00  energy without entropy=  -0.673070243236E+00


--------------------------------------------------------------------------------------------------------




 average (electrostatic) potential at core
  the test charge radii are     1.1405
  (the norm of the test charge is              1.0000)
       1 -75.9167       2 -75.9152       3 -75.9204       4 -75.9207
 
 
 
 E-fermi :  -4.9705     XC(G=0):  -0.5413     alpha+bet : -0.1736


 spin component 1

 k-point     1 :       0.0000    0.0000    0.0000
  band No.  band energies     occupation 
      1     -12.2737      1.00000
      2     -12.1322      1.00000
      3     -12.1048      1.00000
      4     -12.0769      1.00000
      5     -12.0624      1.00000
      6     -12.0261      1.00000
      7     -11.9139      1.00000
      8     -11.9075      1.00000
      9     -11.8818      1.00000
     10     -11.7841      1.00000
     11     -11.7658      1.00000
     12     -11.7548      1.00000
     13     -11.7541      1.00000
     14     -11.7426      1.00000
     15     -11.7326      1.00000
     16     -11.7284      1.00000
     17     -11.7052      1.00000
     18     -11.6305      1.00000
     19     -11.5980      1.00000
     20     -11.5751      1.00000
     21      -8.0599      1.00000
     22      -5.2878      1.00000
     23      -5.1873      1.00000
     24      -5.0132      1.00000
     25      -2.2176      0.00000
     26      -1.8280      0.00000
     27      -1.7800      0.00000
     28      -1.6907      0.00000
     29      -1.4293      0.00000
     30      -1.2459      0.00000

 spin component 2

 k-point     1 :       0.0000    0.0000    0.0000
  band No.  band energies     occupation 
      1     -12.2737      1.00000
      2     -12.1322      1.00000
      3     -12.1048      1.00000
      4     -12.0769      1.00000
      5     -12.0623      1.00000
      6     -12.0261      1.00000
      7     -11.9139      1.00000
      8     -11.9074      1.00000
      9     -11.8818      1.00000
     10     -11.7841      1.00000
     11     -11.7658      1.00000
     12     -11.7547      1.00000
     13     -11.7540      1.00000
     14     -11.7426      1.00000
     15     -11.7326      1.00000
     16     -11.7284      1.00000
     17     -11.7052      1.00000
     18     -11.6305      1.00000
     19     -11.5980      1.00000
     20     -11.5751      1.00000
     21      -8.0598      1.00000
     22      -5.2878      1.00000
     23      -5.1873      1.00000
     24      -5.0131      1.00000
     25      -2.2176      0.00000
     26      -1.8280      0.00000
     27      -1.7799      0.00000
     28      -1.6906      0.00000
     29      -1.4292      0.00000
     30      -1.2459      0.00000


--------------------------------------------------------------------------------------------------------


 soft charge-density along one line, spin component           1
         0         1         2         3         4         5         6         7         8         9
 total charge-density along one line
 
 soft charge-density along one line, spin component           2
         0         1         2         3         4         5         6         7         8         9
 total charge-density along one line
 
 pseudopotential strength for first ion, spin component:           1
-16.191   0.003  -0.001  -0.001   0.000 -15.791   0.003  -0.001
  0.003 -16.192  -0.001   0.001   0.001   0.003 -15.792  -0.001
 -0.001  -0.001 -16.194   0.002   0.002  -0.001  -0.001 -15.794
 -0.001   0.001   0.002 -16.195   0.003  -0.001   0.001   0.002
  0.000   0.001   0.002   0.003 -16.190   0.000   0.001   0.002
-15.791   0.003  -0.001  -0.001   0.000 -15.380   0.003  -0.001
  0.003 -15.792  -0.001   0.001   0.001   0.003 -15.381  -0.001
 -0.001  -0.001 -15.794   0.002   0.002  -0.001  -0.001 -15.383
 -0.001   0.001   0.002 -15.795   0.003  -0.001   0.001   0.002
  0.000   0.001   0.002   0.003 -15.791   0.000   0.001   0.002
 -0.000   0.000   0.001  -0.001   0.001  -0.000   0.000   0.001
 -0.000  -0.000  -0.000   0.000  -0.000  -0.000  -0.000  -0.000
 -0.002   0.002  -0.000   0.000  -0.000  -0.002   0.002  -0.000
  0.000   0.000   0.002  -0.001  -0.000   0.000   0.000   0.002
  0.000   0.000   0.001   0.002  -0.002   0.000   0.000   0.001
  0.001  -0.002   0.000   0.000   0.000   0.001  -0.001   0.000
  0.000  -0.000  -0.002   0.001  -0.000   0.000  -0.000  -0.002
 -0.000   0.000  -0.001  -0.002   0.001  -0.000   0.000  -0.001
  0.004   0.000   0.000  -0.001  -0.001   0.004   0.000   0.000
 -0.004   0.003   0.000  -0.001  -0.000  -0.004   0.003   0.000
 -0.002  -0.005  -0.000  -0.000  -0.000  -0.002  -0.005  -0.000
  0.001   0.000  -0.005  -0.003  -0.001   0.001   0.000  -0.005
  0.000  -0.000   0.003  -0.005  -0.001   0.000  -0.000   0.003
 -0.000   0.000  -0.000   0.002  -0.004  -0.000   0.000  -0.000
  0.001   0.001   0.000   0.000   0.004   0.001   0.001   0.000
 -0.007  -0.001  -0.000   0.001   0.001  -0.007  -0.001  -0.000
  0.007  -0.005  -0.000   0.001   0.000   0.006  -0.005  -0.000
  0.003   0.009   0.001   0.001   0.000   0.003   0.008   0.001
 -0.001  -0.001   0.009   0.004   0.001  -0.001  -0.001   0.008
 -0.000   0.001  -0.005   0.008   0.002  -0.000   0.001  -0.005
  0.000  -0.001   0.000  -0.004   0.007   0.000  -0.000   0.000
 -0.001  -0.001  -0.000  -0.001  -0.007  -0.001  -0.001  -0.000
 pseudopotential strength for first ion, spin component:           2
-16.191   0.003  -0.001  -0.001   0.000 -15.791   0.003  -0.001
  0.003 -16.192  -0.001   0.001   0.001   0.003 -15.792  -0.001
 -0.001  -0.001 -16.194   0.002   0.002  -0.001  -0.001 -15.794
 -0.001   0.001   0.002 -16.195   0.003  -0.001   0.001   0.002
  0.000   0.001   0.002   0.003 -16.190   0.000   0.001   0.002
-15.791   0.003  -0.001  -0.001   0.000 -15.380   0.003  -0.001
  0.003 -15.792  -0.001   0.001   0.001   0.003 -15.381  -0.001
 -0.001  -0.001 -15.794   0.002   0.002  -0.001  -0.001 -15.383
 -0.001   0.001   0.002 -15.795   0.003  -0.001   0.001   0.002
  0.000   0.001   0.002   0.003 -15.791   0.000   0.001   0.002
 -0.000   0.000   0.001  -0.001   0.001  -0.000   0.000   0.001
 -0.000  -0.000  -0.000   0.000  -0.000  -0.000  -0.000  -0.000
 -0.002   0.002  -0.000   0.000  -0.000  -0.002   0.002  -0.000
  0.000   0.000   0.002  -0.001  -0.000   0.000   0.000   0.002
  0.000   0.000   0.001   0.002  -0.002   0.000   0.000   0.001
  0.001  -0.002   0.000   0.000   0.000   0.001  -0.001   0.000
  0.000  -0.000  -0.002   0.001  -0.000   0.000  -0.000  -0.002
 -0.000   0.000  -0.001  -0.002   0.001  -0.000   0.000  -0.001
  0.004   0.000   0.000  -0.001  -0.001   0.004   0.000   0.000
 -0.004   0.003   0.000  -0.001  -0.000  -0.004   0.003   0.000
 -0.002  -0.005  -0.000  -0.000  -0.000  -0.002  -0.005  -0.000
  0.001   0.000  -0.005  -0.003  -0.001   0.001   0.000  -0.005
  0.000  -0.000   0.003  -0.005  -0.001   0.000  -0.000   0.003
 -0.000   0.000  -0.000   0.002  -0.004  -0.000   0.000  -0.000
  0.001   0.001   0.000   0.000   0.004   0.001   0.001   0.000
 -0.007  -0.001  -0.000   0.001   0.001  -0.007  -0.001  -0.000
  0.007  -0.005  -0.000   0.001   0.000   0.006  -0.005  -0.000
  0.003   0.009   0.001   0.001   0.000   0.003   0.008   0.001
 -0.001  -0.001   0.009   0.004   0.001  -0.001  -0.001   0.008
 -0.000   0.001  -0.005   0.008   0.002  -0.000   0.001  -0.005
  0.000  -0.001   0.000  -0.004   0.007   0.000  -0.000   0.000
 -0.001  -0.001  -0.000  -0.001  -0.007  -0.001  -0.001  -0.000
 total augmentation occupancy for first ion, spin component:           1
  2.249  -0.111   0.100  -0.026  -0.039  -0.223   0.118  -0.103   0.023   0.040   0.015   0.001  -0.073   0.020   0.033  -0.002
 -0.111   2.272   0.067   0.073  -0.047   0.118  -0.250  -0.070  -0.071   0.049  -0.018  -0.002   0.083   0.028   0.022   0.002
  0.100   0.067   2.312  -0.009  -0.081  -0.103  -0.070  -0.295   0.014   0.085  -0.039  -0.002  -0.006   0.088   0.047  -0.000
 -0.026   0.073  -0.009   2.225  -0.075   0.023  -0.071   0.014  -0.212   0.083   0.062   0.004   0.026  -0.046   0.068   0.000
 -0.039  -0.047  -0.081  -0.075   2.152   0.040   0.049   0.085   0.083  -0.125  -0.033  -0.002  -0.005  -0.006  -0.055  -0.000
 -0.223   0.118  -0.103   0.023   0.040   0.193  -0.125   0.106  -0.020  -0.041  -0.014  -0.001   0.071  -0.019  -0.032   0.002
  0.118  -0.250  -0.070  -0.071   0.049  -0.125   0.223   0.073   0.068  -0.051   0.017   0.002  -0.081  -0.028  -0.021  -0.003
 -0.103  -0.070  -0.295   0.014   0.085   0.106   0.073   0.274  -0.020  -0.088   0.037   0.002   0.005  -0.087  -0.045   0.000
  0.023  -0.071   0.014  -0.212   0.083  -0.020   0.068  -0.020   0.195  -0.091  -0.058  -0.004  -0.024   0.047  -0.068  -0.000
  0.040   0.049   0.085   0.083  -0.125  -0.041  -0.051  -0.088  -0.091   0.094   0.031   0.002   0.005   0.006   0.055   0.000
  0.015  -0.018  -0.039   0.062  -0.033  -0.014   0.017   0.037  -0.058   0.031   1.859   0.001  -0.002  -0.015   0.011  -0.001
  0.001  -0.002  -0.002   0.004  -0.002  -0.001   0.002   0.002  -0.004   0.002   0.001   0.000  -0.001  -0.002   0.002  -0.000
 -0.073   0.083  -0.006   0.026  -0.005   0.071  -0.081   0.005  -0.024   0.005  -0.002  -0.001   0.036   0.002  -0.001   0.001
  0.020   0.028   0.088  -0.046  -0.006  -0.019  -0.028  -0.087   0.047   0.006  -0.015  -0.002   0.002   0.041  -0.004   0.000
  0.033   0.022   0.047   0.068  -0.055  -0.032  -0.021  -0.045  -0.068   0.055   0.011   0.002  -0.001  -0.004   0.038  -0.000
 -0.002   0.002  -0.000   0.000  -0.000   0.002  -0.003   0.000  -0.000   0.000  -0.001  -0.000   0.001   0.000  -0.000   0.000
  0.000   0.001   0.003  -0.002   0.000  -0.000  -0.001  -0.003   0.002  -0.000  -0.003  -0.000   0.000   0.002  -0.000   0.000
  0.001   0.000   0.001   0.003  -0.002  -0.001  -0.000  -0.001  -0.003   0.002   0.002   0.000  -0.000  -0.000   0.001  -0.000
 -0.008   0.005  -0.007  -0.000   0.003   0.011  -0.005   0.008   0.000  -0.004  -0.003  -0.000   0.003  -0.001  -0.003   0.000
  0.008  -0.008   0.004  -0.005   0.000  -0.011   0.010  -0.004   0.004  -0.000  -0.005   0.000  -0.005   0.001   0.000  -0.000
 -0.003   0.009   0.009   0.004  -0.005   0.002  -0.013  -0.011  -0.004   0.006  -0.002  -0.000   0.003   0.003   0.003   0.000
  0.003   0.006   0.009   0.002  -0.006  -0.003  -0.006  -0.013  -0.004   0.006  -0.000  -0.000   0.001   0.003   0.003   0.000
 -0.008   0.004  -0.007   0.004  -0.000   0.008  -0.004   0.010  -0.008  -0.001  -0.001   0.000   0.003  -0.004   0.000   0.000
  0.000  -0.006  -0.004  -0.005   0.003  -0.000   0.006   0.004   0.008  -0.006   0.001  -0.000  -0.002   0.000  -0.003  -0.000
  0.001   0.002   0.001   0.001   0.000   0.000  -0.001  -0.001  -0.002   0.002  -0.001   0.000   0.000   0.000   0.001   0.000
 -0.003   0.002  -0.003  -0.000   0.001   0.005  -0.002   0.003   0.000  -0.002  -0.001  -0.000   0.001  -0.001  -0.001   0.000
  0.003  -0.003   0.002  -0.002   0.000  -0.005   0.004  -0.002   0.002  -0.000  -0.002   0.000  -0.002   0.000   0.000  -0.000
 -0.001   0.003   0.004   0.002  -0.002   0.001  -0.005  -0.005  -0.002   0.002  -0.001  -0.000   0.001   0.001   0.001   0.000
  0.002   0.003   0.003   0.001  -0.002  -0.001  -0.002  -0.005  -0.002   0.003  -0.000  -0.000   0.000   0.001   0.001   0.000
 -0.003   0.002  -0.003   0.001  -0.000   0.003  -0.002   0.004  -0.003  -0.000  -0.001   0.000   0.001  -0.002   0.000   0.000
  0.000  -0.002  -0.002  -0.002   0.001  -0.000   0.003   0.002   0.003  -0.003   0.000  -0.000  -0.001   0.000  -0.001  -0.000
  0.000   0.001   0.001   0.001   0.001   0.000  -0.001  -0.001  -0.001   0.001  -0.000   0.000   0.000   0.000   0.000   0.000
 total augmentation occupancy for first ion, spin component:           2
 -0.000   0.000  -0.000   0.000   0.000   0.000  -0.000   0.000   0.000  -0.000   0.000   0.000  -0.000   0.000  -0.000  -0.000
  0.000  -0.000  -0.000  -0.000  -0.000  -0.000   0.000   0.000   0.000   0.000   0.000  -0.000   0.000  -0.000   0.000   0.000
 -0.000  -0.000  -0.000   0.000   0.000   0.000   0.000   0.000  -0.000  -0.000   0.000  -0.000  -0.000  -0.000   0.000  -0.000
  0.000  -0.000   0.000  -0.000   0.000  -0.000   0.000  -0.000   0.000  -0.000  -0.000   0.000   0.000   0.000  -0.000   0.000
  0.000  -0.000   0.000   0.000  -0.000  -0.000   0.000  -0.000  -0.000   0.000  -0.000  -0.000  -0.000  -0.000   0.000  -0.000
  0.000  -0.000   0.000  -0.000  -0.000  -0.000   0.000  -0.000  -0.000   0.000   0.000  -0.000  -0.000   0.000   0.000   0.000
 -0.000   0.000   0.000   0.000   0.000   0.000  -0.000  -0.000   0.000  -0.000  -0.000  -0.000   0.000   0.000  -0.000  -0.000
  0.000   0.000   0.000  -0.000  -0.000  -0.000  -0.000  -0.000   0.000   0.000  -0.000  -0.000   0.000   0.000  -0.000   0.000
  0.000   0.000  -0.000   0.000  -0.000  -0.000   0.000   0.000  -0.000   0.000   0.000  -0.000   0.000  -0.000   0.000  -0.000
 -0.000   0.000  -0.000  -0.000   0.000   0.000  -0.000   0.000   0.000  -0.000   0.000   0.000   0.000   0.000  -0.000   0.000
  0.000   0.000   0.000  -0.000  -0.000   0.000  -0.000  -0.000   0.000   0.000   0.000   0.000   0.000   0.000  -0.000  -0.000
  0.000  -0.000  -0.000   0.000  -0.000  -0.000  -0.000  -0.000  -0.000   0.000   0.000   0.000  -0.000  -0.000   0.000  -0.000
 -0.000   0.000  -0.000   0.000  -0.000  -0.000   0.000   0.000   0.000   0.000   0.000  -0.000   0.000   0.000  -0.000   0.000
  0.000  -0.000  -0.000   0.000  -0.000   0.000   0.000   0.000  -0.000   0.000   0.000  -0.000   0.000  -0.000  -0.000   0.000
 -0.000   0.000   0.000  -0.000   0.000   0.000  -0.000  -0.000   0.000  -0.000  -0.000   0.000  -0.000  -0.000  -0.000  -0.000
 -0.000   0.000  -0.000   0.000  -0.000   0.000  -0.000   0.000  -0.000   0.000  -0.000  -0.000   0.000   0.000  -0.000   0.000
  0.000   0.000   0.000  -0.000  -0.000  -0.000  -0.000  -0.000  -0.000   0.000   0.000  -0.000   0.000   0.000   0.000   0.000
  0.000   0.000   0.000   0.000  -0.000  -0.000  -0.000  -0.000  -0.000   0.000  -0.000   0.000   0.000   0.000   0.000   0.000
 -0.000   0.000   0.000  -0.000   0.000  -0.000   0.000  -0.000   0.000   0.000   0.000  -0.000  -0.000   0.000   0.000   0.000
  0.000  -0.000  -0.000   0.000   0.000   0.000   0.000   0.000   0.000  -0.000  -0.000  -0.000  -0.000  -0.000  -0.000  -0.000
 -0.000   0.000   0.000  -0.000   0.000   0.000  -0.000   0.000   0.000  -0.000   0.000  -0.000   0.000   0.000  -0.000   0.000
 -0.000   0.000   0.000  -0.000  -0.000   0.000  -0.000   0.000   0.000  -0.000  -0.000   0.000   0.000   0.000  -0.000   0.000
  0.000   0.000  -0.000   0.000  -0.000  -0.000   0.000  -0.000   0.000  -0.000   0.000  -0.000  -0.000   0.000  -0.000   0.000
 -0.000  -0.000   0.000  -0.000   0.000   0.000  -0.000   0.000  -0.000   0.000  -0.000   0.000   0.000  -0.000   0.000  -0.000
 -0.000  -0.000   0.000   0.000  -0.000  -0.000   0.000  -0.000   0.000   0.000  -0.000   0.000  -0.000   0.000   0.000  -0.000
 -0.000   0.000   0.000  -0.000   0.000  -0.000   0.000  -0.000   0.000   0.000   0.000  -0.000  -0.000   0.000  -0.000   0.000
  0.000  -0.000  -0.000   0.000  -0.000   0.000   0.000   0.000  -0.000  -0.000  -0.000  -0.000   0.000  -0.000   0.000  -0.000
 -0.000   0.000   0.000  -0.000   0.000   0.000  -0.000  -0.000   0.000  -0.000   0.000  -0.000   0.000   0.000  -0.000   0.000
 -0.000  -0.000   0.000  -0.000  -0.000   0.000  -0.000   0.000   0.000  -0.000   0.000  -0.000   0.000   0.000  -0.000   0.000
  0.000   0.000  -0.000   0.000  -0.000  -0.000   0.000  -0.000   0.000  -0.000   0.000  -0.000  -0.000   0.000  -0.000   0.000
 -0.000  -0.000   0.000  -0.000   0.000   0.000  -0.000   0.000  -0.000   0.000   0.000   0.000   0.000  -0.000   0.000  -0.000
 -0.000  -0.000  -0.000   0.000  -0.000  -0.000   0.000  -0.000   0.000   0.000  -0.000   0.000  -0.000   0.000   0.000  -0.000


------------------------ aborting loop because EDIFF is reached ----------------------------------------


 


 total charge     
 
# of ion       s       p       d       f       tot
--------------------------------------------------
    1        0.850   0.073   9.641   0.001  10.566
    2        0.849   0.084   9.640   0.002  10.574
    3        0.851   0.074   9.641   0.001  10.567
    4        0.852   0.068   9.642   0.001  10.563
--------------------------------------------------
tot          3.402   0.299  38.564   0.006  42.270

 


 magnetization (x)
 
# of ion       s       p       d       f       tot
--------------------------------------------------
    1       -0.000   0.000   0.000  -0.000  -0.000
    2       -0.000   0.000  -0.000   0.000  -0.000
    3        0.000   0.000   0.000  -0.000   0.000
    4       -0.000   0.000   0.000   0.000  -0.000
--------------------------------------------------
tot         -0.000   0.000   0.000  -0.000   0.000

 
    CHARGE:  cpu time    1.7007: real time    1.7071
    FORLOC:  cpu time    0.0330: real time    0.0329
    FORNL :  cpu time    9.0496: real time    9.0823
    FORCOR:  cpu time    4.7183: real time    4.7322
    FORHAR:  cpu time    0.2980: real time    0.2991
    MIXING:  cpu time    0.0840: real time    0.0850
    OFIELD:  cpu time    0.0000: real time    0.0000

 VOLUME and BASIS-vectors are now :
 -----------------------------------------------------------------------------
  energy-cutoff  :      500.00
  volume of cell :     4913.00
      direct lattice vectors                 reciprocal lattice vectors
    17.000000000  0.000000000  0.000000000     0.058823529  0.000000000  0.000000000
     0.000000000 17.000000000  0.000000000     0.000000000  0.058823529  0.000000000
     0.000000000  0.000000000 17.000000000     0.000000000  0.000000000  0.058823529

  length of vectors
    17.000000000 17.000000000 17.000000000     0.058823529  0.058823529  0.058823529


 FORCES acting on ions
    electron-ion (+dipol)            ewald-force                    non-local-force                 convergence-correction
 -----------------------------------------------------------------------------------------------
   0.301E+03 -.103E+03 -.371E+03   -.301E+03 0.103E+03 0.371E+03   0.522E-01 -.813E-01 -.588E-01   0.936E-04 -.163E-03 0.247E-02
   -.195E+03 -.415E+03 0.193E+03   0.195E+03 0.415E+03 -.193E+03   -.542E-01 -.215E+00 0.339E-01   0.256E-02 0.789E-02 0.270E-02
   0.252E+03 0.238E+03 0.345E+03   -.252E+03 -.238E+03 -.345E+03   0.871E-02 0.108E+00 0.541E-01   0.468E-03 -.103E-01 0.391E-02
   -.357E+03 0.280E+03 -.167E+03   0.357E+03 -.280E+03 0.167E+03   -.115E-01 0.746E-01 0.367E-01   -.351E-02 -.541E-02 -.312E-03
 -----------------------------------------------------------------------------------------------
   0.460E-02 0.117E+00 -.726E-01   0.568E-13 -.568E-13 -.284E-13   -.470E-02 -.113E+00 0.659E-01   -.390E-03 -.799E-02 0.876E-02
 
 
 POSITION                                       TOTAL-FORCE (eV/Angst)
 -----------------------------------------------------------------------------------
     15.95089      0.25294      1.45158         0.017891      0.011292     -0.006838
      0.89596      1.39377     16.21289         0.033015      0.107540      0.017796
     16.12518     15.96714     15.56016         0.018368     -0.091156      0.031290
      1.66463     15.74381      0.68997        -0.069273     -0.027676     -0.042248
 -----------------------------------------------------------------------------------
    total drift:                               -0.000482     -0.004018      0.002006


--------------------------------------------------------------------------------------------------------



  FREE ENERGIE OF THE ION-ELECTRON SYSTEM (eV)
  ---------------------------------------------------
  free  energy   TOTEN  =        -0.67307024 eV

  energy  without entropy=       -0.67307024  energy(sigma->0) =       -0.67307024
 
 d Force = 0.1693701E-02[ 0.161E-02, 0.177E-02]  d Energy = 0.1715682E-02-0.220E-04
 d Force = 0.1313508E+01[ 0.131E+01, 0.132E+01]  d Ewald  = 0.1313511E+01-0.252E-05


--------------------------------------------------------------------------------------------------------


    POTLOK:  cpu time    4.8793: real time    4.8958


--------------------------------------------------------------------------------------------------------


 Steepest descent step on ions:
 trial-energy change:   -0.001716  1 .order   -0.001694   -0.001774   -0.001613
  (g-gl).g = 0.177E-02      g.g   = 0.177E-02  gl.gl    = 0.000E+00
 g(Force)  = 0.177E-02   g(Stress)= 0.000E+00 ortho     = 0.000E+00
 gamma     =   0.00000
 trial     =   1.00000
 opt step  =   4.00000  (harmonic =  11.03765) maximal distance =0.02300380
 next E    =    -0.681145   (d E  =  -0.00979)


--------------------------------------------------------------------------------------------------------


    WAVPRE:  cpu time    0.0990: real time    1.5794
    FEWALD:  cpu time    0.0000: real time    0.0001

 real space projection operators:
  total allocation   :       2564.75 KBytes
  max/ min on nodes  :        645.50        632.25

    ORTHCH:  cpu time    0.3989: real time    0.4019
     LOOP+:  cpu time   79.7549: real time   83.1324


--------------------------------------- Iteration      3(   1)  ---------------------------------------


    POTLOK:  cpu time    2.4506: real time    2.4764
    SETDIJ:  cpu time    2.4106: real time    2.4169
     EDDAV:  cpu time    4.2724: real time    4.2862
       DOS:  cpu time    0.0010: real time    0.0003
    CHARGE:  cpu time    1.7057: real time    1.7118
    MIXING:  cpu time    0.0540: real time    0.0537
    --------------------------------------------
      LOOP:  cpu time   10.8943: real time   10.9452

 eigenvalue-minimisations  :   164
 total energy-change (2. order) : 0.5181360E-02  (-0.9935756E+00)
 number of electron      48.0000004 magnetization      -0.0000997
 augmentation part       24.3288300 magnetization      -0.0001049

  free energy =  -0.667888802754E+00  energy without entropy=  -0.667888802754E+00


--------------------------------------------------------------------------------------------------------




--------------------------------------- Iteration      3(   2)  ---------------------------------------


    POTLOK:  cpu time    2.4616: real time    2.4732
    SETDIJ:  cpu time    2.4346: real time    2.4399
     EDDAV:  cpu time    4.3573: real time    4.3760
       DOS:  cpu time    0.0000: real time    0.0002
    CHARGE:  cpu time    1.6987: real time    1.7096
    MIXING:  cpu time    0.0620: real time    0.0631
    --------------------------------------------
      LOOP:  cpu time   11.0143: real time   11.0620

 eigenvalue-minimisations  :   168
 total energy-change (2. order) :-0.9524707E-02  (-0.9579849E-02)
 number of electron      48.0000004 magnetization      -0.0000902
 augmentation part       24.3252113 magnetization      -0.0000946

 eigenvalues of (default mixing * dielectric matrix)
  average eigenvalue GAMMA=   0.9310
  0.9310

  free energy =  -0.677413510188E+00  energy without entropy=  -0.677413510188E+00


--------------------------------------------------------------------------------------------------------




--------------------------------------- Iteration      3(   3)  ---------------------------------------


    POTLOK:  cpu time    2.4636: real time    2.4768
    SETDIJ:  cpu time    2.4076: real time    2.4140
     EDDAV:  cpu time    4.5223: real time    4.5367
       DOS:  cpu time    0.0000: real time    0.0003
    CHARGE:  cpu time    1.7037: real time    1.7090
    MIXING:  cpu time    0.0680: real time    0.0679
    --------------------------------------------
      LOOP:  cpu time   11.1653: real time   11.2046

 eigenvalue-minimisations  :   176
 total energy-change (2. order) :-0.5600032E-04  (-0.5126913E-04)
 number of electron      48.0000004 magnetization      -0.0000679
 augmentation part       24.3254323 magnetization      -0.0000719

 eigenvalues of (default mixing * dielectric matrix)
  average eigenvalue GAMMA=   1.6432
  1.0691  2.2173

  free energy =  -0.677469510512E+00  energy without entropy=  -0.677469510512E+00


--------------------------------------------------------------------------------------------------------




--------------------------------------- Iteration      3(   4)  ---------------------------------------


    POTLOK:  cpu time    2.4646: real time    2.4727
    SETDIJ:  cpu time    2.4316: real time    2.4366
     EDDAV:  cpu time    4.3543: real time    4.3681
       DOS:  cpu time    0.0000: real time    0.0002
    CHARGE:  cpu time    1.7017: real time    1.7069
    MIXING:  cpu time    0.0740: real time    0.0736
    --------------------------------------------
      LOOP:  cpu time   11.0263: real time   11.0581

 eigenvalue-minimisations  :   168
 total energy-change (2. order) : 0.5406730E-05  (-0.1844012E-05)
 number of electron      48.0000004 magnetization       0.0001930
 augmentation part       24.3253673 magnetization       0.0001900

 eigenvalues of (default mixing * dielectric matrix)
  average eigenvalue GAMMA=  12.8609
 36.6046  0.9312  1.0469

  free energy =  -0.677464103783E+00  energy without entropy=  -0.677464103783E+00


--------------------------------------------------------------------------------------------------------




--------------------------------------- Iteration      3(   5)  ---------------------------------------


    POTLOK:  cpu time    2.4616: real time    2.6874
    SETDIJ:  cpu time    2.4346: real time    2.4396
     EDDAV:  cpu time    4.0254: real time    4.0440
       DOS:  cpu time    0.0000: real time    0.0003
    CHARGE:  cpu time    1.7027: real time    1.7074
    MIXING:  cpu time    0.0780: real time    0.0788
    --------------------------------------------
      LOOP:  cpu time   10.7024: real time   10.9575

 eigenvalue-minimisations  :   152
 total energy-change (2. order) :-0.1643752E-04  (-0.4630449E-05)
 number of electron      48.0000004 magnetization       0.0002102
 augmentation part       24.3249291 magnetization       0.0002178

 eigenvalues of (default mixing * dielectric matrix)
  average eigenvalue GAMMA=  11.6291
 43.3662  0.9800  0.9800  1.1904

  free energy =  -0.677480541306E+00  energy without entropy=  -0.677480541306E+00


--------------------------------------------------------------------------------------------------------




--------------------------------------- Iteration      3(   6)  ---------------------------------------


    POTLOK:  cpu time    2.4626: real time    2.4683
    SETDIJ:  cpu time    2.4316: real time    2.4388
     EDDAV:  cpu time    3.6105: real time    3.6213
       DOS:  cpu time    0.0000: real time    0.0002
    CHARGE:  cpu time    1.7047: real time    1.7090
    MIXING:  cpu time    0.0850: real time    0.0851
    --------------------------------------------
      LOOP:  cpu time   10.2944: real time   10.3226

 eigenvalue-minimisations  :   132
 total energy-change (2. order) :-0.6713370E-05  (-0.1613816E-05)
 number of electron      48.0000004 magnetization       0.0002330
 augmentation part       24.3248614 magnetization       0.0002418

 eigenvalues of (default mixing * dielectric matrix)
  average eigenvalue GAMMA=   9.2566
 42.3032  1.1142  0.9671  0.9671  0.9315

  free energy =  -0.677487254676E+00  energy without entropy=  -0.677487254676E+00


--------------------------------------------------------------------------------------------------------




--------------------------------------- Iteration      3(   7)  ---------------------------------------


    POTLOK:  cpu time    2.4606: real time    2.4676
    SETDIJ:  cpu time    2.4096: real time    2.4159
     EDDAV:  cpu time    2.1267: real time    2.1321
       DOS:  cpu time    0.0000: real time    0.0001
    --------------------------------------------
      LOOP:  cpu time    6.9969: real time    7.0156

 eigenvalue-minimisations  :    60
 total energy-change (2. order) : 0.1218987E-06  (-0.2802562E-07)
 number of electron      48.0000004 magnetization       0.0002330
 augmentation part       24.3248614 magnetization       0.0002418

  free energy =  -0.677487132777E+00  energy without entropy=  -0.677487132777E+00


--------------------------------------------------------------------------------------------------------




 average (electrostatic) potential at core
  the test charge radii are     1.1405
  (the norm of the test charge is              1.0000)
       1 -75.9120       2 -75.9131       3 -75.9153       4 -75.9146
 
 
 
 E-fermi :  -4.9812     XC(G=0):  -0.5414     alpha+bet : -0.1736


 spin component 1

 k-point     1 :       0.0000    0.0000    0.0000
  band No.  band energies     occupation 
      1     -12.2646      1.00000
      2     -12.1166      1.00000
      3     -12.0932      1.00000
      4     -12.0709      1.00000
      5     -12.0618      1.00000
      6     -12.0239      1.00000
      7     -11.9075      1.00000
      8     -11.9013      1.00000
      9     -11.8798      1.00000
     10     -11.7764      1.00000
     11     -11.7600      1.00000
     12     -11.7503      1.00000
     13     -11.7498      1.00000
     14     -11.7385      1.00000
     15     -11.7338      1.00000
     16     -11.7243      1.00000
     17     -11.7067      1.00000
     18     -11.6228      1.00000
     19     -11.5960      1.00000
     20     -11.5795      1.00000
     21      -8.0502      1.00000
     22      -5.2675      1.00000
     23      -5.1805      1.00000
     24      -5.0378      1.00000
     25      -2.2137      0.00000
     26      -1.8146      0.00000
     27      -1.7789      0.00000
     28      -1.7047      0.00000
     29      -1.4161      0.00000
     30      -1.2590      0.00000

 spin component 2

 k-point     1 :       0.0000    0.0000    0.0000
  band No.  band energies     occupation 
      1     -12.2646      1.00000
      2     -12.1165      1.00000
      3     -12.0932      1.00000
      4     -12.0709      1.00000
      5     -12.0618      1.00000
      6     -12.0239      1.00000
      7     -11.9075      1.00000
      8     -11.9013      1.00000
      9     -11.8798      1.00000
     10     -11.7764      1.00000
     11     -11.7600      1.00000
     12     -11.7503      1.00000
     13     -11.7498      1.00000
     14     -11.7385      1.00000
     15     -11.7338      1.00000
     16     -11.7243      1.00000
     17     -11.7067      1.00000
     18     -11.6228      1.00000
     19     -11.5960      1.00000
     20     -11.5795      1.00000
     21      -8.0502      1.00000
     22      -5.2675      1.00000
     23      -5.1805      1.00000
     24      -5.0379      1.00000
     25      -2.2137      0.00000
     26      -1.8146      0.00000
     27      -1.7789      0.00000
     28      -1.7047      0.00000
     29      -1.4161      0.00000
     30      -1.2589      0.00000


--------------------------------------------------------------------------------------------------------


 soft charge-density along one line, spin component           1
         0         1         2         3         4         5         6         7         8         9
 total charge-density along one line
 
 soft charge-density along one line, spin component           2
         0         1         2         3         4         5         6         7         8         9
 total charge-density along one line
 
 pseudopotential strength for first ion, spin component:           1
-16.188   0.003  -0.001  -0.001   0.000 -15.788   0.003  -0.001
  0.003 -16.189  -0.001   0.001   0.001   0.003 -15.789  -0.001
 -0.001  -0.001 -16.191   0.002   0.002  -0.001  -0.001 -15.792
 -0.001   0.001   0.002 -16.192   0.003  -0.001   0.001   0.002
  0.000   0.001   0.002   0.003 -16.188   0.000   0.001   0.002
-15.788   0.003  -0.001  -0.001   0.000 -15.377   0.003  -0.001
  0.003 -15.789  -0.001   0.001   0.001   0.003 -15.378  -0.001
 -0.001  -0.001 -15.792   0.002   0.002  -0.001  -0.001 -15.380
 -0.001   0.001   0.002 -15.792   0.003  -0.001   0.001   0.002
  0.000   0.001   0.002   0.003 -15.788   0.000   0.001   0.001
 -0.000   0.000   0.001  -0.001   0.001  -0.000   0.000   0.001
  0.000  -0.000  -0.000   0.000  -0.000   0.000  -0.000  -0.000
 -0.002   0.002  -0.000   0.000  -0.000  -0.002   0.002  -0.000
  0.000   0.000   0.002  -0.001  -0.000   0.000   0.000   0.002
  0.000   0.000   0.001   0.002  -0.002   0.000   0.000   0.001
  0.001  -0.001   0.000   0.000   0.001   0.001  -0.001   0.000
  0.000  -0.000  -0.002   0.001  -0.000   0.000  -0.000  -0.002
 -0.000   0.000  -0.001  -0.002   0.001  -0.000   0.000  -0.001
  0.004   0.000   0.000  -0.001  -0.001   0.004   0.000   0.000
 -0.004   0.003   0.000  -0.001  -0.000  -0.003   0.003   0.000
 -0.002  -0.005  -0.001  -0.000  -0.000  -0.002  -0.005  -0.001
  0.001   0.001  -0.005  -0.003  -0.001   0.001   0.001  -0.005
  0.000  -0.000   0.003  -0.004  -0.001   0.000  -0.000   0.003
 -0.000   0.001  -0.000   0.002  -0.004  -0.000   0.000  -0.000
  0.001   0.001   0.000   0.000   0.004   0.001   0.001   0.000
 -0.007  -0.001  -0.000   0.001   0.001  -0.006  -0.001  -0.000
  0.006  -0.005  -0.000   0.001   0.000   0.006  -0.004  -0.000
  0.003   0.008   0.001   0.001   0.000   0.003   0.008   0.001
 -0.001  -0.001   0.008   0.004   0.001  -0.001  -0.001   0.008
 -0.000   0.001  -0.005   0.007   0.002  -0.000   0.001  -0.005
  0.000  -0.001   0.000  -0.004   0.006   0.000  -0.001   0.000
 -0.002  -0.001  -0.000  -0.001  -0.007  -0.001  -0.001  -0.000
 pseudopotential strength for first ion, spin component:           2
-16.188   0.003  -0.001  -0.001   0.000 -15.788   0.003  -0.001
  0.003 -16.189  -0.001   0.001   0.001   0.003 -15.789  -0.001
 -0.001  -0.001 -16.191   0.002   0.002  -0.001  -0.001 -15.792
 -0.001   0.001   0.002 -16.192   0.003  -0.001   0.001   0.002
  0.000   0.001   0.002   0.003 -16.188   0.000   0.001   0.002
-15.788   0.003  -0.001  -0.001   0.000 -15.377   0.003  -0.001
  0.003 -15.789  -0.001   0.001   0.001   0.003 -15.378  -0.001
 -0.001  -0.001 -15.792   0.002   0.002  -0.001  -0.001 -15.380
 -0.001   0.001   0.002 -15.792   0.003  -0.001   0.001   0.002
  0.000   0.001   0.002   0.003 -15.788   0.000   0.001   0.001
 -0.000   0.000   0.001  -0.001   0.001  -0.000   0.000   0.001
  0.000  -0.000  -0.000   0.000  -0.000   0.000  -0.000  -0.000
 -0.002   0.002  -0.000   0.000  -0.000  -0.002   0.002  -0.000
  0.000   0.000   0.002  -0.001  -0.000   0.000   0.000   0.002
  0.000   0.000   0.001   0.002  -0.002   0.000   0.000   0.001
  0.001  -0.001   0.000   0.000   0.001   0.001  -0.001   0.000
  0.000  -0.000  -0.002   0.001  -0.000   0.000  -0.000  -0.002
 -0.000   0.000  -0.001  -0.002   0.001  -0.000   0.000  -0.001
  0.004   0.000   0.000  -0.001  -0.001   0.004   0.000   0.000
 -0.004   0.003   0.000  -0.001  -0.000  -0.003   0.003   0.000
 -0.002  -0.005  -0.001  -0.000  -0.000  -0.002  -0.005  -0.001
  0.001   0.001  -0.005  -0.003  -0.001   0.001   0.001  -0.005
  0.000  -0.000   0.003  -0.004  -0.001   0.000  -0.000   0.003
 -0.000   0.001  -0.000   0.002  -0.004  -0.000   0.000  -0.000
  0.001   0.001   0.000   0.000   0.004   0.001   0.001   0.000
 -0.007  -0.001  -0.000   0.001   0.001  -0.006  -0.001  -0.000
  0.006  -0.005  -0.000   0.001   0.000   0.006  -0.004  -0.000
  0.003   0.008   0.001   0.001   0.000   0.003   0.008   0.001
 -0.001  -0.001   0.008   0.004   0.001  -0.001  -0.001   0.008
 -0.000   0.001  -0.005   0.007   0.002  -0.000   0.001  -0.005
  0.000  -0.001   0.000  -0.004   0.006   0.000  -0.001   0.000
 -0.002  -0.001  -0.000  -0.001  -0.007  -0.001  -0.001  -0.000
 total augmentation occupancy for first ion, spin component:           1
  2.251  -0.112   0.102  -0.024  -0.040  -0.226   0.119  -0.105   0.021   0.041   0.016   0.001  -0.073   0.021   0.034  -0.002
 -0.112   2.273   0.067   0.071  -0.047   0.119  -0.251  -0.070  -0.069   0.049  -0.019  -0.002   0.083   0.029   0.022   0.002
  0.102   0.067   2.310  -0.007  -0.082  -0.105  -0.070  -0.293   0.012   0.086  -0.037  -0.002  -0.006   0.087   0.047  -0.000
 -0.024   0.071  -0.007   2.224  -0.075   0.021  -0.069   0.012  -0.211   0.083   0.062   0.004   0.025  -0.046   0.068   0.000
 -0.040  -0.047  -0.082  -0.075   2.151   0.041   0.049   0.086   0.083  -0.124  -0.031  -0.002  -0.005  -0.007  -0.055  -0.000
 -0.226   0.119  -0.105   0.021   0.041   0.196  -0.126   0.108  -0.018  -0.042  -0.015  -0.001   0.072  -0.019  -0.033   0.002
  0.119  -0.251  -0.070  -0.069   0.049  -0.126   0.225   0.073   0.066  -0.051   0.018   0.002  -0.081  -0.028  -0.021  -0.003
 -0.105  -0.070  -0.293   0.012   0.086   0.108   0.073   0.272  -0.018  -0.089   0.034   0.002   0.006  -0.086  -0.046   0.000
  0.021  -0.069   0.012  -0.211   0.083  -0.018   0.066  -0.018   0.194  -0.091  -0.058  -0.004  -0.023   0.047  -0.068  -0.000
  0.041   0.049   0.086   0.083  -0.124  -0.042  -0.051  -0.089  -0.091   0.094   0.029   0.002   0.005   0.006   0.055   0.000
  0.016  -0.019  -0.037   0.062  -0.031  -0.015   0.018   0.034  -0.058   0.029   1.859   0.001  -0.002  -0.015   0.011  -0.001
  0.001  -0.002  -0.002   0.004  -0.002  -0.001   0.002   0.002  -0.004   0.002   0.001   0.000  -0.001  -0.002   0.002  -0.000
 -0.073   0.083  -0.006   0.025  -0.005   0.072  -0.081   0.006  -0.023   0.005  -0.002  -0.001   0.036   0.002  -0.001   0.001
  0.021   0.029   0.087  -0.046  -0.007  -0.019  -0.028  -0.086   0.047   0.006  -0.015  -0.002   0.002   0.041  -0.004   0.000
  0.034   0.022   0.047   0.068  -0.055  -0.033  -0.021  -0.046  -0.068   0.055   0.011   0.002  -0.001  -0.004   0.039  -0.000
 -0.002   0.002  -0.000   0.000  -0.000   0.002  -0.003   0.000  -0.000   0.000  -0.001  -0.000   0.001   0.000  -0.000   0.000
  0.000   0.001   0.003  -0.002   0.000  -0.000  -0.001  -0.003   0.002  -0.000  -0.003  -0.000   0.000   0.002  -0.000   0.000
  0.001   0.000   0.001   0.003  -0.002  -0.001  -0.000  -0.001  -0.003   0.002   0.002   0.000  -0.000  -0.000   0.001  -0.000
 -0.008   0.005  -0.007  -0.000   0.003   0.011  -0.005   0.008   0.000  -0.004  -0.003  -0.000   0.003  -0.001  -0.003   0.000
  0.008  -0.008   0.004  -0.005   0.000  -0.011   0.010  -0.004   0.004   0.000  -0.005   0.000  -0.005   0.001   0.000  -0.000
 -0.002   0.009   0.009   0.004  -0.006   0.002  -0.013  -0.011  -0.004   0.006  -0.002  -0.000   0.003   0.003   0.003   0.000
  0.004   0.006   0.008   0.002  -0.006  -0.003  -0.006  -0.013  -0.004   0.006  -0.000  -0.000   0.001   0.003   0.004   0.000
 -0.008   0.004  -0.007   0.004  -0.000   0.008  -0.004   0.010  -0.008  -0.001  -0.002   0.000   0.003  -0.004   0.000   0.000
  0.000  -0.006  -0.004  -0.005   0.003  -0.000   0.006   0.004   0.008  -0.006   0.001  -0.000  -0.002  -0.000  -0.003  -0.000
  0.001   0.002   0.001   0.001   0.001   0.000  -0.001  -0.001  -0.001   0.002  -0.001   0.000   0.000   0.000   0.001   0.000
 -0.003   0.002  -0.003  -0.000   0.001   0.005  -0.002   0.003   0.000  -0.002  -0.001  -0.000   0.001  -0.001  -0.001   0.000
  0.003  -0.003   0.002  -0.002   0.000  -0.005   0.004  -0.002   0.001   0.000  -0.002   0.000  -0.002   0.000   0.000  -0.000
 -0.001   0.003   0.004   0.002  -0.002   0.001  -0.006  -0.005  -0.002   0.002  -0.001  -0.000   0.001   0.001   0.001   0.000
  0.002   0.003   0.003   0.001  -0.002  -0.001  -0.002  -0.005  -0.002   0.003  -0.000  -0.000   0.000   0.001   0.001   0.000
 -0.003   0.002  -0.002   0.001  -0.000   0.003  -0.002   0.004  -0.003  -0.000  -0.001   0.000   0.001  -0.002   0.000   0.000
  0.000  -0.002  -0.002  -0.002   0.001  -0.000   0.003   0.002   0.003  -0.003   0.000  -0.000  -0.001  -0.000  -0.001  -0.000
  0.000   0.001   0.001   0.001   0.001   0.000  -0.001  -0.001  -0.001   0.001  -0.000   0.000   0.000   0.000   0.000   0.000
 total augmentation occupancy for first ion, spin component:           2
  0.000   0.000  -0.000   0.000   0.000  -0.000  -0.000   0.000  -0.000  -0.000   0.000  -0.000   0.000  -0.000  -0.000   0.000
  0.000   0.000  -0.000  -0.000   0.000  -0.000  -0.000   0.000   0.000  -0.000  -0.000   0.000  -0.000  -0.000  -0.000  -0.000
 -0.000  -0.000   0.000  -0.000   0.000   0.000   0.000  -0.000   0.000  -0.000  -0.000   0.000   0.000  -0.000  -0.000   0.000
  0.000  -0.000  -0.000   0.000   0.000  -0.000   0.000   0.000  -0.000  -0.000   0.000  -0.000  -0.000   0.000  -0.000   0.000
  0.000   0.000   0.000   0.000   0.000  -0.000  -0.000  -0.000  -0.000  -0.000  -0.000   0.000   0.000   0.000   0.000   0.000
 -0.000  -0.000   0.000  -0.000  -0.000  -0.000   0.000  -0.000   0.000  -0.000  -0.000   0.000  -0.000   0.000   0.000  -0.000
 -0.000  -0.000   0.000   0.000  -0.000   0.000  -0.000  -0.000  -0.000   0.000   0.000  -0.000   0.000  -0.000   0.000   0.000
  0.000   0.000  -0.000   0.000  -0.000  -0.000  -0.000  -0.000  -0.000   0.000   0.000   0.000  -0.000   0.000   0.000  -0.000
 -0.000   0.000   0.000  -0.000  -0.000   0.000  -0.000  -0.000   0.000   0.000  -0.000  -0.000   0.000   0.000   0.000   0.000
 -0.000  -0.000  -0.000  -0.000  -0.000  -0.000   0.000   0.000   0.000  -0.000   0.000   0.000  -0.000  -0.000  -0.000  -0.000
  0.000  -0.000  -0.000   0.000  -0.000  -0.000   0.000   0.000  -0.000   0.000  -0.000  -0.000  -0.000  -0.000   0.000  -0.000
 -0.000   0.000   0.000  -0.000   0.000   0.000  -0.000   0.000  -0.000   0.000  -0.000   0.000   0.000  -0.000   0.000   0.000
  0.000  -0.000   0.000  -0.000   0.000  -0.000   0.000  -0.000   0.000  -0.000  -0.000   0.000  -0.000   0.000  -0.000  -0.000
 -0.000  -0.000  -0.000   0.000   0.000   0.000  -0.000   0.000   0.000  -0.000  -0.000  -0.000   0.000  -0.000  -0.000   0.000
 -0.000  -0.000  -0.000  -0.000   0.000   0.000   0.000   0.000   0.000  -0.000   0.000   0.000  -0.000  -0.000  -0.000  -0.000
  0.000  -0.000   0.000   0.000   0.000  -0.000   0.000  -0.000   0.000  -0.000  -0.000   0.000  -0.000   0.000  -0.000  -0.000
 -0.000  -0.000  -0.000   0.000  -0.000   0.000  -0.000   0.000   0.000  -0.000  -0.000  -0.000   0.000  -0.000  -0.000   0.000
 -0.000  -0.000  -0.000  -0.000   0.000   0.000   0.000   0.000   0.000  -0.000   0.000  -0.000  -0.000  -0.000  -0.000  -0.000
  0.000  -0.000   0.000   0.000  -0.000   0.000  -0.000   0.000  -0.000  -0.000   0.000   0.000   0.000   0.000  -0.000  -0.000
 -0.000   0.000   0.000   0.000   0.000   0.000  -0.000  -0.000   0.000   0.000   0.000  -0.000   0.000   0.000   0.000   0.000
 -0.000  -0.000  -0.000   0.000  -0.000  -0.000   0.000  -0.000  -0.000   0.000   0.000  -0.000  -0.000   0.000  -0.000  -0.000
  0.000   0.000  -0.000  -0.000  -0.000   0.000  -0.000  -0.000   0.000   0.000   0.000  -0.000   0.000   0.000  -0.000   0.000
  0.000  -0.000   0.000  -0.000  -0.000   0.000  -0.000   0.000  -0.000   0.000  -0.000   0.000   0.000  -0.000   0.000  -0.000
 -0.000   0.000   0.000   0.000  -0.000   0.000   0.000   0.000   0.000  -0.000   0.000  -0.000   0.000   0.000  -0.000   0.000
  0.000   0.000  -0.000   0.000   0.000  -0.000   0.000   0.000  -0.000  -0.000   0.000   0.000  -0.000  -0.000   0.000  -0.000
  0.000  -0.000   0.000   0.000  -0.000   0.000  -0.000   0.000  -0.000   0.000   0.000   0.000   0.000  -0.000  -0.000  -0.000
 -0.000   0.000   0.000   0.000   0.000   0.000  -0.000  -0.000   0.000   0.000   0.000   0.000   0.000   0.000   0.000   0.000
 -0.000  -0.000  -0.000   0.000   0.000   0.000   0.000  -0.000   0.000  -0.000   0.000  -0.000  -0.000   0.000  -0.000  -0.000
  0.000   0.000  -0.000  -0.000  -0.000  -0.000  -0.000  -0.000   0.000  -0.000   0.000  -0.000   0.000   0.000  -0.000   0.000
  0.000  -0.000   0.000  -0.000  -0.000   0.000  -0.000   0.000  -0.000   0.000  -0.000   0.000   0.000  -0.000   0.000  -0.000
 -0.000   0.000   0.000   0.000  -0.000   0.000   0.000   0.000   0.000  -0.000   0.000  -0.000   0.000   0.000  -0.000   0.000
  0.000   0.000  -0.000   0.000   0.000  -0.000   0.000   0.000  -0.000   0.000   0.000   0.000  -0.000  -0.000   0.000  -0.000


------------------------ aborting loop because EDIFF is reached ----------------------------------------


 


 total charge     
 
# of ion       s       p       d       f       tot
--------------------------------------------------
    1        0.850   0.073   9.641   0.001  10.566
    2        0.849   0.081   9.640   0.002  10.572
    3        0.851   0.073   9.641   0.001  10.566
    4        0.851   0.069   9.642   0.001  10.563
--------------------------------------------------
tot          3.402   0.296  38.564   0.006  42.268

 


 magnetization (x)
 
# of ion       s       p       d       f       tot
--------------------------------------------------
    1       -0.000  -0.000   0.000   0.000  -0.000
    2       -0.000  -0.000   0.000   0.000  -0.000
    3       -0.000  -0.000   0.000   0.000  -0.000
    4       -0.000  -0.000   0.000   0.000  -0.000
--------------------------------------------------
tot         -0.000  -0.000   0.000   0.000  -0.000

 
    CHARGE:  cpu time    1.6967: real time    1.7017
    FORLOC:  cpu time    0.0330: real time    0.0325
    FORNL :  cpu time    9.0556: real time    9.0817
    FORCOR:  cpu time    4.7013: real time    4.7163
    FORHAR:  cpu time    0.2980: real time    0.2995
    MIXING:  cpu time    0.0920: real time    0.0917
    OFIELD:  cpu time    0.0000: real time    0.0000

 VOLUME and BASIS-vectors are now :
 -----------------------------------------------------------------------------
  energy-cutoff  :      500.00
  volume of cell :     4913.00
      direct lattice vectors                 reciprocal lattice vectors
    17.000000000  0.000000000  0.000000000     0.058823529  0.000000000  0.000000000
     0.000000000 17.000000000  0.000000000     0.000000000  0.058823529  0.000000000
     0.000000000  0.000000000 17.000000000     0.000000000  0.000000000  0.058823529

  length of vectors
    17.000000000 17.000000000 17.000000000     0.058823529  0.058823529  0.058823529


 FORCES acting on ions
    electron-ion (+dipol)            ewald-force                    non-local-force                 convergence-correction
 -----------------------------------------------------------------------------------------------
   0.301E+03 -.104E+03 -.370E+03   -.301E+03 0.104E+03 0.370E+03   0.588E-01 -.743E-01 -.684E-01   -.133E-01 -.858E-01 0.569E-01
   -.193E+03 -.413E+03 0.192E+03   0.193E+03 0.413E+03 -.192E+03   -.479E-01 -.189E+00 0.360E-01   -.155E-01 -.145E+00 0.371E-02
   0.250E+03 0.237E+03 0.345E+03   -.250E+03 -.237E+03 -.345E+03   0.127E-01 0.932E-01 0.572E-01   -.184E-01 0.201E-01 0.210E-01
   -.358E+03 0.280E+03 -.167E+03   0.358E+03 -.280E+03 0.166E+03   -.243E-01 0.723E-01 0.238E-01   0.184E-01 -.225E-01 0.717E-01
 -----------------------------------------------------------------------------------------------
   0.313E-01 0.328E+00 -.200E+00   -.568E-13 -.568E-13 0.568E-13   -.764E-03 -.976E-01 0.486E-01   -.288E-01 -.233E+00 0.153E+00
 
 
 POSITION                                       TOTAL-FORCE (eV/Angst)
 -----------------------------------------------------------------------------------
     15.95389      0.25459      1.45027         0.015838      0.012876     -0.008595
      0.90145      1.41103     16.21589         0.018084      0.076571      0.016675
     16.12754     15.95248     15.56491         0.028340     -0.066620      0.034178
      1.65378     15.73958      0.68354        -0.062262     -0.022827     -0.042258
 -----------------------------------------------------------------------------------
    total drift:                                0.001708     -0.003042      0.002350


--------------------------------------------------------------------------------------------------------



  FREE ENERGIE OF THE ION-ELECTRON SYSTEM (eV)
  ---------------------------------------------------
  free  energy   TOTEN  =        -0.67748713 eV

  energy  without entropy=       -0.67748713  energy(sigma->0) =       -0.67748713
 
 d Force = 0.4320056E-02[ 0.380E-02, 0.484E-02]  d Energy = 0.4416890E-02-0.968E-04
 d Force = 0.3912719E+01[ 0.389E+01, 0.393E+01]  d Ewald  = 0.3912785E+01-0.668E-04


--------------------------------------------------------------------------------------------------------


    POTLOK:  cpu time    4.8833: real time    4.8970


--------------------------------------------------------------------------------------------------------




--------------------------------------------------------------------------------------------------------


    WAVPRE:  cpu time    0.1520: real time    0.1798
    FEWALD:  cpu time    0.0040: real time    0.0046

 real space projection operators:
  total allocation   :       2562.75 KBytes
  max/ min on nodes  :        645.25        632.75

    ORTHCH:  cpu time    0.4019: real time    0.4027
     LOOP+:  cpu time   93.4288: real time   94.0384


--------------------------------------- Iteration      4(   1)  ---------------------------------------


    POTLOK:  cpu time    2.4456: real time    2.4771
    SETDIJ:  cpu time    2.4086: real time    2.4157
     EDDAV:  cpu time    4.2744: real time    4.2869
       DOS:  cpu time    0.0010: real time    0.0004
    CHARGE:  cpu time    1.7027: real time    1.7080
    MIXING:  cpu time    0.0530: real time    0.0530
    --------------------------------------------
      LOOP:  cpu time   10.8853: real time   10.9411

 eigenvalue-minimisations  :   164
 total energy-change (2. order) : 0.4006904E-01  (-0.3970744E+01)
 number of electron      48.0000003 magnetization      -0.0001280
 augmentation part       24.3396066 magnetization      -0.0001330

  free energy =  -0.637418211122E+00  energy without entropy=  -0.637418211122E+00


--------------------------------------------------------------------------------------------------------




--------------------------------------- Iteration      4(   2)  ---------------------------------------


    POTLOK:  cpu time    2.4586: real time    2.4801
    SETDIJ:  cpu time    2.4326: real time    2.4387
     EDDAV:  cpu time    4.3663: real time    4.3807
       DOS:  cpu time    0.0010: real time    0.0004
    CHARGE:  cpu time    1.7007: real time    1.7098
    MIXING:  cpu time    0.0630: real time    0.0645
    --------------------------------------------
      LOOP:  cpu time   11.0223: real time   11.0742

 eigenvalue-minimisations  :   168
 total energy-change (2. order) :-0.4542265E-01  (-0.4567322E-01)
 number of electron      48.0000003 magnetization      -0.0001160
 augmentation part       24.3257432 magnetization      -0.0001198

 eigenvalues of (default mixing * dielectric matrix)
  average eigenvalue GAMMA=   0.9216
  0.9216

  free energy =  -0.682840856474E+00  energy without entropy=  -0.682840856474E+00


--------------------------------------------------------------------------------------------------------




--------------------------------------- Iteration      4(   3)  ---------------------------------------


    POTLOK:  cpu time    2.4606: real time    2.4694
    SETDIJ:  cpu time    2.4326: real time    2.4383
     EDDAV:  cpu time    4.5223: real time    4.5376
       DOS:  cpu time    0.0000: real time    0.0002
    CHARGE:  cpu time    1.6997: real time    1.7093
    MIXING:  cpu time    0.0670: real time    0.0677
    --------------------------------------------
      LOOP:  cpu time   11.1823: real time   11.2226

 eigenvalue-minimisations  :   176
 total energy-change (2. order) :-0.3295438E-03  (-0.2958408E-03)
 number of electron      48.0000003 magnetization      -0.0000871
 augmentation part       24.3266097 magnetization      -0.0000906

 eigenvalues of (default mixing * dielectric matrix)
  average eigenvalue GAMMA=   1.6274
  1.0221  2.2327

  free energy =  -0.683170400230E+00  energy without entropy=  -0.683170400230E+00


--------------------------------------------------------------------------------------------------------




--------------------------------------- Iteration      4(   4)  ---------------------------------------


    POTLOK:  cpu time    2.4656: real time    2.4716
    SETDIJ:  cpu time    2.4326: real time    2.4385
     EDDAV:  cpu time    4.3553: real time    4.3737
       DOS:  cpu time    0.0010: real time    0.0003
    CHARGE:  cpu time    1.6987: real time    1.7042
    MIXING:  cpu time    0.0730: real time    0.0747
    --------------------------------------------
      LOOP:  cpu time   11.0263: real time   11.0631

 eigenvalue-minimisations  :   168
 total energy-change (2. order) : 0.9906337E-05  (-0.9074650E-05)
 number of electron      48.0000003 magnetization       0.0002172
 augmentation part       24.3264551 magnetization       0.0002146

 eigenvalues of (default mixing * dielectric matrix)
  average eigenvalue GAMMA=  11.8490
 33.5773  1.0407  0.9289

  free energy =  -0.683160493893E+00  energy without entropy=  -0.683160493893E+00


--------------------------------------------------------------------------------------------------------




--------------------------------------- Iteration      4(   5)  ---------------------------------------


    POTLOK:  cpu time    2.4636: real time    2.4746
    SETDIJ:  cpu time    2.4336: real time    2.4403
     EDDAV:  cpu time    4.0214: real time    4.0390
       DOS:  cpu time    0.0010: real time    0.0003
    CHARGE:  cpu time    1.6957: real time    1.7077
    MIXING:  cpu time    0.0790: real time    0.0787
    --------------------------------------------
      LOOP:  cpu time   10.6944: real time   10.7407

 eigenvalue-minimisations  :   152
 total energy-change (2. order) :-0.2977255E-04  (-0.1486570E-04)
 number of electron      48.0000003 magnetization       0.0002440
 augmentation part       24.3258965 magnetization       0.0002485

 eigenvalues of (default mixing * dielectric matrix)
  average eigenvalue GAMMA=  10.9708
 40.7989  0.9605  0.9605  1.1633

  free energy =  -0.683190266447E+00  energy without entropy=  -0.683190266447E+00


--------------------------------------------------------------------------------------------------------




--------------------------------------- Iteration      4(   6)  ---------------------------------------


    POTLOK:  cpu time    2.4656: real time    2.4722
    SETDIJ:  cpu time    2.4326: real time    2.4387
     EDDAV:  cpu time    3.6035: real time    3.6179
       DOS:  cpu time    0.0000: real time    0.0002
    CHARGE:  cpu time    1.6997: real time    1.7053
    MIXING:  cpu time    0.0890: real time    0.0885
    --------------------------------------------
      LOOP:  cpu time   10.2904: real time   10.3228

 eigenvalue-minimisations  :   132
 total energy-change (2. order) :-0.2455273E-04  (-0.7524370E-05)
 number of electron      48.0000003 magnetization       0.0002569
 augmentation part       24.3257373 magnetization       0.0002634

 eigenvalues of (default mixing * dielectric matrix)
  average eigenvalue GAMMA=   8.6715
 39.8462  1.1202  0.9558  0.9558  0.4796

  free energy =  -0.683214819180E+00  energy without entropy=  -0.683214819180E+00


--------------------------------------------------------------------------------------------------------




--------------------------------------- Iteration      4(   7)  ---------------------------------------


    POTLOK:  cpu time    2.4626: real time    2.4765
    SETDIJ:  cpu time    2.4136: real time    2.4199
     EDDAV:  cpu time    2.7006: real time    2.7082
       DOS:  cpu time    0.0000: real time    0.0003
    CHARGE:  cpu time    1.7027: real time    1.7084
    MIXING:  cpu time    0.0920: real time    0.0918
    --------------------------------------------
      LOOP:  cpu time    9.3716: real time    9.4052

 eigenvalue-minimisations  :    88
 total energy-change (2. order) : 0.1316395E-05  (-0.1597232E-06)
 number of electron      48.0000003 magnetization      -0.0000809
 augmentation part       24.3257568 magnetization      -0.0000746

 eigenvalues of (default mixing * dielectric matrix)
  average eigenvalue GAMMA=  10.1619
 45.1512 11.7852  1.0671  1.0671  0.9503  0.9503

  free energy =  -0.683213502784E+00  energy without entropy=  -0.683213502784E+00


--------------------------------------------------------------------------------------------------------




--------------------------------------- Iteration      4(   8)  ---------------------------------------


    POTLOK:  cpu time    2.4596: real time    2.4759
    SETDIJ:  cpu time    2.4166: real time    2.4224
     EDDAV:  cpu time    3.6904: real time    3.7135
       DOS:  cpu time    0.0000: real time    0.0003
    CHARGE:  cpu time    1.6987: real time    1.7089
    MIXING:  cpu time    0.1000: real time    0.0998
    --------------------------------------------
      LOOP:  cpu time   10.3654: real time   10.4208

 eigenvalue-minimisations  :   136
 total energy-change (2. order) : 0.1029291E-04  (-0.2472318E-05)
 number of electron      48.0000003 magnetization      -0.0001520
 augmentation part       24.3258932 magnetization      -0.0001503

 eigenvalues of (default mixing * dielectric matrix)
  average eigenvalue GAMMA=   9.8211
 48.3846 15.1155  1.4487  1.0599  0.9663  0.9663  0.8065

  free energy =  -0.683203209878E+00  energy without entropy=  -0.683203209878E+00


--------------------------------------------------------------------------------------------------------




--------------------------------------- Iteration      4(   9)  ---------------------------------------


    POTLOK:  cpu time    2.4606: real time    2.4711
    SETDIJ:  cpu time    2.4096: real time    2.4190
     EDDAV:  cpu time    4.2654: real time    4.2848
       DOS:  cpu time    0.0000: real time    0.0003
    CHARGE:  cpu time    1.6987: real time    1.7089
    MIXING:  cpu time    0.1070: real time    0.1080
    --------------------------------------------
      LOOP:  cpu time   10.9413: real time   10.9921

 eigenvalue-minimisations  :   164
 total energy-change (2. order) :-0.1231229E-05  (-0.1925938E-05)
 number of electron      48.0000003 magnetization      -0.0001666
 augmentation part       24.3259771 magnetization      -0.0001695

 eigenvalues of (default mixing * dielectric matrix)
  average eigenvalue GAMMA=   8.6056
 48.3419 14.8822  1.5685  1.0602  0.9667  0.9667  0.7940  0.2642

  free energy =  -0.683204441108E+00  energy without entropy=  -0.683204441107E+00


--------------------------------------------------------------------------------------------------------




--------------------------------------- Iteration      4(  10)  ---------------------------------------


    POTLOK:  cpu time    2.4606: real time    2.4712
    SETDIJ:  cpu time    2.4156: real time    2.4245
     EDDAV:  cpu time    2.1177: real time    2.1307
       DOS:  cpu time    0.0000: real time    0.0001
    --------------------------------------------
      LOOP:  cpu time    6.9939: real time    7.0264

 eigenvalue-minimisations  :    60
 total energy-change (2. order) :-0.9573523E-07  (-0.9285292E-07)
 number of electron      48.0000003 magnetization      -0.0001666
 augmentation part       24.3259771 magnetization      -0.0001695

  free energy =  -0.683204536843E+00  energy without entropy=  -0.683204536842E+00


--------------------------------------------------------------------------------------------------------




 average (electrostatic) potential at core
  the test charge radii are     1.1405
  (the norm of the test charge is              1.0000)
       1 -75.9088       2 -75.9065       3 -75.9105       4 -75.9113
 
 
 
 E-fermi :  -5.0593     XC(G=0):  -0.5418     alpha+bet : -0.1736


 spin component 1

 k-point     1 :       0.0000    0.0000    0.0000
  band No.  band energies     occupation 
      1     -12.2515      1.00000
      2     -12.0922      1.00000
      3     -12.0745      1.00000
      4     -12.0663      1.00000
      5     -12.0607      1.00000
      6     -12.0251      1.00000
      7     -11.8979      1.00000
      8     -11.8940      1.00000
      9     -11.8805      1.00000
     10     -11.7674      1.00000
     11     -11.7556      1.00000
     12     -11.7484      1.00000
     13     -11.7460      1.00000
     14     -11.7367      1.00000
     15     -11.7318      1.00000
     16     -11.7196      1.00000
     17     -11.7103      1.00000
     18     -11.6134      1.00000
     19     -11.5954      1.00000
     20     -11.5886      1.00000
     21      -8.0338      1.00000
     22      -5.2314      1.00000
     23      -5.1717      1.00000
     24      -5.0828      1.00000
     25      -2.2087      0.00000
     26      -1.7923      0.00000
     27      -1.7765      0.00000
     28      -1.7306      0.00000
     29      -1.3915      0.00000
     30      -1.2850      0.00000

 spin component 2

 k-point     1 :       0.0000    0.0000    0.0000
  band No.  band energies     occupation 
      1     -12.2515      1.00000
      2     -12.0922      1.00000
      3     -12.0745      1.00000
      4     -12.0663      1.00000
      5     -12.0607      1.00000
      6     -12.0251      1.00000
      7     -11.8979      1.00000
      8     -11.8940      1.00000
      9     -11.8805      1.00000
     10     -11.7674      1.00000
     11     -11.7556      1.00000
     12     -11.7484      1.00000
     13     -11.7460      1.00000
     14     -11.7367      1.00000
     15     -11.7318      1.00000
     16     -11.7196      1.00000
     17     -11.7103      1.00000
     18     -11.6134      1.00000
     19     -11.5954      1.00000
     20     -11.5886      1.00000
     21      -8.0338      1.00000
     22      -5.2314      1.00000
     23      -5.1717      1.00000
     24      -5.0828      1.00000
     25      -2.2087      0.00000
     26      -1.7923      0.00000
     27      -1.7765      0.00000
     28      -1.7306      0.00000
     29      -1.3915      0.00000
     30      -1.2850      0.00000


--------------------------------------------------------------------------------------------------------


 soft charge-density along one line, spin component           1
         0         1         2         3         4         5         6         7         8         9
 total charge-density along one line
 
 soft charge-density along one line, spin component           2
         0         1         2         3         4         5         6         7         8         9
 total charge-density along one line
 
 pseudopotential strength for first ion, spin component:           1
-16.186   0.003  -0.001  -0.001   0.000 -15.786   0.003  -0.001
  0.003 -16.187  -0.001   0.001   0.001   0.003 -15.787  -0.001
 -0.001  -0.001 -16.189   0.002   0.001  -0.001  -0.001 -15.789
 -0.001   0.001   0.002 -16.190   0.003  -0.001   0.001   0.002
  0.000   0.001   0.001   0.003 -16.186   0.000   0.001   0.001
-15.786   0.003  -0.001  -0.001   0.000 -15.375   0.003  -0.001
  0.003 -15.787  -0.001   0.001   0.001   0.003 -15.376  -0.001
 -0.001  -0.001 -15.789   0.002   0.001  -0.001  -0.001 -15.378
 -0.001   0.001   0.002 -15.790   0.003  -0.001   0.001   0.002
  0.000   0.001   0.001   0.003 -15.786   0.000   0.001   0.001
 -0.000   0.001   0.001  -0.001   0.001  -0.000   0.000   0.001
  0.000  -0.000  -0.000   0.000  -0.000   0.000  -0.000  -0.000
 -0.002   0.002  -0.000   0.000  -0.000  -0.002   0.002  -0.000
  0.000   0.000   0.002  -0.001  -0.000   0.000   0.000   0.002
  0.000   0.000   0.001   0.002  -0.002   0.000   0.000   0.001
  0.001  -0.002   0.000   0.000   0.000   0.001  -0.001   0.000
  0.000  -0.000  -0.002   0.001  -0.000   0.000  -0.000  -0.002
 -0.000   0.000  -0.001  -0.002   0.001  -0.000   0.000  -0.001
  0.004   0.000   0.000  -0.001  -0.001   0.004   0.000   0.000
 -0.004   0.003   0.000  -0.001  -0.000  -0.003   0.003   0.000
 -0.002  -0.005  -0.001  -0.000  -0.000  -0.001  -0.004  -0.000
  0.001   0.001  -0.005  -0.002  -0.001   0.001   0.001  -0.005
  0.000  -0.000   0.003  -0.004  -0.001   0.000  -0.000   0.003
 -0.000   0.000  -0.000   0.002  -0.004  -0.000   0.000  -0.000
  0.001   0.001   0.000   0.000   0.004   0.001   0.001   0.000
 -0.007  -0.001  -0.000   0.001   0.001  -0.006  -0.001  -0.000
  0.006  -0.005  -0.000   0.001   0.000   0.006  -0.004  -0.000
  0.003   0.008   0.001   0.001   0.000   0.003   0.008   0.001
 -0.001  -0.001   0.008   0.004   0.001  -0.001  -0.001   0.008
 -0.000   0.001  -0.005   0.007   0.002  -0.000   0.001  -0.004
  0.000  -0.001   0.000  -0.004   0.006   0.000  -0.001   0.000
 -0.001  -0.001  -0.000  -0.001  -0.007  -0.001  -0.001  -0.000
 pseudopotential strength for first ion, spin component:           2
-16.186   0.003  -0.001  -0.001   0.000 -15.786   0.003  -0.001
  0.003 -16.187  -0.001   0.001   0.001   0.003 -15.787  -0.001
 -0.001  -0.001 -16.189   0.002   0.001  -0.001  -0.001 -15.789
 -0.001   0.001   0.002 -16.190   0.003  -0.001   0.001   0.002
  0.000   0.001   0.001   0.003 -16.186   0.000   0.001   0.001
-15.786   0.003  -0.001  -0.001   0.000 -15.375   0.003  -0.001
  0.003 -15.787  -0.001   0.001   0.001   0.003 -15.376  -0.001
 -0.001  -0.001 -15.789   0.002   0.001  -0.001  -0.001 -15.378
 -0.001   0.001   0.002 -15.790   0.003  -0.001   0.001   0.002
  0.000   0.001   0.001   0.003 -15.786   0.000   0.001   0.001
 -0.000   0.001   0.001  -0.001   0.001  -0.000   0.000   0.001
  0.000  -0.000  -0.000   0.000  -0.000   0.000  -0.000  -0.000
 -0.002   0.002  -0.000   0.000  -0.000  -0.002   0.002  -0.000
  0.000   0.000   0.002  -0.001  -0.000   0.000   0.000   0.002
  0.000   0.000   0.001   0.002  -0.002   0.000   0.000   0.001
  0.001  -0.002   0.000   0.000   0.000   0.001  -0.001   0.000
  0.000  -0.000  -0.002   0.001  -0.000   0.000  -0.000  -0.002
 -0.000   0.000  -0.001  -0.002   0.001  -0.000   0.000  -0.001
  0.004   0.000   0.000  -0.001  -0.001   0.004   0.000   0.000
 -0.004   0.003   0.000  -0.001  -0.000  -0.003   0.003   0.000
 -0.002  -0.005  -0.001  -0.000  -0.000  -0.001  -0.004  -0.000
  0.001   0.001  -0.005  -0.002  -0.001   0.001   0.001  -0.005
  0.000  -0.000   0.003  -0.004  -0.001   0.000  -0.000   0.003
 -0.000   0.000  -0.000   0.002  -0.004  -0.000   0.000  -0.000
  0.001   0.001   0.000   0.000   0.004   0.001   0.001   0.000
 -0.007  -0.001  -0.000   0.001   0.001  -0.006  -0.001  -0.000
  0.006  -0.005  -0.000   0.001   0.000   0.006  -0.004  -0.000
  0.003   0.008   0.001   0.001   0.000   0.003   0.008   0.001
 -0.001  -0.001   0.008   0.004   0.001  -0.001  -0.001   0.008
 -0.000   0.001  -0.005   0.007   0.002  -0.000   0.001  -0.004
  0.000  -0.001   0.000  -0.004   0.006   0.000  -0.001   0.000
 -0.001  -0.001  -0.000  -0.001  -0.007  -0.001  -0.001  -0.000
 total augmentation occupancy for first ion, spin component:           1
  2.258  -0.113   0.105  -0.020  -0.042  -0.233   0.121  -0.109   0.017   0.043   0.019   0.001  -0.075   0.021   0.036  -0.002
 -0.113   2.277   0.067   0.068  -0.047   0.121  -0.255  -0.070  -0.065   0.050  -0.022  -0.002   0.083   0.029   0.021   0.002
  0.105   0.067   2.306  -0.003  -0.084  -0.109  -0.070  -0.289   0.009   0.087  -0.032  -0.002  -0.007   0.086   0.049  -0.000
 -0.020   0.068  -0.003   2.224  -0.074   0.017  -0.065   0.009  -0.210   0.082   0.061   0.004   0.023  -0.046   0.068   0.000
 -0.042  -0.047  -0.084  -0.074   2.151   0.043   0.050   0.087   0.082  -0.124  -0.029  -0.002  -0.004  -0.007  -0.056  -0.000
 -0.233   0.121  -0.109   0.017   0.043   0.204  -0.128   0.112  -0.013  -0.044  -0.018  -0.001   0.073  -0.020  -0.036   0.002
  0.121  -0.255  -0.070  -0.065   0.050  -0.128   0.228   0.073   0.063  -0.052   0.020   0.002  -0.082  -0.029  -0.020  -0.003
 -0.109  -0.070  -0.289   0.009   0.087   0.112   0.073   0.267  -0.014  -0.090   0.029   0.002   0.007  -0.085  -0.047   0.000
  0.017  -0.065   0.009  -0.210   0.082  -0.013   0.063  -0.014   0.192  -0.090  -0.057  -0.004  -0.022   0.046  -0.068  -0.000
  0.043   0.050   0.087   0.082  -0.124  -0.044  -0.052  -0.090  -0.090   0.094   0.027   0.002   0.005   0.007   0.055   0.000
  0.019  -0.022  -0.032   0.061  -0.029  -0.018   0.020   0.029  -0.057   0.027   1.859   0.001  -0.003  -0.014   0.011  -0.001
  0.001  -0.002  -0.002   0.004  -0.002  -0.001   0.002   0.002  -0.004   0.002   0.001   0.000  -0.001  -0.002   0.002  -0.000
 -0.075   0.083  -0.007   0.023  -0.004   0.073  -0.082   0.007  -0.022   0.005  -0.003  -0.001   0.036   0.002  -0.002   0.001
  0.021   0.029   0.086  -0.046  -0.007  -0.020  -0.029  -0.085   0.046   0.007  -0.014  -0.002   0.002   0.041  -0.004   0.000
  0.036   0.021   0.049   0.068  -0.056  -0.036  -0.020  -0.047  -0.068   0.055   0.011   0.002  -0.002  -0.004   0.039  -0.000
 -0.002   0.002  -0.000   0.000  -0.000   0.002  -0.003   0.000  -0.000   0.000  -0.001  -0.000   0.001   0.000  -0.000   0.000
  0.000   0.001   0.003  -0.002   0.000  -0.000  -0.001  -0.003   0.002  -0.000  -0.003  -0.000   0.000   0.002  -0.000   0.000
  0.001   0.000   0.001   0.003  -0.002  -0.001  -0.000  -0.001  -0.003   0.002   0.002   0.000  -0.000  -0.000   0.001  -0.000
 -0.009   0.005  -0.007  -0.001   0.003   0.012  -0.005   0.008   0.001  -0.004  -0.003  -0.000   0.004  -0.001  -0.003   0.000
  0.009  -0.008   0.004  -0.004  -0.000  -0.012   0.010  -0.004   0.003   0.000  -0.005   0.000  -0.005   0.001   0.000  -0.000
 -0.002   0.009   0.009   0.004  -0.006   0.001  -0.013  -0.011  -0.004   0.006  -0.002  -0.000   0.003   0.003   0.003   0.000
  0.004   0.006   0.008   0.003  -0.006  -0.004  -0.005  -0.012  -0.005   0.006   0.000   0.000   0.001   0.003   0.004   0.000
 -0.008   0.004  -0.007   0.003   0.000   0.008  -0.004   0.009  -0.007  -0.001  -0.002   0.000   0.003  -0.004   0.000   0.000
  0.000  -0.006  -0.005  -0.005   0.003  -0.000   0.006   0.005   0.008  -0.006   0.001  -0.000  -0.002  -0.000  -0.003  -0.000
  0.000   0.002   0.001   0.001   0.001   0.001  -0.001  -0.001  -0.001   0.002  -0.001   0.000   0.000   0.000   0.001   0.000
 -0.003   0.002  -0.003  -0.000   0.001   0.005  -0.002   0.003   0.000  -0.002  -0.001  -0.000   0.001  -0.001  -0.001   0.000
  0.003  -0.003   0.002  -0.002  -0.000  -0.005   0.004  -0.002   0.001   0.000  -0.002   0.000  -0.002   0.000   0.000  -0.000
 -0.001   0.003   0.004   0.002  -0.002   0.001  -0.006  -0.005  -0.002   0.002  -0.001  -0.000   0.001   0.001   0.001   0.000
  0.002   0.002   0.003   0.001  -0.002  -0.001  -0.002  -0.005  -0.002   0.003   0.000   0.000   0.000   0.001   0.002   0.000
 -0.003   0.002  -0.002   0.001  -0.000   0.003  -0.002   0.004  -0.003  -0.000  -0.001   0.000   0.001  -0.002   0.000   0.000
  0.000  -0.002  -0.002  -0.002   0.001  -0.000   0.003   0.002   0.003  -0.003   0.000  -0.000  -0.001  -0.000  -0.001  -0.000
  0.000   0.001   0.001   0.001   0.001   0.000  -0.001  -0.000  -0.001   0.001  -0.001   0.000   0.000   0.000   0.000   0.000
 total augmentation occupancy for first ion, spin component:           2
 -0.000  -0.000   0.000  -0.000  -0.000  -0.000   0.000  -0.000   0.000  -0.000  -0.000   0.000  -0.000   0.000   0.000  -0.000
 -0.000   0.000   0.000   0.000  -0.000   0.000  -0.000  -0.000  -0.000   0.000   0.000  -0.000   0.000   0.000   0.000   0.000
  0.000   0.000   0.000   0.000  -0.000  -0.000  -0.000  -0.000  -0.000   0.000   0.000   0.000  -0.000   0.000   0.000  -0.000
 -0.000   0.000   0.000  -0.000   0.000   0.000  -0.000  -0.000   0.000  -0.000  -0.000   0.000   0.000   0.000   0.000   0.000
 -0.000  -0.000  -0.000   0.000  -0.000  -0.000   0.000   0.000  -0.000   0.000   0.000  -0.000  -0.000  -0.000  -0.000  -0.000
 -0.000   0.000  -0.000   0.000  -0.000   0.000  -0.000   0.000  -0.000   0.000   0.000  -0.000   0.000  -0.000   0.000   0.000
  0.000  -0.000  -0.000  -0.000   0.000  -0.000   0.000  -0.000   0.000  -0.000  -0.000   0.000  -0.000   0.000  -0.000  -0.000
 -0.000  -0.000  -0.000  -0.000   0.000   0.000  -0.000  -0.000   0.000   0.000  -0.000  -0.000   0.000  -0.000  -0.000  -0.000
  0.000  -0.000  -0.000   0.000  -0.000  -0.000   0.000   0.000  -0.000   0.000   0.000   0.000  -0.000  -0.000   0.000   0.000
 -0.000   0.000   0.000  -0.000   0.000   0.000  -0.000   0.000   0.000  -0.000  -0.000   0.000   0.000   0.000  -0.000   0.000
 -0.000   0.000   0.000  -0.000   0.000   0.000  -0.000  -0.000   0.000  -0.000   0.000   0.000   0.000   0.000  -0.000   0.000
  0.000  -0.000   0.000   0.000  -0.000  -0.000   0.000  -0.000   0.000   0.000   0.000  -0.000  -0.000   0.000   0.000  -0.000
 -0.000   0.000  -0.000   0.000  -0.000   0.000  -0.000   0.000  -0.000   0.000   0.000  -0.000   0.000  -0.000   0.000   0.000
  0.000   0.000   0.000   0.000  -0.000  -0.000   0.000  -0.000  -0.000   0.000   0.000   0.000  -0.000  -0.000   0.000   0.000
  0.000   0.000   0.000   0.000  -0.000   0.000  -0.000  -0.000   0.000  -0.000  -0.000   0.000   0.000   0.000   0.000  -0.000
 -0.000   0.000  -0.000   0.000  -0.000   0.000  -0.000  -0.000   0.000   0.000   0.000  -0.000   0.000   0.000  -0.000   0.000
  0.000   0.000   0.000  -0.000  -0.000  -0.000  -0.000  -0.000  -0.000   0.000   0.000   0.000  -0.000   0.000   0.000   0.000
  0.000   0.000   0.000   0.000  -0.000  -0.000   0.000  -0.000   0.000   0.000  -0.000   0.000  -0.000   0.000   0.000  -0.000
 -0.000  -0.000   0.000   0.000   0.000  -0.000   0.000  -0.000  -0.000   0.000   0.000  -0.000  -0.000  -0.000   0.000  -0.000
  0.000  -0.000   0.000   0.000   0.000   0.000  -0.000   0.000  -0.000  -0.000   0.000   0.000   0.000   0.000  -0.000   0.000
  0.000   0.000   0.000   0.000   0.000  -0.000   0.000   0.000   0.000  -0.000   0.000   0.000  -0.000  -0.000  -0.000  -0.000
 -0.000  -0.000   0.000   0.000   0.000  -0.000   0.000   0.000   0.000  -0.000   0.000   0.000  -0.000  -0.000   0.000  -0.000
 -0.000   0.000  -0.000   0.000   0.000  -0.000   0.000  -0.000   0.000   0.000   0.000  -0.000  -0.000  -0.000   0.000  -0.000
  0.000  -0.000   0.000  -0.000   0.000   0.000  -0.000  -0.000  -0.000   0.000  -0.000   0.000   0.000  -0.000   0.000   0.000
 -0.000  -0.000  -0.000  -0.000  -0.000  -0.000   0.000   0.000   0.000   0.000   0.000  -0.000  -0.000   0.000  -0.000  -0.000
 -0.000  -0.000   0.000   0.000   0.000  -0.000   0.000  -0.000  -0.000   0.000   0.000  -0.000  -0.000  -0.000   0.000  -0.000
  0.000  -0.000   0.000   0.000   0.000   0.000  -0.000   0.000   0.000  -0.000   0.000  -0.000   0.000   0.000  -0.000   0.000
  0.000   0.000   0.000   0.000   0.000  -0.000   0.000   0.000  -0.000  -0.000   0.000   0.000  -0.000  -0.000   0.000  -0.000
 -0.000  -0.000   0.000   0.000   0.000  -0.000   0.000  -0.000  -0.000   0.000   0.000   0.000  -0.000  -0.000   0.000  -0.000
 -0.000   0.000  -0.000   0.000   0.000  -0.000   0.000   0.000   0.000   0.000   0.000  -0.000  -0.000  -0.000   0.000  -0.000
  0.000  -0.000   0.000  -0.000   0.000   0.000  -0.000  -0.000  -0.000   0.000  -0.000   0.000   0.000  -0.000   0.000   0.000
 -0.000  -0.000  -0.000  -0.000  -0.000  -0.000   0.000  -0.000   0.000   0.000   0.000  -0.000  -0.000   0.000  -0.000  -0.000


------------------------ aborting loop because EDIFF is reached ----------------------------------------


 


 total charge     
 
# of ion       s       p       d       f       tot
--------------------------------------------------
    1        0.850   0.074   9.641   0.001  10.567
    2        0.850   0.076   9.641   0.001  10.568
    3        0.851   0.071   9.641   0.001  10.565
    4        0.851   0.070   9.641   0.001  10.564
--------------------------------------------------
tot          3.403   0.291  38.564   0.006  42.264

 


 magnetization (x)
 
# of ion       s       p       d       f       tot
--------------------------------------------------
    1        0.000   0.000  -0.000  -0.000   0.000
    2        0.000   0.000  -0.000  -0.000   0.000
    3        0.000   0.000  -0.000  -0.000   0.000
    4        0.000   0.000  -0.000  -0.000   0.000
--------------------------------------------------
tot          0.000   0.000  -0.000  -0.000   0.000

 
    CHARGE:  cpu time    1.6937: real time    1.7025
    FORLOC:  cpu time    0.0330: real time    0.0330
    FORNL :  cpu time    9.0376: real time    9.0952
    FORCOR:  cpu time    4.6813: real time    4.7164
    FORHAR:  cpu time    0.2980: real time    0.2997
    MIXING:  cpu time    0.1160: real time    0.1168
    OFIELD:  cpu time    0.0000: real time    0.0000

 VOLUME and BASIS-vectors are now :
 -----------------------------------------------------------------------------
  energy-cutoff  :      500.00
  volume of cell :     4913.00
      direct lattice vectors                 reciprocal lattice vectors
    17.000000000  0.000000000  0.000000000     0.058823529  0.000000000  0.000000000
     0.000000000 17.000000000  0.000000000     0.000000000  0.058823529  0.000000000
     0.000000000  0.000000000 17.000000000     0.000000000  0.000000000  0.058823529

  length of vectors
    17.000000000 17.000000000 17.000000000     0.058823529  0.058823529  0.058823529


 FORCES acting on ions
    electron-ion (+dipol)            ewald-force                    non-local-force                 convergence-correction
 -----------------------------------------------------------------------------------------------
   0.301E+03 -.107E+03 -.369E+03   -.301E+03 0.107E+03 0.369E+03   0.699E-01 -.651E-01 -.856E-01   -.126E-01 0.119E-01 0.427E-02
   -.190E+03 -.409E+03 0.189E+03   0.190E+03 0.410E+03 -.189E+03   -.365E-01 -.142E+00 0.313E-01   -.819E-02 -.356E-01 -.299E-01
   0.248E+03 0.235E+03 0.344E+03   -.248E+03 -.236E+03 -.344E+03   0.198E-01 0.745E-01 0.589E-01   -.103E-01 0.606E-01 -.325E-01
   -.359E+03 0.281E+03 -.165E+03   0.359E+03 -.281E+03 0.165E+03   -.514E-01 0.772E-01 -.273E-03   0.364E-01 0.272E-01 0.118E-01
 -----------------------------------------------------------------------------------------------
   -.692E-02 -.125E-01 0.438E-01   -.568E-13 0.000E+00 -.284E-13   0.171E-02 -.551E-01 0.429E-02   0.536E-02 0.641E-01 -.463E-01
 
 
 POSITION                                       TOTAL-FORCE (eV/Angst)
 -----------------------------------------------------------------------------------
     15.95989      0.25787      1.44765         0.008650      0.014866     -0.007820
      0.91244      1.44553     16.22190        -0.006351      0.021990      0.012615
     16.13226     15.92316     15.57440         0.040356     -0.023280      0.032666
      1.63208     15.73111      0.67067        -0.042655     -0.013576     -0.037462
 -----------------------------------------------------------------------------------
    total drift:                                0.000157     -0.003586      0.001813


--------------------------------------------------------------------------------------------------------



  FREE ENERGIE OF THE ION-ELECTRON SYSTEM (eV)
  ---------------------------------------------------
  free  energy   TOTEN  =        -0.68320454 eV

  energy  without entropy=       -0.68320454  energy(sigma->0) =       -0.68320454
 
 d Force = 0.5595915E-02[ 0.359E-02, 0.760E-02]  d Energy = 0.5717404E-02-0.121E-03
 d Force = 0.7697547E+01[ 0.761E+01, 0.778E+01]  d Ewald  = 0.7698064E+01-0.518E-03


--------------------------------------------------------------------------------------------------------


    POTLOK:  cpu time    4.8773: real time    4.8976


--------------------------------------------------------------------------------------------------------




--------------------------------------------------------------------------------------------------------


    WAVPRE:  cpu time    0.0980: real time    0.7474
    FEWALD:  cpu time    0.0000: real time    0.0001

 real space projection operators:
  total allocation   :       2565.00 KBytes
  max/ min on nodes  :        646.50        637.75

    ORTHCH:  cpu time    0.3959: real time    0.4005
     LOOP+:  cpu time  124.0171: real time  125.2902


--------------------------------------- Iteration      5(   1)  ---------------------------------------


    POTLOK:  cpu time    2.4526: real time    2.4781
    SETDIJ:  cpu time    2.4086: real time    2.4192
     EDDAV:  cpu time    4.5993: real time    4.6221
       DOS:  cpu time    0.0010: real time    0.0003
    CHARGE:  cpu time    1.6987: real time    1.7070
    MIXING:  cpu time    0.0540: real time    0.0549
    --------------------------------------------
      LOOP:  cpu time   11.2143: real time   11.2816

 eigenvalue-minimisations  :   180
 total energy-change (2. order) : 0.1233376E+00  (-0.1605108E+02)
 number of electron      48.0000001 magnetization      -0.0001084
 augmentation part       24.3778247 magnetization      -0.0001102

  free energy =  -0.559866851876E+00  energy without entropy=  -0.559866851876E+00


--------------------------------------------------------------------------------------------------------




--------------------------------------- Iteration      5(   2)  ---------------------------------------


    POTLOK:  cpu time    2.4566: real time    2.4843
    SETDIJ:  cpu time    2.4356: real time    2.4449
     EDDAV:  cpu time    4.3593: real time    4.3825
       DOS:  cpu time    0.0010: real time    0.0002
    CHARGE:  cpu time    1.6997: real time    1.7074
    MIXING:  cpu time    0.0620: real time    0.0631
    --------------------------------------------
      LOOP:  cpu time   11.0143: real time   11.0824

 eigenvalue-minimisations  :   168
 total energy-change (2. order) :-0.1217233E+00  (-0.1224999E+00)
 number of electron      48.0000001 magnetization      -0.0000982
 augmentation part       24.3245098 magnetization      -0.0000998

 eigenvalues of (default mixing * dielectric matrix)
  average eigenvalue GAMMA=   0.9346
  0.9346

  free energy =  -0.681590158457E+00  energy without entropy=  -0.681590158457E+00


--------------------------------------------------------------------------------------------------------




--------------------------------------- Iteration      5(   3)  ---------------------------------------


    POTLOK:  cpu time    2.4546: real time    2.4712
    SETDIJ:  cpu time    2.4366: real time    2.4445
     EDDAV:  cpu time    4.8393: real time    4.8650
       DOS:  cpu time    0.0000: real time    0.0003
    CHARGE:  cpu time    1.6977: real time    1.7074
    MIXING:  cpu time    0.0680: real time    0.0686
    --------------------------------------------
      LOOP:  cpu time   11.4963: real time   11.5570

 eigenvalue-minimisations  :   192
 total energy-change (2. order) :-0.1725361E-02  (-0.1480985E-02)
 number of electron      48.0000001 magnetization      -0.0000837
 augmentation part       24.3275357 magnetization      -0.0000852

 eigenvalues of (default mixing * dielectric matrix)
  average eigenvalue GAMMA=   1.1519
  1.1519  1.1519

  free energy =  -0.683315519864E+00  energy without entropy=  -0.683315519864E+00


--------------------------------------------------------------------------------------------------------




--------------------------------------- Iteration      5(   4)  ---------------------------------------


    POTLOK:  cpu time    2.4616: real time    2.4700
    SETDIJ:  cpu time    2.4336: real time    2.4430
     EDDAV:  cpu time    4.3453: real time    4.3665
       DOS:  cpu time    0.0000: real time    0.0003
    CHARGE:  cpu time    1.6977: real time    1.7067
    MIXING:  cpu time    0.0710: real time    0.0728
    --------------------------------------------
      LOOP:  cpu time   11.0093: real time   11.0593

 eigenvalue-minimisations  :   168
 total energy-change (2. order) : 0.2391815E-05  (-0.3800896E-04)
 number of electron      48.0000001 magnetization       0.0001349
 augmentation part       24.3271913 magnetization       0.0001336

 eigenvalues of (default mixing * dielectric matrix)
  average eigenvalue GAMMA=   9.3973
 26.1823  1.0785  0.9312

  free energy =  -0.683313128049E+00  energy without entropy=  -0.683313128049E+00


--------------------------------------------------------------------------------------------------------




--------------------------------------- Iteration      5(   5)  ---------------------------------------


    POTLOK:  cpu time    2.4586: real time    2.4688
    SETDIJ:  cpu time    2.4346: real time    2.4444
     EDDAV:  cpu time    4.0144: real time    4.0348
       DOS:  cpu time    0.0010: real time    0.0004
    CHARGE:  cpu time    1.6977: real time    1.7064
    MIXING:  cpu time    0.0800: real time    0.0793
    --------------------------------------------
      LOOP:  cpu time   10.6864: real time   10.7341

 eigenvalue-minimisations  :   152
 total energy-change (2. order) :-0.1695728E-04  (-0.4260136E-04)
 number of electron      48.0000001 magnetization       0.0002032
 augmentation part       24.3269720 magnetization       0.0002044

 eigenvalues of (default mixing * dielectric matrix)
  average eigenvalue GAMMA=  10.9119
 40.5448  0.9512  0.9722  1.1794

  free energy =  -0.683330085327E+00  energy without entropy=  -0.683330085327E+00


--------------------------------------------------------------------------------------------------------




--------------------------------------- Iteration      5(   6)  ---------------------------------------


    POTLOK:  cpu time    2.4566: real time    2.4730
    SETDIJ:  cpu time    2.4356: real time    2.4430
     EDDAV:  cpu time    4.2594: real time    4.2843
       DOS:  cpu time    0.0000: real time    0.0003
    CHARGE:  cpu time    1.6967: real time    1.7046
    MIXING:  cpu time    0.0890: real time    0.0888
    --------------------------------------------
      LOOP:  cpu time   10.9373: real time   10.9940

 eigenvalue-minimisations  :   164
 total energy-change (2. order) :-0.1188665E-03  (-0.2920513E-04)
 number of electron      48.0000001 magnetization       0.0002229
 augmentation part       24.3268622 magnetization       0.0002256

 eigenvalues of (default mixing * dielectric matrix)
  average eigenvalue GAMMA=   8.6269
 39.2250  1.1244  0.9620  0.9533  0.8700

  free energy =  -0.683448951836E+00  energy without entropy=  -0.683448951836E+00


--------------------------------------------------------------------------------------------------------




--------------------------------------- Iteration      5(   7)  ---------------------------------------


    POTLOK:  cpu time    2.4536: real time    2.4734
    SETDIJ:  cpu time    2.4086: real time    2.4171
     EDDAV:  cpu time    3.6035: real time    3.6218
       DOS:  cpu time    0.0000: real time    0.0004
    CHARGE:  cpu time    1.6977: real time    1.7076
    MIXING:  cpu time    0.0910: real time    0.0921
    --------------------------------------------
      LOOP:  cpu time   10.2544: real time   10.3124

 eigenvalue-minimisations  :   132
 total energy-change (2. order) :-0.1292413E-05  (-0.1324346E-05)
 number of electron      48.0000001 magnetization      -0.0001024
 augmentation part       24.3268779 magnetization      -0.0000999

 eigenvalues of (default mixing * dielectric matrix)
  average eigenvalue GAMMA=   9.9971
 41.7863 14.2072  1.0487  1.0487  0.9458  0.9458

  free energy =  -0.683450244249E+00  energy without entropy=  -0.683450244249E+00


--------------------------------------------------------------------------------------------------------




--------------------------------------- Iteration      5(   8)  ---------------------------------------


    POTLOK:  cpu time    2.4606: real time    2.4808
    SETDIJ:  cpu time    2.3836: real time    2.3955
     EDDAV:  cpu time    3.6894: real time    3.7060
       DOS:  cpu time    0.0010: real time    0.0004
    CHARGE:  cpu time    1.6987: real time    1.7078
    MIXING:  cpu time    0.1000: real time    0.1007
    --------------------------------------------
      LOOP:  cpu time   10.3334: real time   10.3912

 eigenvalue-minimisations  :   136
 total energy-change (2. order) : 0.5855822E-04  (-0.1395592E-04)
 number of electron      48.0000001 magnetization      -0.0001005
 augmentation part       24.3270460 magnetization      -0.0001002

 eigenvalues of (default mixing * dielectric matrix)
  average eigenvalue GAMMA=   9.7584
 48.9459 13.8485  1.7106  1.0706  1.0000  0.9373  0.7959

  free energy =  -0.683391686033E+00  energy without entropy=  -0.683391686033E+00


--------------------------------------------------------------------------------------------------------




--------------------------------------- Iteration      5(   9)  ---------------------------------------


    POTLOK:  cpu time    2.4606: real time    2.4724
    SETDIJ:  cpu time    2.4066: real time    2.4157
     EDDAV:  cpu time    3.6035: real time    3.6220
       DOS:  cpu time    0.0000: real time    0.0003
    CHARGE:  cpu time    1.7007: real time    1.7085
    MIXING:  cpu time    0.1080: real time    0.1083
    --------------------------------------------
      LOOP:  cpu time   10.2794: real time   10.3272

 eigenvalue-minimisations  :   132
 total energy-change (2. order) :-0.2613789E-04  (-0.5005410E-05)
 number of electron      48.0000001 magnetization      -0.0001054
 augmentation part       24.3270587 magnetization      -0.0001057

 eigenvalues of (default mixing * dielectric matrix)
  average eigenvalue GAMMA=   8.5430
 48.9438 13.8092  1.7397  1.0704  1.0001  0.9373  0.7951  0.0481

  free energy =  -0.683417823921E+00  energy without entropy=  -0.683417823921E+00


--------------------------------------------------------------------------------------------------------




--------------------------------------- Iteration      5(  10)  ---------------------------------------


    POTLOK:  cpu time    2.4586: real time    2.4692
    SETDIJ:  cpu time    2.3936: real time    2.4015
     EDDAV:  cpu time    2.6996: real time    2.7133
       DOS:  cpu time    0.0000: real time    0.0001
    --------------------------------------------
      LOOP:  cpu time    7.5519: real time    7.5841

 eigenvalue-minimisations  :    88
 total energy-change (2. order) :-0.1003400E-06  (-0.1401769E-06)
 number of electron      48.0000001 magnetization      -0.0001054
 augmentation part       24.3270587 magnetization      -0.0001057

  free energy =  -0.683417924261E+00  energy without entropy=  -0.683417924261E+00


--------------------------------------------------------------------------------------------------------




 average (electrostatic) potential at core
  the test charge radii are     1.1405
  (the norm of the test charge is              1.0000)
       1 -75.9012       2 -75.9033       3 -75.9034       4 -75.9020
 
 
 
 E-fermi :  -5.0912     XC(G=0):  -0.5424     alpha+bet : -0.1736


 spin component 1

 k-point     1 :       0.0000    0.0000    0.0000
  band No.  band energies     occupation 
      1     -12.2324      1.00000
      2     -12.0781      1.00000
      3     -12.0702      1.00000
      4     -12.0485      1.00000
      5     -12.0322      1.00000
      6     -12.0221      1.00000
      7     -11.8871      1.00000
      8     -11.8805      1.00000
      9     -11.8788      1.00000
     10     -11.7581      1.00000
     11     -11.7568      1.00000
     12     -11.7460      1.00000
     13     -11.7385      1.00000
     14     -11.7331      1.00000
     15     -11.7264      1.00000
     16     -11.7153      1.00000
     17     -11.7067      1.00000
     18     -11.6127      1.00000
     19     -11.5981      1.00000
     20     -11.5833      1.00000
     21      -8.0046      1.00000
     22      -5.2163      1.00000
     23      -5.1532      1.00000
     24      -5.1169      1.00000
     25      -2.2046      0.00000
     26      -1.8008      0.00000
     27      -1.7652      0.00000
     28      -1.7293      0.00000
     29      -1.3480      0.00000
     30      -1.3285      0.00000

 spin component 2

 k-point     1 :       0.0000    0.0000    0.0000
  band No.  band energies     occupation 
      1     -12.2324      1.00000
      2     -12.0781      1.00000
      3     -12.0702      1.00000
      4     -12.0485      1.00000
      5     -12.0322      1.00000
      6     -12.0221      1.00000
      7     -11.8871      1.00000
      8     -11.8805      1.00000
      9     -11.8788      1.00000
     10     -11.7581      1.00000
     11     -11.7568      1.00000
     12     -11.7460      1.00000
     13     -11.7385      1.00000
     14     -11.7331      1.00000
     15     -11.7264      1.00000
     16     -11.7153      1.00000
     17     -11.7067      1.00000
     18     -11.6127      1.00000
     19     -11.5981      1.00000
     20     -11.5833      1.00000
     21      -8.0046      1.00000
     22      -5.2163      1.00000
     23      -5.1532      1.00000
     24      -5.1169      1.00000
     25      -2.2046      0.00000
     26      -1.8008      0.00000
     27      -1.7652      0.00000
     28      -1.7293      0.00000
     29      -1.3480      0.00000
     30      -1.3285      0.00000


--------------------------------------------------------------------------------------------------------


 soft charge-density along one line, spin component           1
         0         1         2         3         4         5         6         7         8         9
 total charge-density along one line
 
 soft charge-density along one line, spin component           2
         0         1         2         3         4         5         6         7         8         9
 total charge-density along one line
 
 pseudopotential strength for first ion, spin component:           1
-16.181   0.003  -0.001  -0.001   0.000 -15.782   0.003  -0.001
  0.003 -16.182  -0.001   0.001   0.001   0.003 -15.783  -0.001
 -0.001  -0.001 -16.184   0.002   0.001  -0.001  -0.001 -15.785
 -0.001   0.001   0.002 -16.184   0.003  -0.001   0.001   0.002
  0.000   0.001   0.001   0.003 -16.181   0.000   0.001   0.001
-15.782   0.003  -0.001  -0.001   0.000 -15.371   0.003  -0.001
  0.003 -15.783  -0.001   0.001   0.001   0.003 -15.372  -0.001
 -0.001  -0.001 -15.785   0.002   0.001  -0.001  -0.001 -15.374
 -0.001   0.001   0.002 -15.785   0.003  -0.001   0.001   0.002
  0.000   0.001   0.001   0.003 -15.782   0.000   0.001   0.001
 -0.000   0.001   0.001  -0.001   0.000  -0.000   0.001   0.000
  0.000  -0.000  -0.000   0.000  -0.000   0.000  -0.000  -0.000
 -0.001   0.002  -0.000   0.000  -0.001  -0.001   0.002  -0.000
  0.000   0.000   0.002  -0.001  -0.000   0.000   0.000   0.002
  0.000   0.000   0.001   0.001  -0.001   0.000   0.000   0.001
  0.001  -0.001   0.000   0.000   0.001   0.001  -0.001   0.000
  0.000  -0.000  -0.002   0.001  -0.000   0.000  -0.000  -0.002
 -0.000   0.000  -0.001  -0.002   0.001  -0.000   0.000  -0.001
  0.003   0.000   0.000  -0.001  -0.001   0.003   0.000   0.000
 -0.003   0.002   0.000  -0.001  -0.000  -0.003   0.002   0.000
 -0.001  -0.004  -0.001  -0.000  -0.000  -0.001  -0.004  -0.001
  0.001   0.001  -0.004  -0.002  -0.000   0.001   0.001  -0.004
  0.000  -0.000   0.002  -0.004  -0.001   0.000  -0.000   0.002
 -0.000   0.001  -0.000   0.002  -0.003  -0.000   0.001  -0.000
  0.001   0.001   0.000   0.000   0.004   0.001   0.001   0.000
 -0.006  -0.001  -0.000   0.001   0.002  -0.006  -0.001  -0.000
  0.005  -0.004  -0.000   0.002   0.000   0.005  -0.004  -0.000
  0.002   0.007   0.002   0.001   0.001   0.002   0.007   0.001
 -0.001  -0.001   0.007   0.004   0.001  -0.001  -0.001   0.007
 -0.001   0.001  -0.004   0.007   0.002  -0.001   0.001  -0.004
  0.000  -0.001   0.000  -0.004   0.006   0.000  -0.001   0.000
 -0.002  -0.001  -0.000  -0.001  -0.006  -0.002  -0.001  -0.000
 pseudopotential strength for first ion, spin component:           2
-16.181   0.003  -0.001  -0.001   0.000 -15.782   0.003  -0.001
  0.003 -16.182  -0.001   0.001   0.001   0.003 -15.783  -0.001
 -0.001  -0.001 -16.184   0.002   0.001  -0.001  -0.001 -15.785
 -0.001   0.001   0.002 -16.184   0.003  -0.001   0.001   0.002
  0.000   0.001   0.001   0.003 -16.181   0.000   0.001   0.001
-15.782   0.003  -0.001  -0.001   0.000 -15.371   0.003  -0.001
  0.003 -15.783  -0.001   0.001   0.001   0.003 -15.372  -0.001
 -0.001  -0.001 -15.785   0.002   0.001  -0.001  -0.001 -15.374
 -0.001   0.001   0.002 -15.785   0.003  -0.001   0.001   0.002
  0.000   0.001   0.001   0.003 -15.782   0.000   0.001   0.001
 -0.000   0.001   0.001  -0.001   0.000  -0.000   0.001   0.000
  0.000  -0.000  -0.000   0.000  -0.000   0.000  -0.000  -0.000
 -0.001   0.002  -0.000   0.000  -0.001  -0.001   0.002  -0.000
  0.000   0.000   0.002  -0.001  -0.000   0.000   0.000   0.002
  0.000   0.000   0.001   0.001  -0.001   0.000   0.000   0.001
  0.001  -0.001   0.000   0.000   0.001   0.001  -0.001   0.000
  0.000  -0.000  -0.002   0.001  -0.000   0.000  -0.000  -0.002
 -0.000   0.000  -0.001  -0.002   0.001  -0.000   0.000  -0.001
  0.003   0.000   0.000  -0.001  -0.001   0.003   0.000   0.000
 -0.003   0.002   0.000  -0.001  -0.000  -0.003   0.002   0.000
 -0.001  -0.004  -0.001  -0.000  -0.000  -0.001  -0.004  -0.001
  0.001   0.001  -0.004  -0.002  -0.000   0.001   0.001  -0.004
  0.000  -0.000   0.002  -0.004  -0.001   0.000  -0.000   0.002
 -0.000   0.001  -0.000   0.002  -0.003  -0.000   0.001  -0.000
  0.001   0.001   0.000   0.000   0.004   0.001   0.001   0.000
 -0.006  -0.001  -0.000   0.001   0.002  -0.006  -0.001  -0.000
  0.005  -0.004  -0.000   0.002   0.000   0.005  -0.004  -0.000
  0.002   0.007   0.002   0.001   0.001   0.002   0.007   0.001
 -0.001  -0.001   0.007   0.004   0.001  -0.001  -0.001   0.007
 -0.001   0.001  -0.004   0.007   0.002  -0.001   0.001  -0.004
  0.000  -0.001   0.000  -0.004   0.006   0.000  -0.001   0.000
 -0.002  -0.001  -0.000  -0.001  -0.006  -0.002  -0.001  -0.000
 total augmentation occupancy for first ion, spin component:           1
  2.270  -0.116   0.112  -0.012  -0.045  -0.247   0.123  -0.116   0.008   0.046   0.025   0.001  -0.077   0.022   0.041  -0.002
 -0.116   2.282   0.066   0.061  -0.048   0.123  -0.260  -0.070  -0.058   0.051  -0.027  -0.002   0.084   0.031   0.020   0.002
  0.112   0.066   2.298   0.004  -0.087  -0.116  -0.070  -0.280   0.001   0.090  -0.022  -0.002  -0.009   0.082   0.052  -0.000
 -0.012   0.061   0.004   2.222  -0.071   0.008  -0.058   0.001  -0.207   0.080   0.060   0.004   0.019  -0.044   0.069   0.000
 -0.045  -0.048  -0.087  -0.071   2.148   0.046   0.051   0.090   0.080  -0.123  -0.024  -0.002  -0.004  -0.009  -0.056  -0.000
 -0.247   0.123  -0.116   0.008   0.046   0.219  -0.131   0.119  -0.004  -0.048  -0.023  -0.002   0.076  -0.020  -0.041   0.002
  0.123  -0.260  -0.070  -0.058   0.051  -0.131   0.234   0.073   0.055  -0.053   0.025   0.002  -0.082  -0.031  -0.018  -0.003
 -0.116  -0.070  -0.280   0.001   0.090   0.119   0.073   0.257  -0.006  -0.093   0.020   0.002   0.008  -0.081  -0.050   0.000
  0.008  -0.058   0.001  -0.207   0.080  -0.004   0.055  -0.006   0.188  -0.088  -0.055  -0.004  -0.018   0.045  -0.069  -0.000
  0.046   0.051   0.090   0.080  -0.123  -0.048  -0.053  -0.093  -0.088   0.093   0.022   0.002   0.004   0.008   0.055   0.000
  0.025  -0.027  -0.022   0.060  -0.024  -0.023   0.025   0.020  -0.055   0.022   1.860   0.001  -0.004  -0.013   0.011  -0.001
  0.001  -0.002  -0.002   0.004  -0.002  -0.002   0.002   0.002  -0.004   0.002   0.001   0.000  -0.001  -0.002   0.002  -0.000
 -0.077   0.084  -0.009   0.019  -0.004   0.076  -0.082   0.008  -0.018   0.004  -0.004  -0.001   0.037   0.002  -0.003   0.001
  0.022   0.031   0.082  -0.044  -0.009  -0.020  -0.031  -0.081   0.045   0.008  -0.013  -0.002   0.002   0.041  -0.003   0.000
  0.041   0.020   0.052   0.069  -0.056  -0.041  -0.018  -0.050  -0.069   0.055   0.011   0.002  -0.003  -0.003   0.041  -0.000
 -0.002   0.002  -0.000   0.000  -0.000   0.002  -0.003   0.000  -0.000   0.000  -0.001  -0.000   0.001   0.000  -0.000   0.000
  0.000   0.001   0.003  -0.002   0.000  -0.000  -0.001  -0.003   0.002  -0.000  -0.003  -0.000   0.000   0.002  -0.000   0.000
  0.001   0.000   0.001   0.003  -0.002  -0.002  -0.000  -0.001  -0.003   0.002   0.002   0.000  -0.000  -0.000   0.002  -0.000
 -0.009   0.005  -0.008  -0.001   0.003   0.013  -0.005   0.009   0.001  -0.005  -0.004  -0.000   0.004  -0.001  -0.003   0.000
  0.009  -0.008   0.004  -0.004  -0.000  -0.013   0.011  -0.004   0.002   0.000  -0.004   0.000  -0.005   0.001   0.001  -0.000
 -0.002   0.009   0.009   0.004  -0.006   0.001  -0.013  -0.011  -0.004   0.006  -0.002  -0.000   0.003   0.003   0.003   0.000
  0.004   0.005   0.007   0.003  -0.006  -0.004  -0.005  -0.011  -0.005   0.006   0.001   0.000   0.000   0.002   0.004   0.000
 -0.008   0.003  -0.006   0.003   0.000   0.008  -0.004   0.009  -0.006  -0.001  -0.002   0.000   0.003  -0.003  -0.000   0.000
 -0.000  -0.006  -0.005  -0.005   0.003   0.000   0.007   0.005   0.007  -0.006   0.001  -0.000  -0.002  -0.000  -0.003  -0.000
  0.000   0.002   0.001   0.001   0.001   0.001  -0.001  -0.001  -0.001   0.002  -0.002  -0.000   0.001   0.000   0.000   0.000
 -0.003   0.002  -0.003  -0.001   0.001   0.005  -0.002   0.004   0.001  -0.002  -0.002  -0.000   0.002  -0.001  -0.001   0.000
  0.003  -0.003   0.002  -0.002  -0.000  -0.005   0.005  -0.002   0.001   0.000  -0.002   0.000  -0.002   0.000   0.000  -0.000
 -0.001   0.003   0.004   0.002  -0.002   0.000  -0.006  -0.005  -0.002   0.003  -0.001  -0.000   0.001   0.001   0.001   0.000
  0.002   0.002   0.002   0.001  -0.002  -0.002  -0.002  -0.005  -0.002   0.003   0.000   0.000   0.000   0.001   0.002   0.000
 -0.003   0.001  -0.002   0.001  -0.000   0.003  -0.002   0.004  -0.003  -0.000  -0.001   0.000   0.001  -0.001  -0.000   0.000
 -0.000  -0.002  -0.002  -0.002   0.001   0.000   0.003   0.002   0.003  -0.003   0.000  -0.000  -0.001  -0.000  -0.001  -0.000
  0.000   0.001   0.000   0.000   0.001   0.000  -0.001  -0.000  -0.000   0.001  -0.001  -0.000   0.000   0.000   0.000   0.000
 total augmentation occupancy for first ion, spin component:           2
  0.000   0.000   0.000  -0.000   0.000  -0.000  -0.000  -0.000   0.000  -0.000  -0.000   0.000  -0.000   0.000   0.000  -0.000
  0.000   0.000   0.000   0.000  -0.000  -0.000  -0.000  -0.000  -0.000   0.000   0.000  -0.000   0.000  -0.000   0.000   0.000
  0.000   0.000   0.000   0.000  -0.000  -0.000  -0.000  -0.000  -0.000   0.000   0.000   0.000  -0.000   0.000   0.000  -0.000
 -0.000   0.000   0.000   0.000   0.000   0.000  -0.000  -0.000  -0.000  -0.000  -0.000   0.000   0.000  -0.000   0.000   0.000
  0.000  -0.000  -0.000   0.000   0.000  -0.000   0.000   0.000  -0.000  -0.000   0.000  -0.000  -0.000  -0.000  -0.000  -0.000
 -0.000  -0.000  -0.000   0.000  -0.000  -0.000   0.000  -0.000  -0.000   0.000   0.000  -0.000  -0.000   0.000   0.000   0.000
 -0.000  -0.000  -0.000  -0.000   0.000   0.000   0.000  -0.000   0.000  -0.000  -0.000  -0.000   0.000   0.000  -0.000  -0.000
 -0.000  -0.000  -0.000  -0.000   0.000  -0.000  -0.000  -0.000  -0.000   0.000  -0.000  -0.000  -0.000  -0.000   0.000   0.000
  0.000  -0.000  -0.000  -0.000  -0.000  -0.000   0.000  -0.000   0.000   0.000   0.000  -0.000  -0.000   0.000  -0.000  -0.000
 -0.000   0.000   0.000  -0.000  -0.000   0.000  -0.000   0.000   0.000  -0.000  -0.000   0.000   0.000  -0.000  -0.000   0.000
 -0.000   0.000   0.000  -0.000   0.000   0.000  -0.000  -0.000   0.000  -0.000   0.000   0.000   0.000   0.000  -0.000   0.000
  0.000  -0.000   0.000   0.000  -0.000  -0.000  -0.000  -0.000  -0.000   0.000   0.000   0.000  -0.000   0.000   0.000  -0.000
 -0.000   0.000  -0.000   0.000  -0.000  -0.000   0.000  -0.000  -0.000   0.000   0.000  -0.000  -0.000   0.000   0.000   0.000
  0.000  -0.000   0.000  -0.000  -0.000   0.000   0.000  -0.000   0.000  -0.000   0.000   0.000   0.000   0.000  -0.000  -0.000
  0.000   0.000   0.000   0.000  -0.000   0.000  -0.000   0.000  -0.000  -0.000  -0.000   0.000   0.000  -0.000  -0.000  -0.000
 -0.000   0.000  -0.000   0.000  -0.000   0.000  -0.000   0.000  -0.000   0.000   0.000  -0.000   0.000  -0.000  -0.000   0.000
  0.000   0.000   0.000  -0.000  -0.000   0.000  -0.000  -0.000   0.000  -0.000   0.000  -0.000   0.000   0.000  -0.000   0.000
  0.000   0.000   0.000   0.000  -0.000  -0.000  -0.000  -0.000  -0.000   0.000  -0.000   0.000  -0.000  -0.000   0.000  -0.000
 -0.000  -0.000  -0.000   0.000   0.000  -0.000   0.000  -0.000   0.000   0.000  -0.000  -0.000  -0.000   0.000   0.000  -0.000
 -0.000  -0.000   0.000   0.000   0.000   0.000  -0.000   0.000  -0.000  -0.000   0.000  -0.000   0.000  -0.000  -0.000   0.000
  0.000   0.000  -0.000   0.000  -0.000  -0.000   0.000  -0.000  -0.000   0.000  -0.000   0.000  -0.000   0.000   0.000  -0.000
 -0.000   0.000   0.000   0.000   0.000   0.000  -0.000   0.000  -0.000  -0.000  -0.000   0.000   0.000  -0.000  -0.000   0.000
  0.000   0.000  -0.000   0.000   0.000  -0.000   0.000  -0.000   0.000   0.000   0.000  -0.000  -0.000   0.000  -0.000  -0.000
 -0.000   0.000   0.000   0.000   0.000   0.000  -0.000   0.000  -0.000   0.000  -0.000   0.000   0.000  -0.000   0.000   0.000
 -0.000  -0.000  -0.000  -0.000  -0.000  -0.000   0.000  -0.000   0.000  -0.000   0.000  -0.000  -0.000   0.000  -0.000  -0.000
 -0.000  -0.000  -0.000   0.000   0.000  -0.000   0.000  -0.000   0.000  -0.000  -0.000  -0.000  -0.000   0.000   0.000  -0.000
 -0.000  -0.000   0.000   0.000  -0.000   0.000  -0.000   0.000  -0.000  -0.000   0.000   0.000   0.000  -0.000  -0.000   0.000
  0.000   0.000  -0.000   0.000  -0.000  -0.000   0.000  -0.000  -0.000   0.000  -0.000   0.000  -0.000   0.000   0.000  -0.000
 -0.000   0.000   0.000   0.000   0.000   0.000  -0.000   0.000   0.000  -0.000  -0.000   0.000   0.000  -0.000  -0.000   0.000
 -0.000  -0.000  -0.000   0.000   0.000  -0.000   0.000  -0.000   0.000   0.000   0.000  -0.000  -0.000   0.000   0.000  -0.000
 -0.000   0.000   0.000   0.000   0.000   0.000  -0.000   0.000  -0.000   0.000  -0.000   0.000   0.000  -0.000   0.000   0.000
 -0.000  -0.000  -0.000  -0.000  -0.000  -0.000   0.000  -0.000   0.000  -0.000   0.000  -0.000  -0.000   0.000  -0.000  -0.000


------------------------ aborting loop because EDIFF is reached ----------------------------------------


 


 total charge     
 
# of ion       s       p       d       f       tot
--------------------------------------------------
    1        0.851   0.075   9.641   0.001  10.567
    2        0.852   0.066   9.642   0.001  10.562
    3        0.852   0.068   9.641   0.001  10.563
    4        0.851   0.074   9.641   0.001  10.567
--------------------------------------------------
tot          3.405   0.283  38.564   0.005  42.259

 


 magnetization (x)
 
# of ion       s       p       d       f       tot
--------------------------------------------------
    1        0.000   0.000  -0.000  -0.000   0.000
    2        0.000   0.000  -0.000  -0.000   0.000
    3        0.000   0.000  -0.000  -0.000   0.000
    4        0.000   0.000  -0.000  -0.000   0.000
--------------------------------------------------
tot          0.000   0.000  -0.000  -0.000   0.000

 
    CHARGE:  cpu time    1.6937: real time    1.7013
    FORLOC:  cpu time    0.0320: real time    0.0319
    FORNL :  cpu time    9.0256: real time    9.0802
    FORCOR:  cpu time    4.6933: real time    4.7115
    FORHAR:  cpu time    0.2990: real time    0.2995
    MIXING:  cpu time    0.1170: real time    0.1171
    OFIELD:  cpu time    0.0000: real time    0.0000

 VOLUME and BASIS-vectors are now :
 -----------------------------------------------------------------------------
  energy-cutoff  :      500.00
  volume of cell :     4913.00
      direct lattice vectors                 reciprocal lattice vectors
    17.000000000  0.000000000  0.000000000     0.058823529  0.000000000  0.000000000
     0.000000000 17.000000000  0.000000000     0.000000000  0.058823529  0.000000000
     0.000000000  0.000000000 17.000000000     0.000000000  0.000000000  0.058823529

  length of vectors
    17.000000000 17.000000000 17.000000000     0.058823529  0.058823529  0.058823529


 FORCES acting on ions
    electron-ion (+dipol)            ewald-force                    non-local-force                 convergence-correction
 -----------------------------------------------------------------------------------------------
   0.300E+03 -.112E+03 -.365E+03   -.301E+03 0.113E+03 0.365E+03   0.929E-01 -.409E-01 -.119E+00   -.361E-01 -.256E-01 0.299E-01
   -.184E+03 -.401E+03 0.184E+03   0.184E+03 0.401E+03 -.184E+03   -.177E-01 -.539E-01 0.340E-01   -.154E-01 -.990E-01 -.523E-01
   0.244E+03 0.232E+03 0.343E+03   -.244E+03 -.232E+03 -.343E+03   0.379E-01 0.339E-01 0.705E-01   -.353E-01 0.906E-01 -.451E-01
   -.361E+03 0.282E+03 -.162E+03   0.361E+03 -.282E+03 0.162E+03   -.107E+00 0.847E-01 -.490E-01   0.795E-01 0.286E-01 0.524E-01
 -----------------------------------------------------------------------------------------------
   0.225E-02 -.166E-01 0.758E-01   0.000E+00 0.000E+00 0.568E-13   0.653E-02 0.238E-01 -.634E-01   -.731E-02 -.541E-02 -.151E-01
 
 
 POSITION                                       TOTAL-FORCE (eV/Angst)
 -----------------------------------------------------------------------------------
     15.97188      0.26444      1.44240        -0.005909      0.020635     -0.008741
      0.93440      1.51454     16.23390        -0.040912     -0.065927      0.012152
     16.14170     15.86452     15.59338         0.040222      0.043114      0.018954
      1.58869     15.71417      0.64493         0.006599      0.002177     -0.022365
 -----------------------------------------------------------------------------------
    total drift:                                0.001465      0.001783     -0.002671


--------------------------------------------------------------------------------------------------------



  FREE ENERGIE OF THE ION-ELECTRON SYSTEM (eV)
  ---------------------------------------------------
  free  energy   TOTEN  =        -0.68341792 eV

  energy  without entropy=       -0.68341792  energy(sigma->0) =       -0.68341792
 
 d Force = 0.2275205E-03[-0.673E-02, 0.718E-02]  d Energy = 0.2133874E-03 0.141E-04
 d Force = 0.1486075E+02[ 0.145E+02, 0.152E+02]  d Ewald  = 0.1486467E+02-0.392E-02


--------------------------------------------------------------------------------------------------------


    POTLOK:  cpu time    4.8713: real time    4.8929


--------------------------------------------------------------------------------------------------------




--------------------------------------------------------------------------------------------------------


    WAVPRE:  cpu time    0.0970: real time    0.3417
    FEWALD:  cpu time    0.0010: real time    0.0001

 real space projection operators:
  total allocation   :       2564.75 KBytes
  max/ min on nodes  :        646.75        636.00

    ORTHCH:  cpu time    0.3989: real time    0.4013
     LOOP+:  cpu time  126.0238: real time  127.1646


--------------------------------------- Iteration      6(   1)  ---------------------------------------


    POTLOK:  cpu time    2.4436: real time    2.4716
    SETDIJ:  cpu time    2.4086: real time    2.4195
     EDDAV:  cpu time    4.2684: real time    4.2903
       DOS:  cpu time    0.0000: real time    0.0003
    CHARGE:  cpu time    1.6877: real time    1.7079
    MIXING:  cpu time    0.0530: real time    0.0531
    --------------------------------------------
      LOOP:  cpu time   10.8613: real time   10.9427

 eigenvalue-minimisations  :   164
 total energy-change (2. order) : 0.3248290E-01  (-0.3725091E+01)
 number of electron      48.0000001 magnetization      -0.0000437
 augmentation part       24.3377294 magnetization      -0.0000437

  free energy =  -0.650934927607E+00  energy without entropy=  -0.650934927607E+00


--------------------------------------------------------------------------------------------------------




--------------------------------------- Iteration      6(   2)  ---------------------------------------


    POTLOK:  cpu time    2.4226: real time    2.4776
    SETDIJ:  cpu time    2.4336: real time    2.4435
     EDDAV:  cpu time    4.0164: real time    4.0344
       DOS:  cpu time    0.0000: real time    0.0003
    CHARGE:  cpu time    1.6987: real time    1.7068
    MIXING:  cpu time    0.0630: real time    0.0628
    --------------------------------------------
      LOOP:  cpu time   10.6344: real time   10.7254

 eigenvalue-minimisations  :   152
 total energy-change (2. order) :-0.3301832E-01  (-0.3320811E-01)
 number of electron      48.0000001 magnetization      -0.0000391
 augmentation part       24.3255264 magnetization      -0.0000392

 eigenvalues of (default mixing * dielectric matrix)
  average eigenvalue GAMMA=   1.0215
  1.0215

  free energy =  -0.683953250615E+00  energy without entropy=  -0.683953250615E+00


--------------------------------------------------------------------------------------------------------




--------------------------------------- Iteration      6(   3)  ---------------------------------------


    POTLOK:  cpu time    2.4546: real time    2.4675
    SETDIJ:  cpu time    2.4326: real time    2.4426
     EDDAV:  cpu time    4.8393: real time    4.8646
       DOS:  cpu time    0.0010: real time    0.0004
    CHARGE:  cpu time    1.6977: real time    1.7066
    MIXING:  cpu time    0.0690: real time    0.0683
    --------------------------------------------
      LOOP:  cpu time   11.4943: real time   11.5499

 eigenvalue-minimisations  :   192
 total energy-change (2. order) :-0.1100134E-02  (-0.1063858E-02)
 number of electron      48.0000001 magnetization      -0.0000331
 augmentation part       24.3261062 magnetization      -0.0000331

 eigenvalues of (default mixing * dielectric matrix)
  average eigenvalue GAMMA=   1.1777
  0.9760  1.3794

  free energy =  -0.685053384238E+00  energy without entropy=  -0.685053384238E+00


--------------------------------------------------------------------------------------------------------




--------------------------------------- Iteration      6(   4)  ---------------------------------------


    POTLOK:  cpu time    2.4606: real time    2.4715
    SETDIJ:  cpu time    2.4326: real time    2.4431
     EDDAV:  cpu time    3.9944: real time    4.0428
       DOS:  cpu time    0.0000: real time    0.0003
    CHARGE:  cpu time    1.6967: real time    1.7043
    MIXING:  cpu time    0.0750: real time    0.0775
    --------------------------------------------
      LOOP:  cpu time   10.6594: real time   10.7395

 eigenvalue-minimisations  :   152
 total energy-change (2. order) :-0.2382385E-06  (-0.2135224E-04)
 number of electron      48.0000001 magnetization       0.0000238
 augmentation part       24.3261072 magnetization       0.0000238

 eigenvalues of (default mixing * dielectric matrix)
  average eigenvalue GAMMA=   5.8614
 15.5373  0.9554  1.0915

  free energy =  -0.685053622477E+00  energy without entropy=  -0.685053622477E+00


--------------------------------------------------------------------------------------------------------




--------------------------------------- Iteration      6(   5)  ---------------------------------------


    POTLOK:  cpu time    2.4596: real time    2.4670
    SETDIJ:  cpu time    2.4356: real time    2.4436
     EDDAV:  cpu time    4.3403: real time    4.3650
       DOS:  cpu time    0.0000: real time    0.0003
    CHARGE:  cpu time    1.6987: real time    1.7077
    MIXING:  cpu time    0.0780: real time    0.0784
    --------------------------------------------
      LOOP:  cpu time   11.0123: real time   11.0620

 eigenvalue-minimisations  :   168
 total energy-change (2. order) : 0.3490377E-04  (-0.1126670E-04)
 number of electron      48.0000001 magnetization       0.0000626
 augmentation part       24.3266743 magnetization       0.0000625

 eigenvalues of (default mixing * dielectric matrix)
  average eigenvalue GAMMA=   9.2370
 33.6805  0.9156  1.0465  1.3053

  free energy =  -0.685018718707E+00  energy without entropy=  -0.685018718707E+00


--------------------------------------------------------------------------------------------------------




--------------------------------------- Iteration      6(   6)  ---------------------------------------


    POTLOK:  cpu time    2.4636: real time    2.4717
    SETDIJ:  cpu time    2.4336: real time    2.4424
     EDDAV:  cpu time    4.2624: real time    4.2835
       DOS:  cpu time    0.0000: real time    0.0002
    CHARGE:  cpu time    1.7007: real time    1.7075
    MIXING:  cpu time    0.0840: real time    0.0859
    --------------------------------------------
      LOOP:  cpu time   10.9453: real time   10.9913

 eigenvalue-minimisations  :   164
 total energy-change (2. order) :-0.2795842E-04  (-0.9915043E-05)
 number of electron      48.0000001 magnetization       0.0000777
 augmentation part       24.3271271 magnetization       0.0000778

 eigenvalues of (default mixing * dielectric matrix)
  average eigenvalue GAMMA=   7.9376
 34.6784  1.1557  1.0333  0.9278  1.8928

  free energy =  -0.685046677127E+00  energy without entropy=  -0.685046677127E+00


--------------------------------------------------------------------------------------------------------




--------------------------------------- Iteration      6(   7)  ---------------------------------------


    POTLOK:  cpu time    2.4626: real time    2.4807
    SETDIJ:  cpu time    2.4126: real time    2.4204
     EDDAV:  cpu time    3.2665: real time    3.3084
       DOS:  cpu time    0.0000: real time    0.0003
    CHARGE:  cpu time    1.7007: real time    1.7089
    MIXING:  cpu time    0.0930: real time    0.0935
    --------------------------------------------
      LOOP:  cpu time    9.9345: real time   10.0121

 eigenvalue-minimisations  :   116
 total energy-change (2. order) :-0.6110148E-05  (-0.1251749E-05)
 number of electron      48.0000001 magnetization      -0.0000106
 augmentation part       24.3271184 magnetization      -0.0000105

 eigenvalues of (default mixing * dielectric matrix)
  average eigenvalue GAMMA=   8.8789
 38.4040 10.7700  0.9229  1.0741  1.0511  1.0511

  free energy =  -0.685052787275E+00  energy without entropy=  -0.685052787275E+00


--------------------------------------------------------------------------------------------------------




--------------------------------------- Iteration      6(   8)  ---------------------------------------


    POTLOK:  cpu time    2.4586: real time    2.4772
    SETDIJ:  cpu time    2.4106: real time    2.4197
     EDDAV:  cpu time    3.3575: real time    3.3740
       DOS:  cpu time    0.0000: real time    0.0002
    CHARGE:  cpu time    1.6997: real time    1.7081
    MIXING:  cpu time    0.0990: real time    0.0995
    --------------------------------------------
      LOOP:  cpu time   10.0255: real time   10.0788

 eigenvalue-minimisations  :   120
 total energy-change (2. order) : 0.4183245E-05  (-0.2374584E-05)
 number of electron      48.0000001 magnetization      -0.0000507
 augmentation part       24.3270116 magnetization      -0.0000507

 eigenvalues of (default mixing * dielectric matrix)
  average eigenvalue GAMMA=   9.6191
 45.8479 16.0635  1.6719  1.0886  1.0126  0.9421  0.7073

  free energy =  -0.685048604029E+00  energy without entropy=  -0.685048604029E+00


--------------------------------------------------------------------------------------------------------




--------------------------------------- Iteration      6(   9)  ---------------------------------------


    POTLOK:  cpu time    2.4456: real time    2.4693
    SETDIJ:  cpu time    2.3806: real time    2.3916
     EDDAV:  cpu time    4.0964: real time    4.1216
       DOS:  cpu time    0.0000: real time    0.0003
    CHARGE:  cpu time    1.6977: real time    1.7060
    MIXING:  cpu time    0.1120: real time    0.1118
    --------------------------------------------
      LOOP:  cpu time   10.7324: real time   10.8007

 eigenvalue-minimisations  :   156
 total energy-change (2. order) :-0.6111187E-05  (-0.1476618E-05)
 number of electron      48.0000001 magnetization      -0.0000352
 augmentation part       24.3269826 magnetization      -0.0000342

 eigenvalues of (default mixing * dielectric matrix)
  average eigenvalue GAMMA=   8.5442
 45.7345 15.1659  2.8943  1.0888  1.0135  0.9389  0.7588  0.7588

  free energy =  -0.685054715216E+00  energy without entropy=  -0.685054715216E+00


--------------------------------------------------------------------------------------------------------




--------------------------------------- Iteration      6(  10)  ---------------------------------------


    POTLOK:  cpu time    2.4506: real time    2.4654
    SETDIJ:  cpu time    2.3816: real time    2.3950
     EDDAV:  cpu time    2.1127: real time    2.1422
       DOS:  cpu time    0.0000: real time    5.3202
    --------------------------------------------
      LOOP:  cpu time    6.9449: real time   12.3227

 eigenvalue-minimisations  :    60
 total energy-change (2. order) :-0.2227152E-06  (-0.1009682E-06)
 number of electron      48.0000001 magnetization      -0.0000352
 augmentation part       24.3269826 magnetization      -0.0000342

  free energy =  -0.685054937931E+00  energy without entropy=  -0.685054937931E+00


--------------------------------------------------------------------------------------------------------




 average (electrostatic) potential at core
  the test charge radii are     1.1405
  (the norm of the test charge is              1.0000)
       1 -75.9056       2 -75.9073       3 -75.9075       4 -75.9064
 
 
 
 E-fermi :  -5.0827     XC(G=0):  -0.5423     alpha+bet : -0.1736


 spin component 1

 k-point     1 :       0.0000    0.0000    0.0000
  band No.  band energies     occupation 
      1     -12.2416      1.00000
      2     -12.0790      1.00000
      3     -12.0728      1.00000
      4     -12.0598      1.00000
      5     -12.0453      1.00000
      6     -12.0278      1.00000
      7     -11.8909      1.00000
      8     -11.8885      1.00000
      9     -11.8815      1.00000
     10     -11.7602      1.00000
     11     -11.7548      1.00000
     12     -11.7507      1.00000
     13     -11.7439      1.00000
     14     -11.7373      1.00000
     15     -11.7252      1.00000
     16     -11.7202      1.00000
     17     -11.7120      1.00000
     18     -11.6085      1.00000
     19     -11.5999      1.00000
     20     -11.5909      1.00000
     21      -8.0185      1.00000
     22      -5.2003      1.00000
     23      -5.1724      1.00000
     24      -5.1148      1.00000
     25      -2.2059      0.00000
     26      -1.7879      0.00000
     27      -1.7663      0.00000
     28      -1.7452      0.00000
     29      -1.3669      0.00000
     30      -1.3106      0.00000

 spin component 2

 k-point     1 :       0.0000    0.0000    0.0000
  band No.  band energies     occupation 
      1     -12.2416      1.00000
      2     -12.0790      1.00000
      3     -12.0728      1.00000
      4     -12.0598      1.00000
      5     -12.0453      1.00000
      6     -12.0278      1.00000
      7     -11.8909      1.00000
      8     -11.8885      1.00000
      9     -11.8815      1.00000
     10     -11.7602      1.00000
     11     -11.7548      1.00000
     12     -11.7507      1.00000
     13     -11.7439      1.00000
     14     -11.7373      1.00000
     15     -11.7252      1.00000
     16     -11.7202      1.00000
     17     -11.7120      1.00000
     18     -11.6085      1.00000
     19     -11.5999      1.00000
     20     -11.5909      1.00000
     21      -8.0185      1.00000
     22      -5.2003      1.00000
     23      -5.1724      1.00000
     24      -5.1149      1.00000
     25      -2.2059      0.00000
     26      -1.7879      0.00000
     27      -1.7663      0.00000
     28      -1.7452      0.00000
     29      -1.3669      0.00000
     30      -1.3106      0.00000


--------------------------------------------------------------------------------------------------------


 soft charge-density along one line, spin component           1
         0         1         2         3         4         5         6         7         8         9
 total charge-density along one line
 
 soft charge-density along one line, spin component           2
         0         1         2         3         4         5         6         7         8         9
 total charge-density along one line
 
 pseudopotential strength for first ion, spin component:           1
-16.184   0.003  -0.001  -0.001   0.000 -15.785   0.003  -0.001
  0.003 -16.185  -0.001   0.001   0.001   0.003 -15.786  -0.001
 -0.001  -0.001 -16.187   0.002   0.001  -0.001  -0.001 -15.787
 -0.001   0.001   0.002 -16.187   0.003  -0.001   0.001   0.002
  0.000   0.001   0.001   0.003 -16.184   0.000   0.001   0.001
-15.785   0.003  -0.001  -0.001   0.000 -15.374   0.003  -0.001
  0.003 -15.786  -0.001   0.001   0.001   0.003 -15.375  -0.001
 -0.001  -0.001 -15.787   0.002   0.001  -0.001  -0.001 -15.376
 -0.001   0.001   0.002 -15.788   0.003  -0.001   0.001   0.002
  0.000   0.001   0.001   0.003 -15.784   0.000   0.001   0.001
 -0.000   0.001   0.001  -0.001   0.001  -0.000   0.001   0.001
  0.000  -0.000  -0.000   0.000  -0.000   0.000  -0.000  -0.000
 -0.002   0.002  -0.000   0.000  -0.000  -0.002   0.002  -0.000
  0.000   0.000   0.002  -0.001  -0.000   0.000   0.000   0.002
  0.000   0.000   0.001   0.002  -0.001   0.000   0.000   0.001
  0.001  -0.002   0.000   0.000   0.000   0.001  -0.001   0.000
  0.000  -0.000  -0.002   0.001  -0.000   0.000  -0.000  -0.002
 -0.000   0.000  -0.001  -0.002   0.001  -0.000   0.000  -0.001
  0.004   0.000   0.000  -0.001  -0.001   0.004   0.000   0.000
 -0.003   0.003   0.000  -0.001  -0.000  -0.003   0.002   0.000
 -0.002  -0.005  -0.001  -0.000  -0.000  -0.001  -0.004  -0.001
  0.001   0.001  -0.005  -0.002  -0.001   0.001   0.001  -0.004
  0.000  -0.000   0.003  -0.004  -0.001   0.000  -0.000   0.003
 -0.000   0.001  -0.000   0.002  -0.003  -0.000   0.001  -0.000
  0.001   0.001   0.000   0.000   0.004   0.001   0.001   0.000
 -0.006  -0.001  -0.000   0.001   0.002  -0.006  -0.001  -0.000
  0.006  -0.005  -0.000   0.002   0.000   0.005  -0.004  -0.000
  0.003   0.008   0.001   0.001   0.000   0.002   0.007   0.001
 -0.001  -0.001   0.008   0.004   0.001  -0.001  -0.001   0.007
 -0.000   0.001  -0.005   0.007   0.002  -0.000   0.001  -0.004
  0.000  -0.001   0.000  -0.004   0.006   0.000  -0.001   0.000
 -0.002  -0.001  -0.000  -0.001  -0.007  -0.002  -0.001  -0.000
 pseudopotential strength for first ion, spin component:           2
-16.184   0.003  -0.001  -0.001   0.000 -15.785   0.003  -0.001
  0.003 -16.185  -0.001   0.001   0.001   0.003 -15.786  -0.001
 -0.001  -0.001 -16.187   0.002   0.001  -0.001  -0.001 -15.787
 -0.001   0.001   0.002 -16.187   0.003  -0.001   0.001   0.002
  0.000   0.001   0.001   0.003 -16.184   0.000   0.001   0.001
-15.785   0.003  -0.001  -0.001   0.000 -15.374   0.003  -0.001
  0.003 -15.786  -0.001   0.001   0.001   0.003 -15.375  -0.001
 -0.001  -0.001 -15.787   0.002   0.001  -0.001  -0.001 -15.376
 -0.001   0.001   0.002 -15.788   0.003  -0.001   0.001   0.002
  0.000   0.001   0.001   0.003 -15.784   0.000   0.001   0.001
 -0.000   0.001   0.001  -0.001   0.001  -0.000   0.001   0.001
  0.000  -0.000  -0.000   0.000  -0.000   0.000  -0.000  -0.000
 -0.002   0.002  -0.000   0.000  -0.000  -0.002   0.002  -0.000
  0.000   0.000   0.002  -0.001  -0.000   0.000   0.000   0.002
  0.000   0.000   0.001   0.002  -0.001   0.000   0.000   0.001
  0.001  -0.002   0.000   0.000   0.000   0.001  -0.001   0.000
  0.000  -0.000  -0.002   0.001  -0.000   0.000  -0.000  -0.002
 -0.000   0.000  -0.001  -0.002   0.001  -0.000   0.000  -0.001
  0.004   0.000   0.000  -0.001  -0.001   0.004   0.000   0.000
 -0.003   0.003   0.000  -0.001  -0.000  -0.003   0.002   0.000
 -0.002  -0.005  -0.001  -0.000  -0.000  -0.001  -0.004  -0.001
  0.001   0.001  -0.005  -0.002  -0.001   0.001   0.001  -0.004
  0.000  -0.000   0.003  -0.004  -0.001   0.000  -0.000   0.003
 -0.000   0.001  -0.000   0.002  -0.003  -0.000   0.001  -0.000
  0.001   0.001   0.000   0.000   0.004   0.001   0.001   0.000
 -0.006  -0.001  -0.000   0.001   0.002  -0.006  -0.001  -0.000
  0.006  -0.005  -0.000   0.002   0.000   0.005  -0.004  -0.000
  0.003   0.008   0.001   0.001   0.000   0.002   0.007   0.001
 -0.001  -0.001   0.008   0.004   0.001  -0.001  -0.001   0.007
 -0.000   0.001  -0.005   0.007   0.002  -0.000   0.001  -0.004
  0.000  -0.001   0.000  -0.004   0.006   0.000  -0.001   0.000
 -0.002  -0.001  -0.000  -0.001  -0.007  -0.002  -0.001  -0.000
 total augmentation occupancy for first ion, spin component:           1
  2.263  -0.114   0.109  -0.016  -0.043  -0.240   0.122  -0.113   0.012   0.045   0.022   0.001  -0.076   0.021   0.039  -0.002
 -0.114   2.279   0.067   0.065  -0.048   0.122  -0.257  -0.070  -0.062   0.050  -0.024  -0.002   0.084   0.030   0.020   0.002
  0.109   0.067   2.301   0.000  -0.086  -0.113  -0.070  -0.284   0.005   0.089  -0.027  -0.002  -0.008   0.084   0.050  -0.000
 -0.016   0.065   0.000   2.222  -0.073   0.012  -0.062   0.005  -0.208   0.081   0.060   0.004   0.021  -0.045   0.069   0.000
 -0.043  -0.048  -0.086  -0.073   2.149   0.045   0.050   0.089   0.081  -0.123  -0.027  -0.002  -0.004  -0.008  -0.056  -0.000
 -0.240   0.122  -0.113   0.012   0.045   0.211  -0.129   0.116  -0.009  -0.046  -0.020  -0.001   0.074  -0.020  -0.038   0.002
  0.122  -0.257  -0.070  -0.062   0.050  -0.129   0.231   0.073   0.059  -0.053   0.023   0.002  -0.082  -0.030  -0.019  -0.003
 -0.113  -0.070  -0.284   0.005   0.089   0.116   0.073   0.262  -0.010  -0.092   0.025   0.002   0.008  -0.083  -0.049   0.000
  0.012  -0.062   0.005  -0.208   0.081  -0.009   0.059  -0.010   0.190  -0.089  -0.056  -0.004  -0.020   0.046  -0.068  -0.000
  0.045   0.050   0.089   0.081  -0.123  -0.046  -0.053  -0.092  -0.089   0.094   0.025   0.002   0.005   0.007   0.055   0.000
  0.022  -0.024  -0.027   0.060  -0.027  -0.020   0.023   0.025  -0.056   0.025   1.860   0.001  -0.004  -0.013   0.011  -0.001
  0.001  -0.002  -0.002   0.004  -0.002  -0.001   0.002   0.002  -0.004   0.002   0.001   0.000  -0.001  -0.002   0.002  -0.000
 -0.076   0.084  -0.008   0.021  -0.004   0.074  -0.082   0.008  -0.020   0.005  -0.004  -0.001   0.037   0.002  -0.002   0.001
  0.021   0.030   0.084  -0.045  -0.008  -0.020  -0.030  -0.083   0.046   0.007  -0.013  -0.002   0.002   0.041  -0.004   0.000
  0.039   0.020   0.050   0.069  -0.056  -0.038  -0.019  -0.049  -0.068   0.055   0.011   0.002  -0.002  -0.004   0.040  -0.000
 -0.002   0.002  -0.000   0.000  -0.000   0.002  -0.003   0.000  -0.000   0.000  -0.001  -0.000   0.001   0.000  -0.000   0.000
  0.000   0.001   0.003  -0.002   0.000  -0.000  -0.001  -0.003   0.002  -0.000  -0.003  -0.000   0.000   0.002  -0.000   0.000
  0.001   0.000   0.001   0.003  -0.002  -0.001  -0.000  -0.001  -0.003   0.002   0.002   0.000  -0.000  -0.000   0.001  -0.000
 -0.009   0.005  -0.008  -0.001   0.003   0.012  -0.005   0.008   0.001  -0.004  -0.003  -0.000   0.004  -0.001  -0.003   0.000
  0.009  -0.008   0.004  -0.004  -0.000  -0.012   0.011  -0.004   0.003   0.000  -0.004   0.000  -0.005   0.001   0.001  -0.000
 -0.002   0.009   0.009   0.004  -0.006   0.001  -0.013  -0.011  -0.004   0.006  -0.002  -0.000   0.003   0.003   0.003   0.000
  0.004   0.006   0.008   0.003  -0.006  -0.004  -0.005  -0.012  -0.005   0.006   0.000   0.000   0.000   0.002   0.004   0.000
 -0.008   0.004  -0.006   0.003   0.000   0.008  -0.004   0.009  -0.007  -0.001  -0.002   0.000   0.003  -0.003  -0.000   0.000
  0.000  -0.006  -0.005  -0.005   0.003  -0.000   0.006   0.005   0.007  -0.006   0.001  -0.000  -0.002  -0.000  -0.003  -0.000
  0.000   0.002   0.001   0.001   0.001   0.001  -0.001  -0.001  -0.001   0.002  -0.002   0.000   0.001   0.000   0.001   0.000
 -0.003   0.002  -0.003  -0.001   0.001   0.005  -0.002   0.003   0.000  -0.002  -0.001  -0.000   0.002  -0.001  -0.001   0.000
  0.003  -0.003   0.002  -0.002  -0.000  -0.005   0.004  -0.002   0.001   0.000  -0.002   0.000  -0.002   0.000   0.000  -0.000
 -0.001   0.003   0.004   0.002  -0.002   0.001  -0.006  -0.005  -0.002   0.002  -0.001  -0.000   0.001   0.001   0.001   0.000
  0.002   0.002   0.003   0.001  -0.002  -0.002  -0.002  -0.005  -0.002   0.003   0.000   0.000   0.000   0.001   0.002   0.000
 -0.003   0.001  -0.002   0.001  -0.000   0.003  -0.002   0.004  -0.003  -0.000  -0.001   0.000   0.001  -0.001  -0.000   0.000
  0.000  -0.002  -0.002  -0.002   0.001   0.000   0.003   0.002   0.003  -0.003   0.000  -0.000  -0.001  -0.000  -0.001  -0.000
  0.000   0.001   0.000   0.000   0.001   0.000  -0.001  -0.000  -0.000   0.001  -0.001   0.000   0.000   0.000   0.000   0.000
 total augmentation occupancy for first ion, spin component:           2
  0.000  -0.000   0.000  -0.000  -0.000  -0.000   0.000  -0.000   0.000   0.000   0.000   0.000  -0.000  -0.000   0.000   0.000
 -0.000   0.000   0.000  -0.000   0.000   0.000  -0.000  -0.000  -0.000  -0.000   0.000   0.000  -0.000   0.000  -0.000  -0.000
  0.000   0.000   0.000  -0.000  -0.000  -0.000  -0.000  -0.000   0.000   0.000   0.000   0.000  -0.000   0.000   0.000  -0.000
 -0.000  -0.000  -0.000   0.000  -0.000   0.000   0.000   0.000  -0.000   0.000  -0.000   0.000   0.000   0.000  -0.000   0.000
 -0.000   0.000  -0.000  -0.000   0.000   0.000  -0.000   0.000   0.000  -0.000  -0.000  -0.000   0.000  -0.000  -0.000  -0.000
 -0.000   0.000  -0.000   0.000   0.000   0.000  -0.000   0.000  -0.000  -0.000  -0.000  -0.000   0.000   0.000  -0.000   0.000
  0.000  -0.000  -0.000   0.000  -0.000  -0.000   0.000   0.000   0.000   0.000  -0.000  -0.000  -0.000  -0.000  -0.000   0.000
 -0.000  -0.000  -0.000   0.000   0.000   0.000   0.000   0.000  -0.000  -0.000  -0.000  -0.000   0.000  -0.000  -0.000   0.000
  0.000  -0.000   0.000  -0.000   0.000  -0.000   0.000  -0.000  -0.000   0.000   0.000  -0.000  -0.000  -0.000   0.000   0.000
  0.000  -0.000   0.000   0.000  -0.000  -0.000   0.000  -0.000   0.000   0.000   0.000   0.000  -0.000   0.000   0.000  -0.000
  0.000   0.000   0.000  -0.000  -0.000  -0.000  -0.000  -0.000   0.000   0.000   0.000   0.000   0.000  -0.000   0.000  -0.000
  0.000   0.000   0.000   0.000  -0.000  -0.000  -0.000  -0.000  -0.000   0.000   0.000   0.000   0.000  -0.000   0.000  -0.000
 -0.000  -0.000  -0.000   0.000   0.000   0.000  -0.000   0.000  -0.000  -0.000   0.000   0.000   0.000   0.000  -0.000   0.000
 -0.000   0.000   0.000   0.000  -0.000   0.000  -0.000  -0.000  -0.000   0.000  -0.000  -0.000   0.000   0.000   0.000  -0.000
  0.000  -0.000   0.000  -0.000  -0.000  -0.000  -0.000  -0.000   0.000   0.000   0.000   0.000  -0.000   0.000   0.000  -0.000
  0.000  -0.000  -0.000   0.000  -0.000   0.000   0.000   0.000   0.000  -0.000  -0.000  -0.000   0.000  -0.000  -0.000   0.000
 -0.000   0.000  -0.000   0.000   0.000   0.000  -0.000   0.000  -0.000  -0.000   0.000  -0.000   0.000   0.000  -0.000   0.000
  0.000  -0.000  -0.000  -0.000   0.000   0.000   0.000   0.000   0.000  -0.000  -0.000   0.000   0.000  -0.000  -0.000  -0.000
 -0.000  -0.000  -0.000  -0.000   0.000   0.000   0.000   0.000   0.000  -0.000  -0.000  -0.000  -0.000  -0.000  -0.000   0.000
 -0.000   0.000   0.000   0.000  -0.000   0.000  -0.000  -0.000  -0.000   0.000   0.000  -0.000   0.000  -0.000   0.000   0.000
  0.000  -0.000   0.000  -0.000   0.000  -0.000   0.000  -0.000   0.000  -0.000  -0.000   0.000  -0.000   0.000  -0.000  -0.000
 -0.000  -0.000  -0.000  -0.000   0.000   0.000   0.000   0.000   0.000  -0.000  -0.000   0.000   0.000  -0.000  -0.000  -0.000
 -0.000  -0.000  -0.000  -0.000   0.000   0.000   0.000   0.000   0.000  -0.000   0.000   0.000  -0.000   0.000  -0.000   0.000
  0.000  -0.000   0.000   0.000  -0.000  -0.000   0.000  -0.000   0.000   0.000  -0.000  -0.000  -0.000   0.000   0.000  -0.000
 -0.000   0.000  -0.000   0.000   0.000   0.000  -0.000   0.000  -0.000  -0.000  -0.000   0.000   0.000  -0.000  -0.000   0.000
 -0.000  -0.000  -0.000  -0.000   0.000   0.000   0.000   0.000   0.000  -0.000  -0.000  -0.000  -0.000  -0.000  -0.000   0.000
  0.000   0.000   0.000   0.000  -0.000   0.000  -0.000  -0.000  -0.000   0.000   0.000   0.000   0.000  -0.000   0.000   0.000
  0.000  -0.000   0.000  -0.000   0.000  -0.000   0.000  -0.000   0.000  -0.000  -0.000  -0.000  -0.000   0.000  -0.000  -0.000
 -0.000  -0.000  -0.000  -0.000   0.000   0.000   0.000   0.000   0.000  -0.000  -0.000  -0.000   0.000  -0.000  -0.000   0.000
 -0.000  -0.000  -0.000  -0.000   0.000  -0.000   0.000   0.000   0.000  -0.000  -0.000   0.000  -0.000  -0.000  -0.000  -0.000
  0.000  -0.000   0.000   0.000  -0.000  -0.000  -0.000  -0.000   0.000   0.000   0.000  -0.000  -0.000   0.000   0.000  -0.000
 -0.000   0.000  -0.000   0.000   0.000   0.000  -0.000   0.000  -0.000  -0.000  -0.000   0.000   0.000  -0.000  -0.000   0.000


------------------------ aborting loop because EDIFF is reached ----------------------------------------


 


 total charge     
 
# of ion       s       p       d       f       tot
--------------------------------------------------
    1        0.851   0.074   9.641   0.001  10.567
    2        0.851   0.071   9.641   0.001  10.564
    3        0.851   0.069   9.641   0.001  10.564
    4        0.851   0.072   9.641   0.001  10.566
--------------------------------------------------
tot          3.404   0.287  38.564   0.005  42.261

 


 magnetization (x)
 
# of ion       s       p       d       f       tot
--------------------------------------------------
    1       -0.000   0.000  -0.000  -0.000  -0.000
    2        0.000  -0.000   0.000   0.000   0.000
    3       -0.000  -0.000  -0.000   0.000  -0.000
    4       -0.000   0.000  -0.000  -0.000  -0.000
--------------------------------------------------
tot         -0.000  -0.000  -0.000   0.000  -0.000

 
    CHARGE:  cpu time    1.6997: real time    1.7075
    FORLOC:  cpu time    0.0310: real time    0.0319
    FORNL :  cpu time    9.0316: real time    9.0803
    FORCOR:  cpu time    4.6743: real time    4.6935
    FORHAR:  cpu time    0.3000: real time    0.2999
    MIXING:  cpu time    0.1150: real time    0.1176
    OFIELD:  cpu time    0.0000: real time    0.0000

 VOLUME and BASIS-vectors are now :
 -----------------------------------------------------------------------------
  energy-cutoff  :      500.00
  volume of cell :     4913.00
      direct lattice vectors                 reciprocal lattice vectors
    17.000000000  0.000000000  0.000000000     0.058823529  0.000000000  0.000000000
     0.000000000 17.000000000  0.000000000     0.000000000  0.058823529  0.000000000
     0.000000000  0.000000000 17.000000000     0.000000000  0.000000000  0.058823529

  length of vectors
    17.000000000 17.000000000 17.000000000     0.058823529  0.058823529  0.058823529


 FORCES acting on ions
    electron-ion (+dipol)            ewald-force                    non-local-force                 convergence-correction
 -----------------------------------------------------------------------------------------------
   0.301E+03 -.110E+03 -.367E+03   -.301E+03 0.110E+03 0.367E+03   0.796E-01 -.531E-01 -.105E+00   0.149E-01 0.147E-01 -.119E-01
   -.187E+03 -.405E+03 0.187E+03   0.187E+03 0.405E+03 -.187E+03   -.253E-01 -.939E-01 0.253E-01   0.574E-02 0.508E-01 0.273E-01
   0.246E+03 0.234E+03 0.343E+03   -.246E+03 -.234E+03 -.343E+03   0.264E-01 0.599E-01 0.587E-01   0.205E-01 -.515E-01 0.227E-01
   -.360E+03 0.281E+03 -.163E+03   0.360E+03 -.282E+03 0.163E+03   -.764E-01 0.861E-01 -.253E-01   -.390E-01 -.196E-01 -.300E-01
 -----------------------------------------------------------------------------------------------
   -.680E-02 0.295E-02 0.391E-01   0.000E+00 0.000E+00 0.568E-13   0.436E-02 -.112E-02 -.461E-01   0.225E-02 -.559E-02 0.813E-02
 
 
 POSITION                                       TOTAL-FORCE (eV/Angst)
 -----------------------------------------------------------------------------------
     15.96608      0.26126      1.44494         0.000479      0.016823     -0.008388
      0.92378      1.48117     16.22810        -0.025748     -0.025969      0.011640
     16.13713     15.89288     15.58420         0.044043      0.013993      0.027538
      1.60967     15.72236      0.65738        -0.018774     -0.004848     -0.030791
 -----------------------------------------------------------------------------------
    total drift:                               -0.000189     -0.003769      0.001078


--------------------------------------------------------------------------------------------------------



  FREE ENERGIE OF THE ION-ELECTRON SYSTEM (eV)
  ---------------------------------------------------
  free  energy   TOTEN  =        -0.68505494 eV

  energy  without entropy=       -0.68505494  energy(sigma->0) =       -0.68505494
 
 d Force = 0.1687595E-02[ 0.121E-03, 0.325E-02]  d Energy = 0.1637014E-02 0.506E-04
 d Force =-0.7098282E+01[-0.718E+01,-0.701E+01]  d Ewald  =-0.7098718E+01 0.436E-03


--------------------------------------------------------------------------------------------------------


    POTLOK:  cpu time    4.8423: real time    4.8629


--------------------------------------------------------------------------------------------------------




--------------------------------------------------------------------------------------------------------


    WAVPRE:  cpu time    0.1430: real time    0.1806
    FEWALD:  cpu time    0.0020: real time    0.0028

 real space projection operators:
  total allocation   :       2567.25 KBytes
  max/ min on nodes  :        647.50        637.25

    ORTHCH:  cpu time    0.3999: real time    0.4011
     LOOP+:  cpu time  124.4931: real time  133.8355


--------------------------------------- Iteration      7(   1)  ---------------------------------------


    POTLOK:  cpu time    2.4446: real time    2.4760
    SETDIJ:  cpu time    2.3486: real time    2.3868
     EDDAV:  cpu time    4.5983: real time    4.6258
       DOS:  cpu time    0.0000: real time    0.0002
    CHARGE:  cpu time    1.7007: real time    1.7088
    MIXING:  cpu time    0.0540: real time    0.0539
    --------------------------------------------
      LOOP:  cpu time   11.1463: real time   11.2515

 eigenvalue-minimisations  :   180
 total energy-change (2. order) :-0.4093419E-04  (-0.3473729E+00)
 number of electron      48.0000001 magnetization      -0.0000039
 augmentation part       24.3264416 magnetization      -0.0000038

  free energy =  -0.685095649404E+00  energy without entropy=  -0.685095649404E+00


--------------------------------------------------------------------------------------------------------




--------------------------------------- Iteration      7(   2)  ---------------------------------------


    POTLOK:  cpu time    2.4566: real time    2.4808
    SETDIJ:  cpu time    2.3866: real time    2.3944
     EDDAV:  cpu time    4.0074: real time    4.0344
       DOS:  cpu time    0.0000: real time    0.0003
    CHARGE:  cpu time    1.6987: real time    1.7071
    MIXING:  cpu time    0.0630: real time    0.0627
    --------------------------------------------
      LOOP:  cpu time   10.6124: real time   10.6796

 eigenvalue-minimisations  :   152
 total energy-change (2. order) :-0.9537693E-03  (-0.9565332E-03)
 number of electron      48.0000001 magnetization      -0.0000034
 augmentation part       24.3254851 magnetization      -0.0000034

 eigenvalues of (default mixing * dielectric matrix)
  average eigenvalue GAMMA=   1.2723
  1.2723

  free energy =  -0.686049418699E+00  energy without entropy=  -0.686049418699E+00


--------------------------------------------------------------------------------------------------------




--------------------------------------- Iteration      7(   3)  ---------------------------------------


    POTLOK:  cpu time    2.4566: real time    2.4691
    SETDIJ:  cpu time    2.3836: real time    2.3946
     EDDAV:  cpu time    4.5923: real time    4.6161
       DOS:  cpu time    0.0000: real time    0.0003
    CHARGE:  cpu time    1.6877: real time    1.7055
    MIXING:  cpu time    0.0680: real time    0.0686
    --------------------------------------------
      LOOP:  cpu time   11.1883: real time   11.2542

 eigenvalue-minimisations  :   180
 total energy-change (2. order) :-0.1011453E-04  (-0.1563513E-04)
 number of electron      48.0000001 magnetization      -0.0000031
 augmentation part       24.3255635 magnetization      -0.0000031

 eigenvalues of (default mixing * dielectric matrix)
  average eigenvalue GAMMA=   0.7278
  1.3162  0.1393

  free energy =  -0.686059533230E+00  energy without entropy=  -0.686059533230E+00


--------------------------------------------------------------------------------------------------------




--------------------------------------- Iteration      7(   4)  ---------------------------------------


    POTLOK:  cpu time    2.4346: real time    3.1107
    SETDIJ:  cpu time    2.3856: real time    2.3952
     EDDAV:  cpu time    3.6055: real time    3.6210
       DOS:  cpu time    0.0010: real time    0.0004
    CHARGE:  cpu time    1.6977: real time    1.7070
    MIXING:  cpu time    0.0730: real time    0.0731
    --------------------------------------------
      LOOP:  cpu time   10.1975: real time   10.9074

 eigenvalue-minimisations  :   132
 total energy-change (2. order) : 0.2362758E-05  (-0.3089119E-06)
 number of electron      48.0000001 magnetization       0.0000057
 augmentation part       24.3255779 magnetization       0.0000058

 eigenvalues of (default mixing * dielectric matrix)
  average eigenvalue GAMMA=  10.8056
 30.3400  0.9675  1.1094

  free energy =  -0.686057170472E+00  energy without entropy=  -0.686057170472E+00


--------------------------------------------------------------------------------------------------------




--------------------------------------- Iteration      7(   5)  ---------------------------------------


    POTLOK:  cpu time    2.4586: real time    2.4721
    SETDIJ:  cpu time    2.3826: real time    2.3910
     EDDAV:  cpu time    4.3433: real time    4.3648
       DOS:  cpu time    0.0000: real time    0.0003
    CHARGE:  cpu time    1.6977: real time    1.7064
    MIXING:  cpu time    0.0800: real time    0.0795
    --------------------------------------------
      LOOP:  cpu time   10.9623: real time   11.0142

 eigenvalue-minimisations  :   168
 total energy-change (2. order) :-0.5326662E-05  (-0.4209152E-05)
 number of electron      48.0000001 magnetization       0.0000063
 augmentation part       24.3264682 magnetization       0.0000063

 eigenvalues of (default mixing * dielectric matrix)
  average eigenvalue GAMMA=  10.0476
 36.7368  1.5757  1.0780  0.8000

  free energy =  -0.686062497134E+00  energy without entropy=  -0.686062497134E+00


--------------------------------------------------------------------------------------------------------




--------------------------------------- Iteration      7(   6)  ---------------------------------------


    POTLOK:  cpu time    2.4576: real time    2.4704
    SETDIJ:  cpu time    2.3816: real time    2.3893
     EDDAV:  cpu time    2.9456: real time    2.9585
       DOS:  cpu time    0.0000: real time    0.0003
    CHARGE:  cpu time    1.6777: real time    1.7063
    MIXING:  cpu time    0.0840: real time    0.0853
    --------------------------------------------
      LOOP:  cpu time    9.5465: real time    9.6100

 eigenvalue-minimisations  :   100
 total energy-change (2. order) :-0.2868912E-05  (-0.3243437E-06)
 number of electron      48.0000001 magnetization       0.0000008
 augmentation part       24.3265426 magnetization       0.0000007

 eigenvalues of (default mixing * dielectric matrix)
  average eigenvalue GAMMA=   9.9966
 39.0671  7.9896  0.9205  0.9205  1.0853

  free energy =  -0.686065366046E+00  energy without entropy=  -0.686065366046E+00


--------------------------------------------------------------------------------------------------------




--------------------------------------- Iteration      7(   7)  ---------------------------------------


    POTLOK:  cpu time    2.4646: real time   29.0350
    SETDIJ:  cpu time    2.3596: real time    2.3924
     EDDAV:  cpu time    2.3716: real time    2.3829
       DOS:  cpu time    0.0000: real time    0.0001
    --------------------------------------------
      LOOP:  cpu time    7.1959: real time   33.8104

 eigenvalue-minimisations  :    72
 total energy-change (2. order) :-0.1532180E-06  (-0.1375913E-06)
 number of electron      48.0000001 magnetization       0.0000008
 augmentation part       24.3265426 magnetization       0.0000007

  free energy =  -0.686065519264E+00  energy without entropy=  -0.686065519264E+00


--------------------------------------------------------------------------------------------------------




 average (electrostatic) potential at core
  the test charge radii are     1.1405
  (the norm of the test charge is              1.0000)
       1 -75.9102       2 -75.9108       3 -75.9113       4 -75.9107
 
 
 
 E-fermi :  -5.0922     XC(G=0):  -0.5418     alpha+bet : -0.1736


 spin component 1

 k-point     1 :       0.0000    0.0000    0.0000
  band No.  band energies     occupation 
      1     -12.2537      1.00000
      2     -12.0851      1.00000
      3     -12.0809      1.00000
      4     -12.0697      1.00000
      5     -12.0508      1.00000
      6     -12.0379      1.00000
      7     -11.8950      1.00000
      8     -11.8930      1.00000
      9     -11.8878      1.00000
     10     -11.7612      1.00000
     11     -11.7572      1.00000
     12     -11.7541      1.00000
     13     -11.7459      1.00000
     14     -11.7409      1.00000
     15     -11.7262      1.00000
     16     -11.7227      1.00000
     17     -11.7159      1.00000
     18     -11.6071      1.00000
     19     -11.6005      1.00000
     20     -11.5930      1.00000
     21      -8.0366      1.00000
     22      -5.1900      1.00000
     23      -5.1701      1.00000
     24      -5.1259      1.00000
     25      -2.2079      0.00000
     26      -1.7841      0.00000
     27      -1.7662      0.00000
     28      -1.7503      0.00000
     29      -1.3594      0.00000
     30      -1.3187      0.00000

 spin component 2

 k-point     1 :       0.0000    0.0000    0.0000
  band No.  band energies     occupation 
      1     -12.2537      1.00000
      2     -12.0851      1.00000
      3     -12.0809      1.00000
      4     -12.0697      1.00000
      5     -12.0508      1.00000
      6     -12.0379      1.00000
      7     -11.8950      1.00000
      8     -11.8930      1.00000
      9     -11.8878      1.00000
     10     -11.7612      1.00000
     11     -11.7572      1.00000
     12     -11.7541      1.00000
     13     -11.7459      1.00000
     14     -11.7409      1.00000
     15     -11.7262      1.00000
     16     -11.7227      1.00000
     17     -11.7159      1.00000
     18     -11.6071      1.00000
     19     -11.6005      1.00000
     20     -11.5930      1.00000
     21      -8.0366      1.00000
     22      -5.1900      1.00000
     23      -5.1701      1.00000
     24      -5.1259      1.00000
     25      -2.2079      0.00000
     26      -1.7841      0.00000
     27      -1.7662      0.00000
     28      -1.7503      0.00000
     29      -1.3593      0.00000
     30      -1.3187      0.00000


--------------------------------------------------------------------------------------------------------


 soft charge-density along one line, spin component           1
         0         1         2         3         4         5         6         7         8         9
 total charge-density along one line
 
 soft charge-density along one line, spin component           2
         0         1         2         3         4         5         6         7         8         9
 total charge-density along one line
 
 pseudopotential strength for first ion, spin component:           1
-16.187   0.003  -0.001  -0.001   0.000 -15.787   0.003  -0.001
  0.003 -16.188  -0.001   0.001   0.001   0.003 -15.788  -0.001
 -0.001  -0.001 -16.190   0.002   0.001  -0.001  -0.001 -15.790
 -0.001   0.001   0.002 -16.190   0.003  -0.001   0.001   0.002
  0.000   0.001   0.001   0.003 -16.187   0.000   0.001   0.001
-15.787   0.003  -0.001  -0.001   0.000 -15.376   0.003  -0.001
  0.003 -15.788  -0.001   0.001   0.001   0.003 -15.377  -0.001
 -0.001  -0.001 -15.790   0.002   0.001  -0.001  -0.001 -15.379
 -0.001   0.001   0.002 -15.791   0.003  -0.001   0.001   0.002
  0.000   0.001   0.001   0.003 -15.787   0.000   0.001   0.001
 -0.000   0.001   0.001  -0.001   0.001  -0.000   0.001   0.001
  0.000  -0.000  -0.000   0.000  -0.000   0.000  -0.000  -0.000
 -0.002   0.002  -0.000   0.000  -0.001  -0.002   0.002  -0.000
  0.000   0.000   0.002  -0.001  -0.000   0.000   0.000   0.002
  0.000   0.000   0.001   0.002  -0.002   0.000   0.000   0.001
  0.001  -0.002   0.000   0.000   0.001   0.001  -0.001   0.000
  0.000  -0.000  -0.002   0.001  -0.000   0.000  -0.000  -0.002
 -0.000   0.000  -0.001  -0.002   0.001  -0.000   0.000  -0.001
  0.004   0.000   0.000  -0.001  -0.001   0.004   0.000   0.000
 -0.004   0.003   0.000  -0.001  -0.000  -0.003   0.003   0.000
 -0.002  -0.005  -0.001  -0.000  -0.000  -0.001  -0.004  -0.001
  0.001   0.001  -0.005  -0.002  -0.001   0.001   0.001  -0.004
  0.000  -0.000   0.003  -0.004  -0.001   0.000  -0.000   0.003
 -0.000   0.001  -0.000   0.002  -0.004  -0.000   0.001  -0.000
  0.001   0.001   0.000   0.000   0.004   0.001   0.001   0.000
 -0.007  -0.001  -0.000   0.001   0.002  -0.006  -0.001  -0.000
  0.006  -0.005  -0.000   0.002   0.000   0.006  -0.004  -0.000
  0.003   0.008   0.002   0.001   0.001   0.003   0.008   0.001
 -0.001  -0.001   0.008   0.004   0.001  -0.001  -0.001   0.008
 -0.001   0.001  -0.005   0.007   0.002  -0.001   0.001  -0.004
  0.000  -0.001   0.000  -0.004   0.006   0.000  -0.001   0.000
 -0.002  -0.001  -0.000  -0.001  -0.007  -0.002  -0.001  -0.000
 pseudopotential strength for first ion, spin component:           2
-16.187   0.003  -0.001  -0.001   0.000 -15.787   0.003  -0.001
  0.003 -16.188  -0.001   0.001   0.001   0.003 -15.788  -0.001
 -0.001  -0.001 -16.190   0.002   0.001  -0.001  -0.001 -15.790
 -0.001   0.001   0.002 -16.190   0.003  -0.001   0.001   0.002
  0.000   0.001   0.001   0.003 -16.187   0.000   0.001   0.001
-15.787   0.003  -0.001  -0.001   0.000 -15.376   0.003  -0.001
  0.003 -15.788  -0.001   0.001   0.001   0.003 -15.377  -0.001
 -0.001  -0.001 -15.790   0.002   0.001  -0.001  -0.001 -15.379
 -0.001   0.001   0.002 -15.791   0.003  -0.001   0.001   0.002
  0.000   0.001   0.001   0.003 -15.787   0.000   0.001   0.001
 -0.000   0.001   0.001  -0.001   0.001  -0.000   0.001   0.001
  0.000  -0.000  -0.000   0.000  -0.000   0.000  -0.000  -0.000
 -0.002   0.002  -0.000   0.000  -0.001  -0.002   0.002  -0.000
  0.000   0.000   0.002  -0.001  -0.000   0.000   0.000   0.002
  0.000   0.000   0.001   0.002  -0.002   0.000   0.000   0.001
  0.001  -0.002   0.000   0.000   0.001   0.001  -0.001   0.000
  0.000  -0.000  -0.002   0.001  -0.000   0.000  -0.000  -0.002
 -0.000   0.000  -0.001  -0.002   0.001  -0.000   0.000  -0.001
  0.004   0.000   0.000  -0.001  -0.001   0.004   0.000   0.000
 -0.004   0.003   0.000  -0.001  -0.000  -0.003   0.003   0.000
 -0.002  -0.005  -0.001  -0.000  -0.000  -0.001  -0.004  -0.001
  0.001   0.001  -0.005  -0.002  -0.001   0.001   0.001  -0.004
  0.000  -0.000   0.003  -0.004  -0.001   0.000  -0.000   0.003
 -0.000   0.001  -0.000   0.002  -0.004  -0.000   0.001  -0.000
  0.001   0.001   0.000   0.000   0.004   0.001   0.001   0.000
 -0.007  -0.001  -0.000   0.001   0.002  -0.006  -0.001  -0.000
  0.006  -0.005  -0.000   0.002   0.000   0.006  -0.004  -0.000
  0.003   0.008   0.002   0.001   0.001   0.003   0.008   0.001
 -0.001  -0.001   0.008   0.004   0.001  -0.001  -0.001   0.008
 -0.001   0.001  -0.005   0.007   0.002  -0.001   0.001  -0.004
  0.000  -0.001   0.000  -0.004   0.006   0.000  -0.001   0.000
 -0.002  -0.001  -0.000  -0.001  -0.007  -0.002  -0.001  -0.000
 total augmentation occupancy for first ion, spin component:           1
  2.267  -0.116   0.110  -0.017  -0.042  -0.242   0.124  -0.113   0.013   0.044   0.022   0.001  -0.077   0.022   0.039  -0.002
 -0.116   2.284   0.067   0.065  -0.049   0.124  -0.262  -0.071  -0.062   0.052  -0.025  -0.002   0.085   0.031   0.021   0.002
  0.110   0.067   2.305  -0.001  -0.086  -0.113  -0.071  -0.287   0.006   0.089  -0.027  -0.002  -0.008   0.085   0.050  -0.000
 -0.017   0.065  -0.001   2.226  -0.073   0.013  -0.062   0.006  -0.212   0.082   0.062   0.004   0.021  -0.046   0.069   0.000
 -0.042  -0.049  -0.086  -0.073   2.151   0.044   0.052   0.089   0.082  -0.124  -0.026  -0.002  -0.005  -0.008  -0.056  -0.000
 -0.242   0.124  -0.113   0.013   0.044   0.213  -0.131   0.116  -0.009  -0.045  -0.020  -0.001   0.075  -0.020  -0.038   0.002
  0.124  -0.262  -0.071  -0.062   0.052  -0.131   0.235   0.074   0.059  -0.054   0.023   0.002  -0.083  -0.031  -0.020  -0.003
 -0.113  -0.071  -0.287   0.006   0.089   0.116   0.074   0.264  -0.011  -0.092   0.025   0.002   0.008  -0.084  -0.049   0.000
  0.013  -0.062   0.006  -0.212   0.082  -0.009   0.059  -0.011   0.193  -0.090  -0.058  -0.004  -0.020   0.047  -0.069  -0.000
  0.044   0.052   0.089   0.082  -0.124  -0.045  -0.054  -0.092  -0.090   0.094   0.024   0.002   0.005   0.007   0.055   0.000
  0.022  -0.025  -0.027   0.062  -0.026  -0.020   0.023   0.025  -0.058   0.024   1.859   0.001  -0.004  -0.013   0.011  -0.001
  0.001  -0.002  -0.002   0.004  -0.002  -0.001   0.002   0.002  -0.004   0.002   0.001   0.000  -0.001  -0.002   0.002  -0.000
 -0.077   0.085  -0.008   0.021  -0.005   0.075  -0.083   0.008  -0.020   0.005  -0.004  -0.001   0.037   0.002  -0.002   0.001
  0.022   0.031   0.085  -0.046  -0.008  -0.020  -0.031  -0.084   0.047   0.007  -0.013  -0.002   0.002   0.041  -0.004   0.000
  0.039   0.021   0.050   0.069  -0.056  -0.038  -0.020  -0.049  -0.069   0.055   0.011   0.002  -0.002  -0.004   0.040  -0.000
 -0.002   0.002  -0.000   0.000  -0.000   0.002  -0.003   0.000  -0.000   0.000  -0.001  -0.000   0.001   0.000  -0.000   0.000
  0.000   0.001   0.003  -0.002   0.000  -0.000  -0.001  -0.003   0.002  -0.000  -0.003  -0.000   0.000   0.002  -0.000   0.000
  0.001   0.000   0.001   0.003  -0.002  -0.001  -0.000  -0.001  -0.003   0.002   0.002   0.000  -0.000  -0.000   0.001  -0.000
 -0.009   0.005  -0.008  -0.001   0.003   0.012  -0.005   0.008   0.001  -0.004  -0.003  -0.000   0.004  -0.001  -0.003   0.000
  0.009  -0.008   0.004  -0.004  -0.000  -0.012   0.011  -0.004   0.003   0.000  -0.004   0.000  -0.005   0.001   0.001  -0.000
 -0.002   0.009   0.010   0.004  -0.006   0.001  -0.013  -0.011  -0.004   0.006  -0.002  -0.000   0.003   0.003   0.003   0.000
  0.004   0.006   0.008   0.003  -0.006  -0.004  -0.005  -0.012  -0.005   0.006   0.000   0.000   0.000   0.002   0.004   0.000
 -0.008   0.004  -0.007   0.003   0.000   0.008  -0.004   0.009  -0.007  -0.001  -0.002   0.000   0.003  -0.004  -0.000   0.000
  0.000  -0.006  -0.005  -0.005   0.003  -0.000   0.007   0.005   0.008  -0.007   0.001  -0.000  -0.002  -0.000  -0.003  -0.000
  0.000   0.002   0.001   0.001   0.001   0.001  -0.001  -0.001  -0.001   0.002  -0.002   0.000   0.001   0.000   0.001   0.000
 -0.003   0.002  -0.003  -0.001   0.001   0.005  -0.002   0.004   0.000  -0.002  -0.001  -0.000   0.002  -0.001  -0.001   0.000
  0.003  -0.003   0.002  -0.002  -0.000  -0.005   0.005  -0.002   0.001   0.000  -0.002   0.000  -0.002   0.000   0.000  -0.000
 -0.001   0.003   0.004   0.002  -0.002   0.001  -0.006  -0.005  -0.002   0.003  -0.001  -0.000   0.001   0.001   0.001   0.000
  0.002   0.002   0.002   0.001  -0.003  -0.002  -0.002  -0.005  -0.002   0.003   0.000   0.000   0.000   0.001   0.002   0.000
 -0.003   0.001  -0.002   0.001  -0.000   0.003  -0.002   0.004  -0.003  -0.000  -0.001   0.000   0.001  -0.002   0.000   0.000
  0.000  -0.002  -0.002  -0.002   0.001  -0.000   0.003   0.002   0.003  -0.003   0.000  -0.000  -0.001  -0.000  -0.001  -0.000
  0.000   0.001   0.000   0.000   0.001   0.000  -0.001  -0.000  -0.000   0.001  -0.001  -0.000   0.000   0.000   0.000   0.000
 total augmentation occupancy for first ion, spin component:           2
 -0.000   0.000  -0.000  -0.000   0.000   0.000  -0.000   0.000   0.000  -0.000   0.000   0.000   0.000  -0.000  -0.000   0.000
  0.000  -0.000  -0.000   0.000   0.000  -0.000   0.000   0.000  -0.000  -0.000  -0.000  -0.000  -0.000  -0.000  -0.000  -0.000
 -0.000  -0.000  -0.000  -0.000  -0.000   0.000   0.000   0.000   0.000  -0.000  -0.000  -0.000   0.000   0.000  -0.000  -0.000
 -0.000   0.000  -0.000  -0.000  -0.000   0.000  -0.000   0.000   0.000  -0.000   0.000   0.000  -0.000  -0.000   0.000   0.000
  0.000   0.000  -0.000  -0.000  -0.000  -0.000  -0.000   0.000  -0.000   0.000  -0.000  -0.000   0.000   0.000  -0.000  -0.000
  0.000  -0.000   0.000   0.000  -0.000  -0.000   0.000   0.000  -0.000   0.000  -0.000  -0.000   0.000   0.000  -0.000  -0.000
 -0.000   0.000   0.000  -0.000  -0.000   0.000  -0.000  -0.000  -0.000  -0.000   0.000   0.000   0.000  -0.000   0.000   0.000
  0.000   0.000   0.000   0.000   0.000   0.000  -0.000  -0.000  -0.000   0.000   0.000   0.000   0.000   0.000   0.000  -0.000
  0.000  -0.000   0.000   0.000  -0.000  -0.000  -0.000  -0.000  -0.000   0.000  -0.000  -0.000   0.000  -0.000   0.000   0.000
 -0.000  -0.000  -0.000  -0.000   0.000   0.000  -0.000   0.000   0.000  -0.000   0.000   0.000   0.000  -0.000  -0.000  -0.000
  0.000  -0.000  -0.000   0.000  -0.000  -0.000   0.000   0.000  -0.000   0.000   0.000   0.000  -0.000   0.000   0.000   0.000
  0.000  -0.000  -0.000   0.000  -0.000  -0.000   0.000   0.000  -0.000   0.000   0.000   0.000  -0.000  -0.000   0.000  -0.000
  0.000  -0.000   0.000  -0.000   0.000   0.000   0.000   0.000   0.000   0.000  -0.000  -0.000  -0.000   0.000  -0.000  -0.000
 -0.000  -0.000   0.000  -0.000   0.000   0.000  -0.000   0.000  -0.000  -0.000   0.000  -0.000   0.000   0.000  -0.000   0.000
 -0.000  -0.000  -0.000   0.000  -0.000  -0.000   0.000   0.000   0.000  -0.000   0.000   0.000  -0.000  -0.000   0.000  -0.000
  0.000  -0.000  -0.000   0.000  -0.000  -0.000   0.000  -0.000   0.000  -0.000   0.000  -0.000  -0.000   0.000  -0.000  -0.000
  0.000  -0.000  -0.000   0.000  -0.000   0.000  -0.000   0.000  -0.000   0.000  -0.000  -0.000   0.000  -0.000  -0.000   0.000
  0.000   0.000  -0.000  -0.000   0.000  -0.000   0.000   0.000   0.000  -0.000   0.000   0.000  -0.000  -0.000   0.000  -0.000
  0.000   0.000   0.000   0.000  -0.000  -0.000   0.000  -0.000  -0.000   0.000  -0.000  -0.000  -0.000   0.000  -0.000   0.000
  0.000   0.000  -0.000  -0.000   0.000   0.000  -0.000   0.000  -0.000  -0.000  -0.000  -0.000   0.000  -0.000  -0.000  -0.000
 -0.000   0.000  -0.000  -0.000  -0.000   0.000  -0.000  -0.000  -0.000   0.000   0.000   0.000   0.000   0.000   0.000   0.000
 -0.000   0.000   0.000  -0.000  -0.000   0.000   0.000   0.000  -0.000  -0.000   0.000   0.000   0.000  -0.000  -0.000  -0.000
  0.000   0.000  -0.000   0.000  -0.000   0.000  -0.000  -0.000  -0.000   0.000  -0.000  -0.000   0.000   0.000  -0.000   0.000
  0.000   0.000   0.000  -0.000   0.000  -0.000   0.000  -0.000  -0.000  -0.000   0.000   0.000  -0.000  -0.000   0.000  -0.000
  0.000   0.000   0.000   0.000   0.000   0.000  -0.000  -0.000   0.000  -0.000  -0.000  -0.000   0.000   0.000  -0.000   0.000
  0.000  -0.000   0.000   0.000  -0.000  -0.000   0.000  -0.000  -0.000   0.000   0.000  -0.000  -0.000   0.000   0.000  -0.000
 -0.000   0.000  -0.000  -0.000   0.000   0.000  -0.000   0.000  -0.000  -0.000  -0.000  -0.000   0.000  -0.000  -0.000   0.000
 -0.000  -0.000  -0.000   0.000  -0.000   0.000  -0.000  -0.000  -0.000   0.000   0.000   0.000   0.000   0.000   0.000   0.000
 -0.000   0.000  -0.000  -0.000   0.000   0.000  -0.000   0.000  -0.000   0.000  -0.000   0.000   0.000  -0.000  -0.000   0.000
  0.000   0.000  -0.000   0.000   0.000   0.000  -0.000  -0.000  -0.000   0.000  -0.000  -0.000   0.000   0.000   0.000   0.000
  0.000  -0.000   0.000  -0.000  -0.000  -0.000   0.000  -0.000   0.000  -0.000  -0.000   0.000  -0.000  -0.000   0.000  -0.000
  0.000  -0.000   0.000   0.000   0.000   0.000  -0.000  -0.000   0.000  -0.000   0.000  -0.000   0.000   0.000  -0.000   0.000


------------------------ aborting loop because EDIFF is reached ----------------------------------------


 


 total charge     
 
# of ion       s       p       d       f       tot
--------------------------------------------------
    1        0.850   0.075   9.641   0.001  10.567
    2        0.851   0.072   9.641   0.001  10.565
    3        0.851   0.071   9.641   0.001  10.565
    4        0.850   0.073   9.641   0.001  10.566
--------------------------------------------------
tot          3.402   0.291  38.564   0.006  42.263

 


 magnetization (x)
 
# of ion       s       p       d       f       tot
--------------------------------------------------
    1       -0.000  -0.000   0.000   0.000   0.000
    2       -0.000  -0.000  -0.000  -0.000  -0.000
    3       -0.000   0.000   0.000  -0.000  -0.000
    4       -0.000  -0.000   0.000  -0.000   0.000
--------------------------------------------------
tot         -0.000  -0.000   0.000  -0.000  -0.000

 
    CHARGE:  cpu time    1.6997: real time    1.7053
    FORLOC:  cpu time    0.0330: real time    0.0336
    FORNL :  cpu time    9.0646: real time    9.0892
    FORCOR:  cpu time    4.6693: real time    4.6823
    FORHAR:  cpu time    0.3000: real time    0.2998
    MIXING:  cpu time    0.0900: real time    0.0917
    OFIELD:  cpu time    0.0000: real time    0.0000

 VOLUME and BASIS-vectors are now :
 -----------------------------------------------------------------------------
  energy-cutoff  :      500.00
  volume of cell :     4913.00
      direct lattice vectors                 reciprocal lattice vectors
    17.000000000  0.000000000  0.000000000     0.058823529  0.000000000  0.000000000
     0.000000000 17.000000000  0.000000000     0.000000000  0.058823529  0.000000000
     0.000000000  0.000000000 17.000000000     0.000000000  0.000000000  0.058823529

  length of vectors
    17.000000000 17.000000000 17.000000000     0.058823529  0.058823529  0.058823529


 FORCES acting on ions
    electron-ion (+dipol)            ewald-force                    non-local-force                 convergence-correction
 -----------------------------------------------------------------------------------------------
   0.302E+03 -.111E+03 -.369E+03   -.302E+03 0.111E+03 0.369E+03   0.755E-01 -.438E-01 -.992E-01   0.220E-01 -.270E-01 -.337E-01
   -.187E+03 -.408E+03 0.187E+03   0.187E+03 0.408E+03 -.187E+03   -.268E-01 -.866E-01 0.293E-01   0.473E-03 -.355E-01 -.887E-02
   0.247E+03 0.235E+03 0.345E+03   -.247E+03 -.235E+03 -.345E+03   0.334E-01 0.522E-01 0.631E-01   -.100E-01 0.290E-01 -.791E-03
   -.362E+03 0.283E+03 -.164E+03   0.362E+03 -.283E+03 0.164E+03   -.774E-01 0.771E-01 -.305E-01   -.904E-02 0.352E-01 0.268E-02
 -----------------------------------------------------------------------------------------------
   -.746E-02 -.115E-03 0.768E-01   0.000E+00 -.568E-13 0.284E-13   0.484E-02 -.111E-02 -.373E-01   0.346E-02 0.171E-02 -.406E-01
 
 
 POSITION                                       TOTAL-FORCE (eV/Angst)
 -----------------------------------------------------------------------------------
     15.96688      0.26493      1.44299        -0.002037      0.015842     -0.003747
      0.92006      1.48020     16.23108        -0.020708     -0.019938      0.007918
     16.14627     15.89213     15.59069         0.032876      0.010300      0.018143
      1.60344     15.72041      0.64985        -0.010131     -0.006203     -0.022314
 -----------------------------------------------------------------------------------
    total drift:                                0.000846      0.000478     -0.001160


--------------------------------------------------------------------------------------------------------



  FREE ENERGIE OF THE ION-ELECTRON SYSTEM (eV)
  ---------------------------------------------------
  free  energy   TOTEN  =        -0.68606552 eV

  energy  without entropy=       -0.68606552  energy(sigma->0) =       -0.68606552
 
 d Force = 0.1000172E-02[ 0.837E-03, 0.116E-02]  d Energy = 0.1010581E-02-0.104E-04
 d Force =-0.9441722E+01[-0.947E+01,-0.942E+01]  d Ewald  =-0.9441660E+01-0.620E-04


--------------------------------------------------------------------------------------------------------


    POTLOK:  cpu time    4.8373: real time    4.8497


--------------------------------------------------------------------------------------------------------


 Conjugate gradient step on ions:
 trial-energy change:   -0.001011  1 .order   -0.001000   -0.001163   -0.000837
  (g-gl).g = 0.312E-03      g.g   = 0.292E-03  gl.gl    = 0.177E-02
 g(Force)  = 0.292E-03   g(Stress)= 0.000E+00 ortho     =-0.209E-04
 gamma     =   0.17613
 trial     =   4.03925
 opt step  =  10.88665  (harmonic =  14.42642) maximal distance =0.02463960
 next E    =    -0.686826   (d E  =  -0.00177)


--------------------------------------------------------------------------------------------------------


    WAVPRE:  cpu time    0.1470: real time    0.1804
    FEWALD:  cpu time    0.0020: real time    0.0027

 real space projection operators:
  total allocation   :       2566.00 KBytes
  max/ min on nodes  :        646.00        636.00

    ORTHCH:  cpu time    0.3999: real time    0.4009
     LOOP+:  cpu time   92.1060: real time  119.9507


--------------------------------------- Iteration      8(   1)  ---------------------------------------


    POTLOK:  cpu time    2.4476: real time    2.4754
    SETDIJ:  cpu time    2.3836: real time    2.3898
     EDDAV:  cpu time    4.6053: real time    4.6403
       DOS:  cpu time    0.0000: real time    0.0003
    CHARGE:  cpu time    1.7017: real time    1.7070
    MIXING:  cpu time    0.0540: real time    0.0538
    --------------------------------------------
      LOOP:  cpu time   11.1923: real time   11.2665

 eigenvalue-minimisations  :   180
 total energy-change (2. order) : 0.2783962E-02  (-0.9965995E+00)
 number of electron      48.0000001 magnetization      -0.0000091
 augmentation part       24.3268214 magnetization      -0.0000090

  free energy =  -0.683281404005E+00  energy without entropy=  -0.683281404005E+00


--------------------------------------------------------------------------------------------------------




--------------------------------------- Iteration      8(   2)  ---------------------------------------


    POTLOK:  cpu time    2.4626: real time    2.4775
    SETDIJ:  cpu time    2.3896: real time    2.3963
     EDDAV:  cpu time    4.0224: real time    4.0355
       DOS:  cpu time    0.0010: real time    0.0004
    CHARGE:  cpu time    1.6967: real time    1.7020
    MIXING:  cpu time    0.0660: real time    0.0665
    --------------------------------------------
      LOOP:  cpu time   10.6384: real time   10.6782

 eigenvalue-minimisations  :   152
 total energy-change (2. order) :-0.3639960E-02  (-0.3650762E-02)
 number of electron      48.0000001 magnetization      -0.0000080
 augmentation part       24.3238875 magnetization      -0.0000079

 eigenvalues of (default mixing * dielectric matrix)
  average eigenvalue GAMMA=   1.2472
  1.2472

  free energy =  -0.686921364355E+00  energy without entropy=  -0.686921364355E+00


--------------------------------------------------------------------------------------------------------




--------------------------------------- Iteration      8(   3)  ---------------------------------------


    POTLOK:  cpu time    2.4586: real time    2.4660
    SETDIJ:  cpu time    2.3906: real time    2.3959
     EDDAV:  cpu time    4.6013: real time    4.6173
       DOS:  cpu time    0.0010: real time    0.0003
    CHARGE:  cpu time    1.6997: real time    1.7046
    MIXING:  cpu time    0.0700: real time    0.0702
    --------------------------------------------
      LOOP:  cpu time   11.2213: real time   11.2543

 eigenvalue-minimisations  :   180
 total energy-change (2. order) :-0.5233348E-04  (-0.6133006E-04)
 number of electron      48.0000001 magnetization      -0.0000076
 augmentation part       24.3241236 magnetization      -0.0000076

 eigenvalues of (default mixing * dielectric matrix)
  average eigenvalue GAMMA=   0.6728
  1.2685  0.0772

  free energy =  -0.686973697835E+00  energy without entropy=  -0.686973697835E+00


--------------------------------------------------------------------------------------------------------




--------------------------------------- Iteration      8(   4)  ---------------------------------------


    POTLOK:  cpu time    2.4576: real time    2.4779
    SETDIJ:  cpu time    2.3786: real time    2.4066
     EDDAV:  cpu time    4.6013: real time    4.6151
       DOS:  cpu time    0.0000: real time    0.0002
    CHARGE:  cpu time    1.6977: real time    1.7024
    MIXING:  cpu time    0.0770: real time    0.0780
    --------------------------------------------
      LOOP:  cpu time   11.2123: real time   11.2802

 eigenvalue-minimisations  :   180
 total energy-change (2. order) : 0.3993833E-05  (-0.1378434E-05)
 number of electron      48.0000001 magnetization       0.0000062
 augmentation part       24.3241233 magnetization       0.0000062

 eigenvalues of (default mixing * dielectric matrix)
  average eigenvalue GAMMA=   6.9761
 18.8232  0.9379  1.1672

  free energy =  -0.686969704002E+00  energy without entropy=  -0.686969704002E+00


--------------------------------------------------------------------------------------------------------




--------------------------------------- Iteration      8(   5)  ---------------------------------------


    POTLOK:  cpu time    2.4636: real time    2.4699
    SETDIJ:  cpu time    2.3846: real time    2.3915
     EDDAV:  cpu time    4.3523: real time    4.3662
       DOS:  cpu time    0.0010: real time    0.0003
    CHARGE:  cpu time    1.6977: real time    1.7036
    MIXING:  cpu time    0.0820: real time    0.0816
    --------------------------------------------
      LOOP:  cpu time   10.9813: real time   11.0131

 eigenvalue-minimisations  :   168
 total energy-change (2. order) : 0.1863502E-05  (-0.5769772E-05)
 number of electron      48.0000001 magnetization       0.0000150
 augmentation part       24.3250806 magnetization       0.0000150

 eigenvalues of (default mixing * dielectric matrix)
  average eigenvalue GAMMA=  10.1305
 37.1989  1.4329  1.0870  0.8034

  free energy =  -0.686967840500E+00  energy without entropy=  -0.686967840500E+00


--------------------------------------------------------------------------------------------------------




--------------------------------------- Iteration      8(   6)  ---------------------------------------


    POTLOK:  cpu time    2.4626: real time    2.4716
    SETDIJ:  cpu time    2.3846: real time    2.3911
     EDDAV:  cpu time    4.5993: real time    4.6131
       DOS:  cpu time    0.0000: real time    0.0003
    CHARGE:  cpu time    1.7007: real time    1.7062
    MIXING:  cpu time    0.0880: real time    0.0879
    --------------------------------------------
      LOOP:  cpu time   11.2353: real time   11.2702

 eigenvalue-minimisations  :   180
 total energy-change (2. order) :-0.1817932E-04  (-0.4286317E-05)
 number of electron      48.0000001 magnetization       0.0000093
 augmentation part       24.3258230 magnetization       0.0000092

 eigenvalues of (default mixing * dielectric matrix)
  average eigenvalue GAMMA=   8.8781
 37.8644  3.6393  1.1151  0.8857  0.8857

  free energy =  -0.686986019819E+00  energy without entropy=  -0.686986019819E+00


--------------------------------------------------------------------------------------------------------




--------------------------------------- Iteration      8(   7)  ---------------------------------------


    POTLOK:  cpu time    2.4556: real time    2.4716
    SETDIJ:  cpu time    2.3486: real time    2.3875
     EDDAV:  cpu time    2.7036: real time    2.7123
       DOS:  cpu time    0.0010: real time    0.0004
    CHARGE:  cpu time    1.6997: real time    1.7056
    MIXING:  cpu time    0.0950: real time    0.0947
    --------------------------------------------
      LOOP:  cpu time    9.3036: real time    9.3722

 eigenvalue-minimisations  :    88
 total energy-change (2. order) : 0.1482888E-05  (-0.2418541E-06)
 number of electron      48.0000001 magnetization      -0.0000140
 augmentation part       24.3257688 magnetization      -0.0000141

 eigenvalues of (default mixing * dielectric matrix)
  average eigenvalue GAMMA=  11.6520
 49.0596 16.6127  0.8674  1.0198  1.1763  1.1763

  free energy =  -0.686984536930E+00  energy without entropy=  -0.686984536930E+00


--------------------------------------------------------------------------------------------------------




--------------------------------------- Iteration      8(   8)  ---------------------------------------


    POTLOK:  cpu time    2.4596: real time    3.0982
    SETDIJ:  cpu time    2.3686: real time    2.3732
     EDDAV:  cpu time    3.6944: real time    3.7061
       DOS:  cpu time    0.0000: real time    0.0004
    CHARGE:  cpu time    1.7027: real time    1.7078
    MIXING:  cpu time    0.1000: real time    0.1003
    --------------------------------------------
      LOOP:  cpu time   10.3254: real time   10.9860

 eigenvalue-minimisations  :   136
 total energy-change (2. order) :-0.2667662E-05  (-0.1590662E-05)
 number of electron      48.0000001 magnetization      -0.0000139
 augmentation part       24.3256109 magnetization      -0.0000139

 eigenvalues of (default mixing * dielectric matrix)
  average eigenvalue GAMMA=  10.5858
 51.1130 17.3721  1.7257  1.1580  1.0201  0.8560  0.8560

  free energy =  -0.686987204592E+00  energy without entropy=  -0.686987204592E+00


--------------------------------------------------------------------------------------------------------




--------------------------------------- Iteration      8(   9)  ---------------------------------------


    POTLOK:  cpu time    2.4596: real time    2.6808
    SETDIJ:  cpu time    2.3706: real time    2.3761
     EDDAV:  cpu time    2.7046: real time    2.7130
       DOS:  cpu time    0.0000: real time    0.0001
    --------------------------------------------
      LOOP:  cpu time    7.5349: real time    7.7700

 eigenvalue-minimisations  :    88
 total energy-change (2. order) :-0.2230427E-06  (-0.2382882E-06)
 number of electron      48.0000001 magnetization      -0.0000139
 augmentation part       24.3256109 magnetization      -0.0000139

  free energy =  -0.686987427634E+00  energy without entropy=  -0.686987427634E+00


--------------------------------------------------------------------------------------------------------




 average (electrostatic) potential at core
  the test charge radii are     1.1405
  (the norm of the test charge is              1.0000)
       1 -75.9180       2 -75.9192       3 -75.9199       4 -75.9190
 
 
 
 E-fermi :  -5.1090     XC(G=0):  -0.5409     alpha+bet : -0.1736


 spin component 1

 k-point     1 :       0.0000    0.0000    0.0000
  band No.  band energies     occupation 
      1     -12.2763      1.00000
      2     -12.0989      1.00000
      3     -12.0948      1.00000
      4     -12.0889      1.00000
      5     -12.0617      1.00000
      6     -12.0564      1.00000
      7     -11.9036      1.00000
      8     -11.9017      1.00000
      9     -11.9001      1.00000
     10     -11.7648      1.00000
     11     -11.7634      1.00000
     12     -11.7608      1.00000
     13     -11.7501      1.00000
     14     -11.7481      1.00000
     15     -11.7306      1.00000
     16     -11.7274      1.00000
     17     -11.7239      1.00000
     18     -11.6070      1.00000
     19     -11.6024      1.00000
     20     -11.5975      1.00000
     21      -8.0693      1.00000
     22      -5.1796      1.00000
     23      -5.1620      1.00000
     24      -5.1447      1.00000
     25      -2.2124      0.00000
     26      -1.7796      0.00000
     27      -1.7677      0.00000
     28      -1.7574      0.00000
     29      -1.3479      0.00000
     30      -1.3324      0.00000

 spin component 2

 k-point     1 :       0.0000    0.0000    0.0000
  band No.  band energies     occupation 
      1     -12.2763      1.00000
      2     -12.0989      1.00000
      3     -12.0948      1.00000
      4     -12.0889      1.00000
      5     -12.0617      1.00000
      6     -12.0564      1.00000
      7     -11.9036      1.00000
      8     -11.9017      1.00000
      9     -11.9001      1.00000
     10     -11.7648      1.00000
     11     -11.7634      1.00000
     12     -11.7608      1.00000
     13     -11.7501      1.00000
     14     -11.7481      1.00000
     15     -11.7306      1.00000
     16     -11.7274      1.00000
     17     -11.7239      1.00000
     18     -11.6070      1.00000
     19     -11.6024      1.00000
     20     -11.5975      1.00000
     21      -8.0693      1.00000
     22      -5.1796      1.00000
     23      -5.1620      1.00000
     24      -5.1447      1.00000
     25      -2.2124      0.00000
     26      -1.7796      0.00000
     27      -1.7677      0.00000
     28      -1.7574      0.00000
     29      -1.3479      0.00000
     30      -1.3324      0.00000


--------------------------------------------------------------------------------------------------------


 soft charge-density along one line, spin component           1
         0         1         2         3         4         5         6         7         8         9
 total charge-density along one line
 
 soft charge-density along one line, spin component           2
         0         1         2         3         4         5         6         7         8         9
 total charge-density along one line
 
 pseudopotential strength for first ion, spin component:           1
-16.191   0.003  -0.001  -0.001   0.000 -15.792   0.003  -0.001
  0.003 -16.193  -0.001   0.001   0.001   0.003 -15.793  -0.001
 -0.001  -0.001 -16.195   0.002   0.001  -0.001  -0.001 -15.795
 -0.001   0.001   0.002 -16.195   0.003  -0.001   0.001   0.002
  0.000   0.001   0.001   0.003 -16.191   0.000   0.001   0.001
-15.792   0.003  -0.001  -0.001   0.000 -15.380   0.003  -0.001
  0.003 -15.793  -0.001   0.001   0.001   0.003 -15.381  -0.001
 -0.001  -0.001 -15.795   0.002   0.001  -0.001  -0.001 -15.383
 -0.001   0.001   0.002 -15.795   0.003  -0.001   0.001   0.002
  0.000   0.001   0.001   0.003 -15.791   0.000   0.001   0.001
 -0.000   0.001   0.001  -0.001   0.001  -0.000   0.001   0.001
  0.000  -0.000  -0.000   0.000  -0.000   0.000  -0.000  -0.000
 -0.002   0.002  -0.000   0.000  -0.001  -0.002   0.002  -0.000
  0.000   0.000   0.002  -0.001  -0.000   0.000   0.000   0.002
  0.001   0.000   0.001   0.002  -0.002   0.000   0.000   0.001
  0.001  -0.002   0.000   0.000   0.001   0.001  -0.001   0.000
  0.000  -0.000  -0.002   0.001  -0.000   0.000  -0.000  -0.002
 -0.000   0.000  -0.001  -0.002   0.001  -0.000   0.000  -0.001
  0.004   0.000   0.000  -0.001  -0.001   0.004   0.000   0.000
 -0.003   0.003   0.000  -0.001  -0.000  -0.003   0.003   0.000
 -0.002  -0.005  -0.001  -0.000  -0.000  -0.002  -0.004  -0.001
  0.001   0.001  -0.005  -0.002  -0.001   0.001   0.001  -0.004
  0.000  -0.000   0.003  -0.004  -0.001   0.000  -0.000   0.003
 -0.000   0.001  -0.000   0.002  -0.004  -0.000   0.001  -0.000
  0.001   0.001   0.000   0.000   0.004   0.001   0.001   0.000
 -0.007  -0.001  -0.000   0.001   0.002  -0.006  -0.001  -0.000
  0.006  -0.005  -0.000   0.002   0.000   0.006  -0.004  -0.000
  0.003   0.008   0.002   0.001   0.001   0.003   0.008   0.002
 -0.001  -0.002   0.008   0.004   0.001  -0.001  -0.001   0.008
 -0.001   0.001  -0.005   0.007   0.002  -0.001   0.001  -0.004
  0.000  -0.001   0.000  -0.004   0.006   0.000  -0.001   0.000
 -0.002  -0.001  -0.000  -0.001  -0.007  -0.002  -0.001  -0.000
 pseudopotential strength for first ion, spin component:           2
-16.191   0.003  -0.001  -0.001   0.000 -15.792   0.003  -0.001
  0.003 -16.193  -0.001   0.001   0.001   0.003 -15.793  -0.001
 -0.001  -0.001 -16.195   0.002   0.001  -0.001  -0.001 -15.795
 -0.001   0.001   0.002 -16.195   0.003  -0.001   0.001   0.002
  0.000   0.001   0.001   0.003 -16.191   0.000   0.001   0.001
-15.792   0.003  -0.001  -0.001   0.000 -15.380   0.003  -0.001
  0.003 -15.793  -0.001   0.001   0.001   0.003 -15.381  -0.001
 -0.001  -0.001 -15.795   0.002   0.001  -0.001  -0.001 -15.383
 -0.001   0.001   0.002 -15.795   0.003  -0.001   0.001   0.002
  0.000   0.001   0.001   0.003 -15.791   0.000   0.001   0.001
 -0.000   0.001   0.001  -0.001   0.001  -0.000   0.001   0.001
  0.000  -0.000  -0.000   0.000  -0.000   0.000  -0.000  -0.000
 -0.002   0.002  -0.000   0.000  -0.001  -0.002   0.002  -0.000
  0.000   0.000   0.002  -0.001  -0.000   0.000   0.000   0.002
  0.001   0.000   0.001   0.002  -0.002   0.000   0.000   0.001
  0.001  -0.002   0.000   0.000   0.001   0.001  -0.001   0.000
  0.000  -0.000  -0.002   0.001  -0.000   0.000  -0.000  -0.002
 -0.000   0.000  -0.001  -0.002   0.001  -0.000   0.000  -0.001
  0.004   0.000   0.000  -0.001  -0.001   0.004   0.000   0.000
 -0.003   0.003   0.000  -0.001  -0.000  -0.003   0.003   0.000
 -0.002  -0.005  -0.001  -0.000  -0.000  -0.002  -0.004  -0.001
  0.001   0.001  -0.005  -0.002  -0.001   0.001   0.001  -0.004
  0.000  -0.000   0.003  -0.004  -0.001   0.000  -0.000   0.003
 -0.000   0.001  -0.000   0.002  -0.004  -0.000   0.001  -0.000
  0.001   0.001   0.000   0.000   0.004   0.001   0.001   0.000
 -0.007  -0.001  -0.000   0.001   0.002  -0.006  -0.001  -0.000
  0.006  -0.005  -0.000   0.002   0.000   0.006  -0.004  -0.000
  0.003   0.008   0.002   0.001   0.001   0.003   0.008   0.002
 -0.001  -0.002   0.008   0.004   0.001  -0.001  -0.001   0.008
 -0.001   0.001  -0.005   0.007   0.002  -0.001   0.001  -0.004
  0.000  -0.001   0.000  -0.004   0.006   0.000  -0.001   0.000
 -0.002  -0.001  -0.000  -0.001  -0.007  -0.002  -0.001  -0.000
 total augmentation occupancy for first ion, spin component:           1
  2.270  -0.119   0.111  -0.017  -0.041  -0.246   0.127  -0.115   0.013   0.042   0.022   0.001  -0.078   0.022   0.038  -0.002
 -0.119   2.290   0.068   0.066  -0.052   0.127  -0.268  -0.072  -0.063   0.055  -0.026  -0.002   0.087   0.031   0.022   0.002
  0.111   0.068   2.308  -0.002  -0.087  -0.115  -0.072  -0.290   0.008   0.090  -0.028  -0.002  -0.008   0.086   0.050  -0.000
 -0.017   0.066  -0.002   2.231  -0.074   0.013  -0.063   0.008  -0.217   0.083   0.065   0.004   0.022  -0.048   0.071   0.000
 -0.041  -0.052  -0.087  -0.074   2.152   0.042   0.055   0.090   0.083  -0.125  -0.025  -0.002  -0.006  -0.009  -0.056  -0.000
 -0.246   0.127  -0.115   0.013   0.042   0.217  -0.135   0.118  -0.010  -0.043  -0.021  -0.001   0.077  -0.021  -0.038   0.003
  0.127  -0.268  -0.072  -0.063   0.055  -0.135   0.242   0.075   0.060  -0.057   0.025   0.002  -0.085  -0.031  -0.021  -0.003
 -0.115  -0.072  -0.290   0.008   0.090   0.118   0.075   0.269  -0.013  -0.093   0.026   0.002   0.008  -0.085  -0.049   0.000
  0.013  -0.063   0.008  -0.217   0.083  -0.010   0.060  -0.013   0.199  -0.092  -0.061  -0.004  -0.020   0.048  -0.071  -0.000
  0.042   0.055   0.090   0.083  -0.125  -0.043  -0.057  -0.093  -0.092   0.095   0.023   0.002   0.006   0.008   0.056   0.000
  0.022  -0.026  -0.028   0.065  -0.025  -0.021   0.025   0.026  -0.061   0.023   1.858   0.001  -0.004  -0.014   0.012  -0.001
  0.001  -0.002  -0.002   0.004  -0.002  -0.001   0.002   0.002  -0.004   0.002   0.001   0.000  -0.001  -0.002   0.002  -0.000
 -0.078   0.087  -0.008   0.022  -0.006   0.077  -0.085   0.008  -0.020   0.006  -0.004  -0.001   0.038   0.002  -0.002   0.001
  0.022   0.031   0.086  -0.048  -0.009  -0.021  -0.031  -0.085   0.048   0.008  -0.014  -0.002   0.002   0.042  -0.004   0.000
  0.038   0.022   0.050   0.071  -0.056  -0.038  -0.021  -0.049  -0.071   0.056   0.012   0.002  -0.002  -0.004   0.041  -0.000
 -0.002   0.002  -0.000   0.000  -0.000   0.003  -0.003   0.000  -0.000   0.000  -0.001  -0.000   0.001   0.000  -0.000   0.000
  0.000   0.001   0.003  -0.002   0.000  -0.000  -0.001  -0.003   0.003  -0.000  -0.003  -0.000   0.000   0.002  -0.000   0.000
  0.001   0.000   0.001   0.003  -0.002  -0.001  -0.000  -0.001  -0.003   0.002   0.002   0.000  -0.000  -0.000   0.002  -0.000
 -0.009   0.005  -0.008  -0.001   0.003   0.012  -0.005   0.008   0.001  -0.004  -0.003  -0.000   0.004  -0.001  -0.003   0.000
  0.009  -0.008   0.004  -0.004   0.000  -0.013   0.011  -0.004   0.003   0.000  -0.004   0.000  -0.005   0.001   0.001  -0.000
 -0.002   0.010   0.010   0.004  -0.006   0.001  -0.014  -0.011  -0.004   0.006  -0.002  -0.000   0.003   0.003   0.003   0.000
  0.004   0.006   0.008   0.003  -0.006  -0.004  -0.005  -0.012  -0.005   0.006   0.001   0.000   0.000   0.002   0.004   0.000
 -0.008   0.004  -0.007   0.003   0.000   0.008  -0.004   0.010  -0.007  -0.001  -0.002   0.000   0.003  -0.004   0.000   0.000
  0.000  -0.006  -0.005  -0.005   0.004  -0.000   0.007   0.005   0.008  -0.007   0.001  -0.000  -0.002  -0.000  -0.004  -0.000
  0.000   0.002   0.001   0.001   0.001   0.001  -0.002  -0.001  -0.001   0.002  -0.002  -0.000   0.001   0.000   0.000   0.000
 -0.003   0.002  -0.003  -0.001   0.001   0.005  -0.002   0.004   0.000  -0.002  -0.001  -0.000   0.002  -0.001  -0.001   0.000
  0.003  -0.003   0.002  -0.002  -0.000  -0.005   0.005  -0.002   0.001   0.000  -0.002   0.000  -0.002   0.000   0.000  -0.000
 -0.001   0.003   0.004   0.002  -0.003   0.001  -0.006  -0.005  -0.002   0.003  -0.001  -0.000   0.001   0.001   0.001   0.000
  0.002   0.002   0.003   0.001  -0.003  -0.002  -0.002  -0.005  -0.002   0.003   0.000   0.000   0.000   0.001   0.002   0.000
 -0.003   0.001  -0.002   0.001  -0.000   0.003  -0.002   0.004  -0.003  -0.000  -0.001   0.000   0.001  -0.002   0.000   0.000
  0.000  -0.002  -0.002  -0.002   0.001  -0.000   0.003   0.002   0.003  -0.003   0.000  -0.000  -0.001  -0.000  -0.002  -0.000
  0.000   0.001   0.000   0.000   0.001   0.000  -0.001  -0.000  -0.000   0.001  -0.001  -0.000   0.000   0.000   0.000   0.000
 total augmentation occupancy for first ion, spin component:           2
  0.000  -0.000   0.000   0.000  -0.000  -0.000   0.000  -0.000   0.000   0.000  -0.000  -0.000  -0.000   0.000   0.000  -0.000
 -0.000   0.000   0.000  -0.000  -0.000   0.000  -0.000  -0.000   0.000   0.000   0.000   0.000   0.000  -0.000  -0.000   0.000
  0.000   0.000   0.000   0.000   0.000  -0.000  -0.000  -0.000  -0.000  -0.000   0.000  -0.000  -0.000  -0.000   0.000  -0.000
  0.000  -0.000   0.000   0.000  -0.000  -0.000   0.000  -0.000  -0.000   0.000  -0.000  -0.000   0.000   0.000  -0.000   0.000
 -0.000  -0.000   0.000  -0.000   0.000   0.000   0.000  -0.000   0.000  -0.000  -0.000   0.000  -0.000  -0.000   0.000  -0.000
 -0.000   0.000  -0.000  -0.000   0.000   0.000  -0.000   0.000   0.000  -0.000   0.000  -0.000   0.000  -0.000  -0.000   0.000
  0.000  -0.000  -0.000   0.000   0.000  -0.000  -0.000  -0.000  -0.000   0.000  -0.000  -0.000   0.000  -0.000   0.000  -0.000
 -0.000  -0.000  -0.000  -0.000  -0.000   0.000  -0.000  -0.000   0.000   0.000  -0.000  -0.000  -0.000   0.000  -0.000  -0.000
  0.000   0.000  -0.000  -0.000   0.000   0.000  -0.000   0.000  -0.000   0.000  -0.000  -0.000   0.000  -0.000   0.000  -0.000
  0.000   0.000  -0.000   0.000  -0.000  -0.000   0.000   0.000   0.000  -0.000   0.000   0.000  -0.000   0.000  -0.000   0.000
 -0.000   0.000   0.000  -0.000  -0.000   0.000  -0.000  -0.000  -0.000   0.000   0.000  -0.000   0.000   0.000  -0.000  -0.000
 -0.000   0.000  -0.000  -0.000   0.000  -0.000  -0.000  -0.000  -0.000   0.000  -0.000   0.000   0.000  -0.000   0.000   0.000
 -0.000   0.000  -0.000   0.000  -0.000   0.000   0.000  -0.000   0.000  -0.000   0.000   0.000   0.000   0.000   0.000   0.000
  0.000  -0.000  -0.000   0.000  -0.000  -0.000  -0.000   0.000  -0.000   0.000   0.000  -0.000   0.000   0.000   0.000  -0.000
  0.000  -0.000   0.000  -0.000   0.000  -0.000   0.000  -0.000   0.000  -0.000  -0.000   0.000   0.000   0.000  -0.000   0.000
 -0.000   0.000  -0.000   0.000  -0.000   0.000  -0.000  -0.000  -0.000   0.000  -0.000   0.000   0.000  -0.000   0.000   0.000
 -0.000  -0.000  -0.000  -0.000   0.000  -0.000  -0.000  -0.000  -0.000   0.000   0.000  -0.000   0.000   0.000   0.000   0.000
 -0.000  -0.000  -0.000   0.000  -0.000  -0.000  -0.000  -0.000   0.000   0.000  -0.000   0.000  -0.000   0.000   0.000   0.000
  0.000  -0.000   0.000  -0.000  -0.000  -0.000   0.000  -0.000   0.000  -0.000  -0.000  -0.000  -0.000   0.000  -0.000  -0.000
 -0.000  -0.000  -0.000  -0.000  -0.000   0.000  -0.000   0.000  -0.000   0.000   0.000  -0.000   0.000  -0.000   0.000   0.000
 -0.000  -0.000  -0.000  -0.000   0.000   0.000   0.000  -0.000  -0.000   0.000  -0.000   0.000   0.000   0.000   0.000   0.000
  0.000   0.000  -0.000  -0.000   0.000   0.000  -0.000   0.000  -0.000  -0.000   0.000   0.000   0.000  -0.000   0.000   0.000
 -0.000  -0.000   0.000  -0.000  -0.000  -0.000   0.000   0.000   0.000  -0.000   0.000  -0.000  -0.000  -0.000  -0.000   0.000
  0.000   0.000   0.000   0.000  -0.000  -0.000  -0.000  -0.000  -0.000   0.000  -0.000  -0.000   0.000  -0.000   0.000  -0.000
  0.000   0.000  -0.000  -0.000   0.000  -0.000   0.000   0.000   0.000  -0.000   0.000  -0.000  -0.000   0.000  -0.000   0.000
  0.000  -0.000   0.000  -0.000  -0.000  -0.000   0.000  -0.000   0.000  -0.000  -0.000  -0.000  -0.000   0.000  -0.000  -0.000
 -0.000  -0.000  -0.000  -0.000  -0.000   0.000   0.000   0.000  -0.000   0.000   0.000  -0.000  -0.000  -0.000   0.000   0.000
 -0.000  -0.000  -0.000  -0.000  -0.000   0.000   0.000   0.000  -0.000   0.000  -0.000   0.000   0.000  -0.000   0.000   0.000
  0.000   0.000  -0.000  -0.000   0.000   0.000  -0.000   0.000  -0.000  -0.000   0.000   0.000   0.000  -0.000   0.000   0.000
 -0.000  -0.000  -0.000   0.000  -0.000  -0.000   0.000   0.000   0.000  -0.000   0.000  -0.000  -0.000   0.000  -0.000  -0.000
  0.000   0.000   0.000   0.000  -0.000  -0.000  -0.000  -0.000  -0.000   0.000  -0.000  -0.000  -0.000   0.000   0.000  -0.000
  0.000   0.000  -0.000   0.000   0.000  -0.000   0.000   0.000   0.000  -0.000  -0.000  -0.000   0.000   0.000  -0.000   0.000


------------------------ aborting loop because EDIFF is reached ----------------------------------------


 


 total charge     
 
# of ion       s       p       d       f       tot
--------------------------------------------------
    1        0.850   0.076   9.641   0.002  10.568
    2        0.850   0.074   9.641   0.001  10.566
    3        0.850   0.074   9.641   0.001  10.567
    4        0.850   0.076   9.641   0.001  10.568
--------------------------------------------------
tot          3.399   0.300  38.564   0.006  42.269

 


 magnetization (x)
 
# of ion       s       p       d       f       tot
--------------------------------------------------
    1        0.000   0.000  -0.000  -0.000  -0.000
    2        0.000  -0.000   0.000   0.000   0.000
    3        0.000   0.000  -0.000   0.000  -0.000
    4        0.000   0.000  -0.000  -0.000  -0.000
--------------------------------------------------
tot          0.000   0.000  -0.000  -0.000  -0.000

 
    CHARGE:  cpu time    1.6937: real time    1.7009
    FORLOC:  cpu time    0.0300: real time    0.0316
    FORNL :  cpu time    9.0036: real time    9.0783
    FORCOR:  cpu time    4.6683: real time    4.6830
    FORHAR:  cpu time    0.2980: real time    0.2998
    MIXING:  cpu time    0.1090: real time    0.1082
    OFIELD:  cpu time    0.0000: real time    0.0000

 VOLUME and BASIS-vectors are now :
 -----------------------------------------------------------------------------
  energy-cutoff  :      500.00
  volume of cell :     4913.00
      direct lattice vectors                 reciprocal lattice vectors
    17.000000000  0.000000000  0.000000000     0.058823529  0.000000000  0.000000000
     0.000000000 17.000000000  0.000000000     0.000000000  0.058823529  0.000000000
     0.000000000  0.000000000 17.000000000     0.000000000  0.000000000  0.058823529

  length of vectors
    17.000000000 17.000000000 17.000000000     0.058823529  0.058823529  0.058823529


 FORCES acting on ions
    electron-ion (+dipol)            ewald-force                    non-local-force                 convergence-correction
 -----------------------------------------------------------------------------------------------
   0.304E+03 -.112E+03 -.371E+03   -.304E+03 0.112E+03 0.371E+03   0.695E-01 -.312E-01 -.898E-01   -.367E-02 -.441E-02 0.144E-01
   -.188E+03 -.412E+03 0.188E+03   0.188E+03 0.412E+03 -.188E+03   -.284E-01 -.767E-01 0.321E-01   0.777E-02 0.858E-02 -.327E-03
   0.250E+03 0.238E+03 0.349E+03   -.250E+03 -.238E+03 -.349E+03   0.413E-01 0.486E-01 0.676E-01   -.203E-01 0.102E-01 -.286E-02
   -.365E+03 0.286E+03 -.166E+03   0.365E+03 -.286E+03 0.166E+03   -.792E-01 0.704E-01 -.354E-01   0.990E-02 0.979E-02 0.262E-01
 -----------------------------------------------------------------------------------------------
   0.373E-02 -.346E-01 -.126E-01   0.000E+00 0.171E-12 0.000E+00   0.320E-02 0.112E-01 -.254E-01   -.626E-02 0.241E-01 0.374E-01
 
 
 POSITION                                       TOTAL-FORCE (eV/Angst)
 -----------------------------------------------------------------------------------
     15.96825      0.27115      1.43969        -0.005822      0.012591      0.005004
      0.91376      1.47855     16.23613        -0.012313     -0.012080      0.001441
     16.16177     15.89086     15.60169         0.011428      0.007428     -0.000959
      1.59288     15.71711      0.63709         0.006707     -0.007939     -0.005486
 -----------------------------------------------------------------------------------
    total drift:                                0.000664      0.000792     -0.000555


--------------------------------------------------------------------------------------------------------



  FREE ENERGIE OF THE ION-ELECTRON SYSTEM (eV)
  ---------------------------------------------------
  free  energy   TOTEN  =        -0.68698743 eV

  energy  without entropy=       -0.68698743  energy(sigma->0) =       -0.68698743
 
 d Force = 0.8802540E-03[ 0.341E-03, 0.142E-02]  d Energy = 0.9219084E-03-0.417E-04
 d Force =-0.1611616E+02[-0.162E+02,-0.160E+02]  d Ewald  =-0.1611585E+02-0.315E-03


--------------------------------------------------------------------------------------------------------


    POTLOK:  cpu time    4.8363: real time    4.8516


--------------------------------------------------------------------------------------------------------




--------------------------------------------------------------------------------------------------------


    WAVPRE:  cpu time    0.0980: real time    1.5850
    FEWALD:  cpu time    0.0000: real time    0.0001

 real space projection operators:
  total allocation   :       2568.00 KBytes
  max/ min on nodes  :        645.75        637.75

    ORTHCH:  cpu time    0.3969: real time    0.4011
     LOOP+:  cpu time  114.7945: real time  117.9246


--------------------------------------- Iteration      9(   1)  ---------------------------------------


    POTLOK:  cpu time    2.4486: real time    2.4747
    SETDIJ:  cpu time    2.3716: real time    2.3807
     EDDAV:  cpu time    4.6043: real time    4.6268
       DOS:  cpu time    0.0000: real time    0.0002
    CHARGE:  cpu time    1.6977: real time    1.7095
    MIXING:  cpu time    0.0530: real time    0.0530
    --------------------------------------------
      LOOP:  cpu time   11.1753: real time   11.2450

 eigenvalue-minimisations  :   180
 total energy-change (2. order) : 0.1569519E-03  (-0.9973667E-01)
 number of electron      48.0000001 magnetization      -0.0000093
 augmentation part       24.3249823 magnetization      -0.0000093

  free energy =  -0.686830252683E+00  energy without entropy=  -0.686830252683E+00


--------------------------------------------------------------------------------------------------------




--------------------------------------- Iteration      9(   2)  ---------------------------------------


    POTLOK:  cpu time    2.4316: real time    2.4695
    SETDIJ:  cpu time    2.3816: real time    2.3926
     EDDAV:  cpu time    4.0144: real time    4.0327
       DOS:  cpu time    0.0000: real time    0.0002
    CHARGE:  cpu time    1.6987: real time    1.7058
    MIXING:  cpu time    0.0630: real time    0.0639
    --------------------------------------------
      LOOP:  cpu time   10.5894: real time   10.6647

 eigenvalue-minimisations  :   152
 total energy-change (2. order) :-0.2099936E-03  (-0.2108845E-03)
 number of electron      48.0000001 magnetization      -0.0000079
 augmentation part       24.3247547 magnetization      -0.0000078

 eigenvalues of (default mixing * dielectric matrix)
  average eigenvalue GAMMA=   1.6214
  1.6214

  free energy =  -0.687040246257E+00  energy without entropy=  -0.687040246257E+00


--------------------------------------------------------------------------------------------------------




--------------------------------------- Iteration      9(   3)  ---------------------------------------


    POTLOK:  cpu time    2.4626: real time    8.8662
    SETDIJ:  cpu time    2.3846: real time    2.3946
     EDDAV:  cpu time    4.8433: real time    4.8663
       DOS:  cpu time    0.0000: real time    0.0003
    CHARGE:  cpu time    1.6927: real time    1.7048
    MIXING:  cpu time    0.0700: real time    0.0706
    --------------------------------------------
      LOOP:  cpu time   11.4533: real time   17.9028

 eigenvalue-minimisations  :   192
 total energy-change (2. order) :-0.1171032E-05  (-0.3241474E-05)
 number of electron      48.0000001 magnetization      -0.0000017
 augmentation part       24.3247557 magnetization      -0.0000017

 eigenvalues of (default mixing * dielectric matrix)
  average eigenvalue GAMMA=   4.5136
  0.9356  8.0915

  free energy =  -0.687041417289E+00  energy without entropy=  -0.687041417289E+00


--------------------------------------------------------------------------------------------------------




--------------------------------------- Iteration      9(   4)  ---------------------------------------


    POTLOK:  cpu time    2.4446: real time    2.4895
    SETDIJ:  cpu time    2.3916: real time    2.4010
     EDDAV:  cpu time    2.1167: real time    2.1298
       DOS:  cpu time    0.0000: real time    0.0003
    CHARGE:  cpu time    1.6957: real time    1.7062
    MIXING:  cpu time    0.0730: real time    0.0731
    --------------------------------------------
      LOOP:  cpu time    8.7217: real time    8.7999

 eigenvalue-minimisations  :    60
 total energy-change (2. order) : 0.1740682E-06  (-0.7839577E-07)
 number of electron      48.0000001 magnetization       0.0000218
 augmentation part       24.3247650 magnetization       0.0000219

 eigenvalues of (default mixing * dielectric matrix)
  average eigenvalue GAMMA=  14.8122
 42.3743  1.0312  1.0312

  free energy =  -0.687041243221E+00  energy without entropy=  -0.687041243221E+00


--------------------------------------------------------------------------------------------------------




--------------------------------------- Iteration      9(   5)  ---------------------------------------


    POTLOK:  cpu time    2.4586: real time    2.4769
    SETDIJ:  cpu time    2.3866: real time    2.3947
     EDDAV:  cpu time    3.6824: real time    3.7011
       DOS:  cpu time    0.0000: real time    0.0004
    CHARGE:  cpu time    1.6957: real time    1.7048
    MIXING:  cpu time    0.0820: real time    0.0816
    --------------------------------------------
      LOOP:  cpu time   10.3054: real time   10.3594

 eigenvalue-minimisations  :   136
 total energy-change (2. order) :-0.5924949E-05  (-0.1322523E-05)
 number of electron      48.0000001 magnetization       0.0000253
 augmentation part       24.3249077 magnetization       0.0000252

 eigenvalues of (default mixing * dielectric matrix)
  average eigenvalue GAMMA=  11.5440
 43.4522  1.0151  1.0151  0.6937

  free energy =  -0.687047168170E+00  energy without entropy=  -0.687047168170E+00


--------------------------------------------------------------------------------------------------------




--------------------------------------- Iteration      9(   6)  ---------------------------------------


    POTLOK:  cpu time    2.4526: real time    2.4713
    SETDIJ:  cpu time    2.3856: real time    2.3929
     EDDAV:  cpu time    2.9446: real time    2.9585
       DOS:  cpu time    0.0000: real time    0.0001
    --------------------------------------------
      LOOP:  cpu time    7.7838: real time    7.8229

 eigenvalue-minimisations  :   100
 total energy-change (2. order) :-0.7607550E-06  (-0.2452890E-06)
 number of electron      48.0000001 magnetization       0.0000253
 augmentation part       24.3249077 magnetization       0.0000252

  free energy =  -0.687047928925E+00  energy without entropy=  -0.687047928925E+00


--------------------------------------------------------------------------------------------------------




 average (electrostatic) potential at core
  the test charge radii are     1.1405
  (the norm of the test charge is              1.0000)
       1 -75.9199       2 -75.9199       3 -75.9181       4 -75.9184
 
 
 
 E-fermi :  -5.1123     XC(G=0):  -0.5406     alpha+bet : -0.1736


 spin component 1

 k-point     1 :       0.0000    0.0000    0.0000
  band No.  band energies     occupation 
      1     -12.2812      1.00000
      2     -12.1017      1.00000
      3     -12.0966      1.00000
      4     -12.0925      1.00000
      5     -12.0630      1.00000
      6     -12.0596      1.00000
      7     -11.9044      1.00000
      8     -11.9023      1.00000
      9     -11.9014      1.00000
     10     -11.7636      1.00000
     11     -11.7634      1.00000
     12     -11.7603      1.00000
     13     -11.7490      1.00000
     14     -11.7481      1.00000
     15     -11.7300      1.00000
     16     -11.7257      1.00000
     17     -11.7244      1.00000
     18     -11.6047      1.00000
     19     -11.6009      1.00000
     20     -11.5961      1.00000
     21      -8.0776      1.00000
     22      -5.1774      1.00000
     23      -5.1562      1.00000
     24      -5.1491      1.00000
     25      -2.2129      0.00000
     26      -1.7782      0.00000
     27      -1.7672      0.00000
     28      -1.7577      0.00000
     29      -1.3442      0.00000
     30      -1.3349      0.00000

 spin component 2

 k-point     1 :       0.0000    0.0000    0.0000
  band No.  band energies     occupation 
      1     -12.2812      1.00000
      2     -12.1017      1.00000
      3     -12.0966      1.00000
      4     -12.0925      1.00000
      5     -12.0630      1.00000
      6     -12.0596      1.00000
      7     -11.9044      1.00000
      8     -11.9023      1.00000
      9     -11.9014      1.00000
     10     -11.7636      1.00000
     11     -11.7634      1.00000
     12     -11.7603      1.00000
     13     -11.7490      1.00000
     14     -11.7481      1.00000
     15     -11.7300      1.00000
     16     -11.7257      1.00000
     17     -11.7244      1.00000
     18     -11.6047      1.00000
     19     -11.6009      1.00000
     20     -11.5961      1.00000
     21      -8.0776      1.00000
     22      -5.1774      1.00000
     23      -5.1562      1.00000
     24      -5.1491      1.00000
     25      -2.2129      0.00000
     26      -1.7782      0.00000
     27      -1.7672      0.00000
     28      -1.7577      0.00000
     29      -1.3442      0.00000
     30      -1.3349      0.00000


--------------------------------------------------------------------------------------------------------


 soft charge-density along one line, spin component           1
         0         1         2         3         4         5         6         7         8         9
 total charge-density along one line
 
 soft charge-density along one line, spin component           2
         0         1         2         3         4         5         6         7         8         9
 total charge-density along one line
 
 pseudopotential strength for first ion, spin component:           1
-16.193   0.003  -0.001  -0.001   0.000 -15.793   0.003  -0.001
  0.003 -16.194  -0.001   0.001   0.001   0.003 -15.794  -0.001
 -0.001  -0.001 -16.196   0.002   0.001  -0.001  -0.001 -15.796
 -0.001   0.001   0.002 -16.196   0.003  -0.001   0.001   0.002
  0.000   0.001   0.001   0.003 -16.192   0.000   0.001   0.001
-15.793   0.003  -0.001  -0.001   0.000 -15.381   0.003  -0.001
  0.003 -15.794  -0.001   0.001   0.001   0.003 -15.383  -0.001
 -0.001  -0.001 -15.796   0.002   0.001  -0.001  -0.001 -15.384
 -0.001   0.001   0.002 -15.796   0.003  -0.001   0.001   0.002
  0.000   0.001   0.001   0.003 -15.793   0.000   0.001   0.001
 -0.000   0.001   0.001  -0.001   0.001  -0.000   0.001   0.001
  0.000  -0.000  -0.000   0.000  -0.000   0.000  -0.000  -0.000
 -0.002   0.002  -0.000   0.000  -0.001  -0.002   0.002  -0.000
  0.000   0.001   0.002  -0.001  -0.000   0.000   0.001   0.002
  0.001   0.000   0.001   0.002  -0.002   0.001   0.000   0.001
  0.001  -0.002   0.000   0.000   0.001   0.001  -0.001   0.000
  0.000  -0.001  -0.002   0.002  -0.000   0.000  -0.001  -0.002
 -0.001   0.000  -0.001  -0.002   0.001  -0.000   0.000  -0.001
  0.004   0.000   0.000  -0.001  -0.001   0.004   0.000   0.000
 -0.004   0.003   0.000  -0.001  -0.000  -0.004   0.003   0.000
 -0.002  -0.005  -0.001  -0.000  -0.000  -0.002  -0.005  -0.001
  0.001   0.001  -0.005  -0.003  -0.001   0.001   0.001  -0.005
  0.000  -0.000   0.003  -0.004  -0.001   0.000  -0.000   0.003
 -0.000   0.001  -0.000   0.002  -0.004  -0.000   0.001  -0.000
  0.002   0.001   0.000   0.000   0.004   0.001   0.001   0.000
 -0.007  -0.001  -0.000   0.001   0.003  -0.007  -0.001  -0.000
  0.006  -0.005  -0.000   0.002   0.000   0.006  -0.005  -0.000
  0.003   0.009   0.002   0.001   0.001   0.003   0.008   0.002
 -0.001  -0.002   0.009   0.004   0.001  -0.001  -0.002   0.008
 -0.001   0.001  -0.005   0.008   0.002  -0.001   0.001  -0.005
  0.000  -0.002   0.000  -0.004   0.006   0.000  -0.002   0.000
 -0.003  -0.001  -0.000  -0.001  -0.007  -0.002  -0.001  -0.000
 pseudopotential strength for first ion, spin component:           2
-16.193   0.003  -0.001  -0.001   0.000 -15.793   0.003  -0.001
  0.003 -16.194  -0.001   0.001   0.001   0.003 -15.794  -0.001
 -0.001  -0.001 -16.196   0.002   0.001  -0.001  -0.001 -15.796
 -0.001   0.001   0.002 -16.196   0.003  -0.001   0.001   0.002
  0.000   0.001   0.001   0.003 -16.192   0.000   0.001   0.001
-15.793   0.003  -0.001  -0.001   0.000 -15.381   0.003  -0.001
  0.003 -15.794  -0.001   0.001   0.001   0.003 -15.383  -0.001
 -0.001  -0.001 -15.796   0.002   0.001  -0.001  -0.001 -15.384
 -0.001   0.001   0.002 -15.796   0.003  -0.001   0.001   0.002
  0.000   0.001   0.001   0.003 -15.793   0.000   0.001   0.001
 -0.000   0.001   0.001  -0.001   0.001  -0.000   0.001   0.001
  0.000  -0.000  -0.000   0.000  -0.000   0.000  -0.000  -0.000
 -0.002   0.002  -0.000   0.000  -0.001  -0.002   0.002  -0.000
  0.000   0.001   0.002  -0.001  -0.000   0.000   0.001   0.002
  0.001   0.000   0.001   0.002  -0.002   0.001   0.000   0.001
  0.001  -0.002   0.000   0.000   0.001   0.001  -0.001   0.000
  0.000  -0.001  -0.002   0.002  -0.000   0.000  -0.001  -0.002
 -0.001   0.000  -0.001  -0.002   0.001  -0.000   0.000  -0.001
  0.004   0.000   0.000  -0.001  -0.001   0.004   0.000   0.000
 -0.004   0.003   0.000  -0.001  -0.000  -0.004   0.003   0.000
 -0.002  -0.005  -0.001  -0.000  -0.000  -0.002  -0.005  -0.001
  0.001   0.001  -0.005  -0.003  -0.001   0.001   0.001  -0.005
  0.000  -0.000   0.003  -0.004  -0.001   0.000  -0.000   0.003
 -0.000   0.001  -0.000   0.002  -0.004  -0.000   0.001  -0.000
  0.002   0.001   0.000   0.000   0.004   0.001   0.001   0.000
 -0.007  -0.001  -0.000   0.001   0.003  -0.007  -0.001  -0.000
  0.006  -0.005  -0.000   0.002   0.000   0.006  -0.005  -0.000
  0.003   0.009   0.002   0.001   0.001   0.003   0.008   0.002
 -0.001  -0.002   0.009   0.004   0.001  -0.001  -0.002   0.008
 -0.001   0.001  -0.005   0.008   0.002  -0.001   0.001  -0.005
  0.000  -0.002   0.000  -0.004   0.006   0.000  -0.002   0.000
 -0.003  -0.001  -0.000  -0.001  -0.007  -0.002  -0.001  -0.000
 total augmentation occupancy for first ion, spin component:           1
  2.272  -0.120   0.112  -0.017  -0.040  -0.247   0.128  -0.115   0.014   0.041   0.022   0.001  -0.079   0.023   0.038  -0.002
 -0.120   2.293   0.068   0.066  -0.053   0.128  -0.271  -0.072  -0.063   0.056  -0.027  -0.002   0.088   0.031   0.022   0.002
  0.112   0.068   2.310  -0.003  -0.087  -0.115  -0.072  -0.292   0.008   0.090  -0.028  -0.002  -0.008   0.087   0.050  -0.000
 -0.017   0.066  -0.003   2.234  -0.074   0.014  -0.063   0.008  -0.220   0.083   0.066   0.004   0.022  -0.048   0.071   0.000
 -0.040  -0.053  -0.087  -0.074   2.153   0.041   0.056   0.090   0.083  -0.126  -0.024  -0.002  -0.006  -0.009  -0.057  -0.000
 -0.247   0.128  -0.115   0.014   0.041   0.219  -0.136   0.118  -0.010  -0.043  -0.021  -0.001   0.077  -0.021  -0.038   0.003
  0.128  -0.271  -0.072  -0.063   0.056  -0.136   0.245   0.075   0.060  -0.058   0.025   0.002  -0.086  -0.031  -0.021  -0.003
 -0.115  -0.072  -0.292   0.008   0.090   0.118   0.075   0.270  -0.014  -0.093   0.026   0.002   0.008  -0.086  -0.049   0.000
  0.014  -0.063   0.008  -0.220   0.083  -0.010   0.060  -0.014   0.201  -0.092  -0.062  -0.004  -0.021   0.049  -0.071  -0.000
  0.041   0.056   0.090   0.083  -0.126  -0.043  -0.058  -0.093  -0.092   0.096   0.023   0.002   0.007   0.008   0.056   0.000
  0.022  -0.027  -0.028   0.066  -0.024  -0.021   0.025   0.026  -0.062   0.023   1.857   0.001  -0.005  -0.014   0.012  -0.001
  0.001  -0.002  -0.002   0.004  -0.002  -0.001   0.002   0.002  -0.004   0.002   0.001   0.000  -0.001  -0.002   0.002  -0.000
 -0.079   0.088  -0.008   0.022  -0.006   0.077  -0.086   0.008  -0.021   0.007  -0.005  -0.001   0.038   0.002  -0.002   0.001
  0.023   0.031   0.087  -0.048  -0.009  -0.021  -0.031  -0.086   0.049   0.008  -0.014  -0.002   0.002   0.042  -0.004   0.000
  0.038   0.022   0.050   0.071  -0.057  -0.038  -0.021  -0.049  -0.071   0.056   0.012   0.002  -0.002  -0.004   0.041  -0.000
 -0.002   0.002  -0.000   0.000  -0.000   0.003  -0.003   0.000  -0.000   0.000  -0.001  -0.000   0.001   0.000  -0.000   0.000
  0.000   0.001   0.003  -0.002   0.000  -0.000  -0.001  -0.003   0.003  -0.000  -0.003  -0.000   0.000   0.002  -0.000   0.000
  0.001   0.000   0.001   0.003  -0.002  -0.001  -0.000  -0.001  -0.003   0.002   0.002   0.000  -0.000  -0.000   0.002  -0.000
 -0.009   0.005  -0.008  -0.001   0.003   0.012  -0.005   0.008   0.001  -0.004  -0.003  -0.000   0.004  -0.001  -0.003   0.000
  0.009  -0.009   0.004  -0.004   0.000  -0.013   0.011  -0.004   0.003   0.000  -0.004   0.000  -0.005   0.001   0.001  -0.000
 -0.002   0.010   0.010   0.004  -0.006   0.001  -0.014  -0.011  -0.004   0.006  -0.002  -0.000   0.003   0.003   0.003   0.000
  0.004   0.006   0.008   0.003  -0.006  -0.004  -0.005  -0.012  -0.005   0.006   0.001   0.000   0.000   0.002   0.004   0.000
 -0.008   0.004  -0.007   0.003   0.000   0.008  -0.004   0.010  -0.008  -0.001  -0.002   0.000   0.003  -0.004   0.000   0.000
  0.000  -0.006  -0.005  -0.005   0.004  -0.000   0.007   0.005   0.008  -0.007   0.001  -0.000  -0.002  -0.000  -0.004  -0.000
  0.000   0.002   0.001   0.001   0.001   0.001  -0.002  -0.001  -0.001   0.002  -0.002  -0.000   0.001   0.000   0.000   0.000
 -0.003   0.002  -0.003  -0.001   0.001   0.005  -0.002   0.004   0.000  -0.002  -0.001  -0.000   0.002  -0.001  -0.001   0.000
  0.003  -0.003   0.002  -0.002   0.000  -0.005   0.005  -0.002   0.001   0.000  -0.002   0.000  -0.002   0.000   0.000  -0.000
 -0.001   0.003   0.004   0.002  -0.003   0.001  -0.006  -0.005  -0.002   0.003  -0.001  -0.000   0.001   0.001   0.001   0.000
  0.002   0.002   0.003   0.001  -0.003  -0.002  -0.002  -0.005  -0.002   0.003   0.000   0.000   0.000   0.001   0.002   0.000
 -0.003   0.001  -0.002   0.001  -0.000   0.003  -0.002   0.004  -0.003  -0.000  -0.001   0.000   0.001  -0.002   0.000   0.000
  0.000  -0.002  -0.002  -0.002   0.001  -0.000   0.003   0.002   0.003  -0.003   0.000  -0.000  -0.001  -0.000  -0.002  -0.000
  0.000   0.001   0.000   0.000   0.001   0.000  -0.001  -0.000  -0.000   0.001  -0.001  -0.000   0.000   0.000   0.000   0.000
 total augmentation occupancy for first ion, spin component:           2
 -0.000   0.000  -0.000   0.000   0.000   0.000  -0.000   0.000  -0.000  -0.000   0.000   0.000   0.000  -0.000  -0.000   0.000
  0.000  -0.000  -0.000   0.000   0.000  -0.000   0.000   0.000  -0.000  -0.000  -0.000  -0.000   0.000  -0.000  -0.000  -0.000
 -0.000  -0.000  -0.000   0.000   0.000   0.000   0.000   0.000  -0.000  -0.000  -0.000   0.000   0.000   0.000  -0.000   0.000
  0.000   0.000   0.000  -0.000   0.000  -0.000  -0.000  -0.000   0.000  -0.000   0.000   0.000  -0.000  -0.000   0.000  -0.000
  0.000   0.000   0.000   0.000  -0.000  -0.000  -0.000  -0.000  -0.000   0.000   0.000  -0.000   0.000   0.000  -0.000   0.000
  0.000  -0.000   0.000  -0.000  -0.000  -0.000  -0.000   0.000  -0.000   0.000  -0.000   0.000  -0.000   0.000  -0.000  -0.000
 -0.000   0.000   0.000  -0.000  -0.000  -0.000  -0.000  -0.000   0.000  -0.000   0.000   0.000   0.000   0.000   0.000   0.000
  0.000   0.000   0.000  -0.000  -0.000   0.000  -0.000  -0.000   0.000   0.000   0.000   0.000   0.000   0.000   0.000   0.000
 -0.000  -0.000  -0.000   0.000  -0.000  -0.000   0.000   0.000  -0.000  -0.000  -0.000  -0.000   0.000  -0.000  -0.000   0.000
 -0.000  -0.000  -0.000  -0.000   0.000   0.000  -0.000   0.000  -0.000   0.000   0.000  -0.000   0.000  -0.000   0.000  -0.000
  0.000  -0.000  -0.000   0.000   0.000  -0.000   0.000   0.000  -0.000   0.000  -0.000  -0.000  -0.000  -0.000   0.000   0.000
  0.000  -0.000   0.000   0.000  -0.000   0.000   0.000   0.000  -0.000  -0.000  -0.000   0.000  -0.000  -0.000  -0.000  -0.000
  0.000   0.000   0.000  -0.000   0.000  -0.000   0.000   0.000   0.000   0.000  -0.000  -0.000  -0.000   0.000  -0.000  -0.000
 -0.000  -0.000   0.000  -0.000   0.000   0.000   0.000   0.000  -0.000  -0.000  -0.000  -0.000   0.000   0.000  -0.000   0.000
 -0.000  -0.000  -0.000   0.000  -0.000  -0.000   0.000   0.000  -0.000   0.000   0.000  -0.000  -0.000  -0.000   0.000  -0.000
  0.000  -0.000   0.000  -0.000   0.000  -0.000   0.000   0.000   0.000  -0.000   0.000  -0.000  -0.000   0.000  -0.000  -0.000
 -0.000  -0.000  -0.000   0.000  -0.000  -0.000   0.000   0.000   0.000  -0.000  -0.000  -0.000  -0.000   0.000  -0.000  -0.000
 -0.000  -0.000  -0.000  -0.000   0.000   0.000   0.000   0.000   0.000  -0.000   0.000  -0.000  -0.000  -0.000  -0.000  -0.000
 -0.000   0.000  -0.000  -0.000  -0.000   0.000   0.000   0.000  -0.000   0.000   0.000   0.000   0.000  -0.000   0.000  -0.000
  0.000  -0.000   0.000   0.000  -0.000  -0.000   0.000  -0.000   0.000   0.000  -0.000  -0.000  -0.000   0.000  -0.000   0.000
 -0.000   0.000   0.000   0.000  -0.000   0.000  -0.000   0.000  -0.000   0.000   0.000  -0.000   0.000   0.000   0.000  -0.000
  0.000   0.000   0.000   0.000  -0.000  -0.000   0.000  -0.000   0.000   0.000   0.000  -0.000  -0.000   0.000   0.000  -0.000
 -0.000  -0.000  -0.000   0.000  -0.000   0.000  -0.000   0.000  -0.000   0.000  -0.000   0.000   0.000  -0.000   0.000  -0.000
  0.000  -0.000  -0.000  -0.000   0.000  -0.000   0.000  -0.000   0.000  -0.000   0.000   0.000  -0.000   0.000  -0.000   0.000
 -0.000   0.000   0.000   0.000  -0.000  -0.000  -0.000   0.000  -0.000   0.000  -0.000   0.000  -0.000  -0.000   0.000  -0.000
 -0.000   0.000  -0.000  -0.000   0.000   0.000   0.000   0.000  -0.000  -0.000   0.000   0.000  -0.000  -0.000   0.000  -0.000
  0.000  -0.000   0.000   0.000  -0.000  -0.000   0.000  -0.000   0.000   0.000  -0.000  -0.000  -0.000   0.000  -0.000  -0.000
  0.000   0.000   0.000   0.000  -0.000   0.000  -0.000  -0.000  -0.000   0.000   0.000  -0.000   0.000   0.000  -0.000  -0.000
  0.000  -0.000   0.000   0.000  -0.000  -0.000  -0.000  -0.000   0.000   0.000   0.000  -0.000  -0.000   0.000   0.000  -0.000
 -0.000   0.000  -0.000   0.000  -0.000   0.000  -0.000   0.000  -0.000   0.000   0.000   0.000   0.000  -0.000   0.000  -0.000
  0.000  -0.000  -0.000  -0.000   0.000  -0.000   0.000  -0.000   0.000  -0.000   0.000  -0.000  -0.000   0.000  -0.000   0.000
 -0.000   0.000  -0.000   0.000   0.000  -0.000  -0.000  -0.000  -0.000   0.000  -0.000   0.000  -0.000  -0.000   0.000  -0.000


------------------------ aborting loop because EDIFF is reached ----------------------------------------


 


 total charge     
 
# of ion       s       p       d       f       tot
--------------------------------------------------
    1        0.849   0.077   9.641   0.002  10.568
    2        0.850   0.074   9.641   0.001  10.566
    3        0.850   0.075   9.641   0.001  10.567
    4        0.849   0.077   9.641   0.002  10.568
--------------------------------------------------
tot          3.398   0.302  38.564   0.006  42.270

 


 magnetization (x)
 
# of ion       s       p       d       f       tot
--------------------------------------------------
    1       -0.000   0.000   0.000   0.000   0.000
    2       -0.000   0.000  -0.000   0.000  -0.000
    3       -0.000   0.000   0.000   0.000  -0.000
    4       -0.000  -0.000   0.000   0.000   0.000
--------------------------------------------------
tot         -0.000  -0.000   0.000   0.000  -0.000

 
    CHARGE:  cpu time    1.6927: real time    1.7010
    FORLOC:  cpu time    0.0320: real time    0.0318
    FORNL :  cpu time    9.0176: real time    9.0875
    FORCOR:  cpu time    4.6753: real time    4.6976
    FORHAR:  cpu time    0.2980: real time    0.2995
    MIXING:  cpu time    0.0850: real time    0.0848
    OFIELD:  cpu time    0.0000: real time    0.0000

 VOLUME and BASIS-vectors are now :
 -----------------------------------------------------------------------------
  energy-cutoff  :      500.00
  volume of cell :     4913.00
      direct lattice vectors                 reciprocal lattice vectors
    17.000000000  0.000000000  0.000000000     0.058823529  0.000000000  0.000000000
     0.000000000 17.000000000  0.000000000     0.000000000  0.058823529  0.000000000
     0.000000000  0.000000000 17.000000000     0.000000000  0.000000000  0.058823529

  length of vectors
    17.000000000 17.000000000 17.000000000     0.058823529  0.058823529  0.058823529


 FORCES acting on ions
    electron-ion (+dipol)            ewald-force                    non-local-force                 convergence-correction
 -----------------------------------------------------------------------------------------------
   0.304E+03 -.113E+03 -.372E+03   -.304E+03 0.113E+03 0.372E+03   0.667E-01 -.261E-01 -.851E-01   0.370E-01 -.565E-01 -.631E-01
   -.189E+03 -.413E+03 0.188E+03   0.189E+03 0.413E+03 -.188E+03   -.290E-01 -.711E-01 0.331E-01   -.490E-02 -.805E-01 -.131E-01
   0.251E+03 0.239E+03 0.350E+03   -.251E+03 -.239E+03 -.350E+03   0.464E-01 0.450E-01 0.698E-01   0.775E-02 0.261E-01 0.885E-02
   -.366E+03 0.287E+03 -.166E+03   0.366E+03 -.287E+03 0.166E+03   -.807E-01 0.656E-01 -.389E-01   -.237E-01 0.349E-01 -.181E-01
 -----------------------------------------------------------------------------------------------
   -.187E-01 0.624E-01 0.106E+00   0.000E+00 0.000E+00 0.284E-13   0.333E-02 0.134E-01 -.210E-01   0.162E-01 -.761E-01 -.854E-01
 
 
 POSITION                                       TOTAL-FORCE (eV/Angst)
 -----------------------------------------------------------------------------------
     15.96868      0.27311      1.43865        -0.007711      0.011915      0.009075
      0.91177      1.47803     16.23773        -0.009225     -0.009328     -0.001150
     16.16667     15.89046     15.60517         0.004471      0.005409     -0.007865
      1.58954     15.71606      0.63306         0.012464     -0.007997     -0.000059
 -----------------------------------------------------------------------------------
    total drift:                                0.000847     -0.000321     -0.000455


--------------------------------------------------------------------------------------------------------



  FREE ENERGIE OF THE ION-ELECTRON SYSTEM (eV)
  ---------------------------------------------------
  free  energy   TOTEN  =        -0.68704793 eV

  energy  without entropy=       -0.68704793  energy(sigma->0) =       -0.68704793
 
 d Force = 0.4958379E-04[-0.865E-05, 0.108E-03]  d Energy = 0.6050129E-04-0.109E-04
 d Force =-0.5124881E+01[-0.513E+01,-0.512E+01]  d Ewald  =-0.5124871E+01-0.103E-04


--------------------------------------------------------------------------------------------------------


    POTLOK:  cpu time    4.8593: real time    4.8794


--------------------------------------------------------------------------------------------------------




--------------------------------------------------------------------------------------------------------


    WAVPRE:  cpu time    0.1470: real time    0.1807
    FEWALD:  cpu time    0.0030: real time    0.0028

 real space projection operators:
  total allocation   :       2568.75 KBytes
  max/ min on nodes  :        645.50        638.50

    ORTHCH:  cpu time    0.3959: real time    0.4007
     LOOP+:  cpu time   81.2456: real time   88.2142


--------------------------------------- Iteration     10(   1)  ---------------------------------------


    POTLOK:  cpu time    2.4476: real time    2.4745
    SETDIJ:  cpu time    2.3946: real time    2.4053
     EDDAV:  cpu time    4.5953: real time    4.6179
       DOS:  cpu time    0.0000: real time    0.0002
    CHARGE:  cpu time    1.6987: real time    1.7083
    MIXING:  cpu time    0.0540: real time    0.0535
    --------------------------------------------
      LOOP:  cpu time   11.1903: real time   11.2598

 eigenvalue-minimisations  :   180
 total energy-change (2. order) :-0.2181954E-04  (-0.8257929E-01)
 number of electron      48.0000002 magnetization       0.0000223
 augmentation part       24.3254476 magnetization       0.0000221

  free energy =  -0.687068987711E+00  energy without entropy=  -0.687068987711E+00


--------------------------------------------------------------------------------------------------------




--------------------------------------- Iteration     10(   2)  ---------------------------------------


    POTLOK:  cpu time    2.4586: real time    2.4712
    SETDIJ:  cpu time    2.3756: real time    2.3897
     EDDAV:  cpu time    4.0284: real time    4.0485
       DOS:  cpu time    0.0000: real time    0.0002
    CHARGE:  cpu time    1.7007: real time    1.7073
    MIXING:  cpu time    0.0610: real time    0.0633
    --------------------------------------------
      LOOP:  cpu time   10.6244: real time   10.6803

 eigenvalue-minimisations  :   152
 total energy-change (2. order) :-0.1476980E-03  (-0.1490938E-03)
 number of electron      48.0000002 magnetization       0.0000202
 augmentation part       24.3251468 magnetization       0.0000201

 eigenvalues of (default mixing * dielectric matrix)
  average eigenvalue GAMMA=   0.8791
  0.8791

  free energy =  -0.687216685733E+00  energy without entropy=  -0.687216685733E+00


--------------------------------------------------------------------------------------------------------




--------------------------------------- Iteration     10(   3)  ---------------------------------------


    POTLOK:  cpu time    2.4686: real time    5.5793
    SETDIJ:  cpu time    2.4086: real time    2.4147
     EDDAV:  cpu time    4.8393: real time    4.8697
       DOS:  cpu time    0.0000: real time    0.0003
    CHARGE:  cpu time    1.6997: real time    1.7053
    MIXING:  cpu time    0.0680: real time    0.0693
    --------------------------------------------
      LOOP:  cpu time   11.4853: real time   14.6385

 eigenvalue-minimisations  :   192
 total energy-change (2. order) :-0.3830810E-06  (-0.2558086E-05)
 number of electron      48.0000002 magnetization       0.0000111
 augmentation part       24.3251806 magnetization       0.0000110

 eigenvalues of (default mixing * dielectric matrix)
  average eigenvalue GAMMA=   2.3428
  1.0561  3.6295

  free energy =  -0.687217068814E+00  energy without entropy=  -0.687217068814E+00


--------------------------------------------------------------------------------------------------------




--------------------------------------- Iteration     10(   4)  ---------------------------------------


    POTLOK:  cpu time    2.4636: real time    2.4746
    SETDIJ:  cpu time    2.3896: real time    2.3945
     EDDAV:  cpu time    2.1237: real time    2.1301
       DOS:  cpu time    0.0000: real time    0.0003
    CHARGE:  cpu time    1.6977: real time    1.7051
    MIXING:  cpu time    0.0740: real time    0.0735
    --------------------------------------------
      LOOP:  cpu time    8.7477: real time    8.7782

 eigenvalue-minimisations  :    60
 total energy-change (2. order) : 0.1411865E-05  (-0.7656691E-07)
 number of electron      48.0000002 magnetization      -0.0000292
 augmentation part       24.3251657 magnetization      -0.0000293

 eigenvalues of (default mixing * dielectric matrix)
  average eigenvalue GAMMA=  10.6307
 29.8589  1.0893  0.9438

  free energy =  -0.687215656949E+00  energy without entropy=  -0.687215656949E+00


--------------------------------------------------------------------------------------------------------




--------------------------------------- Iteration     10(   5)  ---------------------------------------


    POTLOK:  cpu time    2.4646: real time    2.4714
    SETDIJ:  cpu time    2.3906: real time    2.4126
     EDDAV:  cpu time    4.0224: real time    4.0339
       DOS:  cpu time    0.0000: real time    0.0002
    CHARGE:  cpu time    1.7017: real time    1.7073
    MIXING:  cpu time    0.0790: real time    0.0788
    --------------------------------------------
      LOOP:  cpu time   10.6584: real time   10.7043

 eigenvalue-minimisations  :   152
 total energy-change (2. order) :-0.1861325E-05  (-0.1561712E-05)
 number of electron      48.0000002 magnetization      -0.0000348
 augmentation part       24.3249676 magnetization      -0.0000347

 eigenvalues of (default mixing * dielectric matrix)
  average eigenvalue GAMMA=   8.5844
 31.5724  1.0589  0.9686  0.7378

  free energy =  -0.687217518274E+00  energy without entropy=  -0.687217518274E+00


--------------------------------------------------------------------------------------------------------




--------------------------------------- Iteration     10(   6)  ---------------------------------------


    POTLOK:  cpu time    2.4656: real time    2.4728
    SETDIJ:  cpu time    2.3886: real time    2.3939
     EDDAV:  cpu time    2.9496: real time    2.9596
       DOS:  cpu time    0.0000: real time    0.0002
    --------------------------------------------
      LOOP:  cpu time    7.8038: real time    7.8264

 eigenvalue-minimisations  :   100
 total energy-change (2. order) :-0.7658173E-06  (-0.3198171E-06)
 number of electron      48.0000002 magnetization      -0.0000348
 augmentation part       24.3249676 magnetization      -0.0000347

  free energy =  -0.687218284092E+00  energy without entropy=  -0.687218284092E+00


--------------------------------------------------------------------------------------------------------




 average (electrostatic) potential at core
  the test charge radii are     1.1405
  (the norm of the test charge is              1.0000)
       1 -75.9182       2 -75.9185       3 -75.9199       4 -75.9194
 
 
 
 E-fermi :  -5.1133     XC(G=0):  -0.5408     alpha+bet : -0.1736


 spin component 1

 k-point     1 :       0.0000    0.0000    0.0000
  band No.  band energies     occupation 
      1     -12.2798      1.00000
      2     -12.0989      1.00000
      3     -12.0953      1.00000
      4     -12.0937      1.00000
      5     -12.0620      1.00000
      6     -12.0599      1.00000
      7     -11.9036      1.00000
      8     -11.9020      1.00000
      9     -11.9018      1.00000
     10     -11.7632      1.00000
     11     -11.7629      1.00000
     12     -11.7614      1.00000
     13     -11.7494      1.00000
     14     -11.7488      1.00000
     15     -11.7288      1.00000
     16     -11.7267      1.00000
     17     -11.7256      1.00000
     18     -11.6038      1.00000
     19     -11.6012      1.00000
     20     -11.5988      1.00000
     21      -8.0759      1.00000
     22      -5.1713      1.00000
     23      -5.1582      1.00000
     24      -5.1554      1.00000
     25      -2.2129      0.00000
     26      -1.7742      0.00000
     27      -1.7681      0.00000
     28      -1.7625      0.00000
     29      -1.3431      0.00000
     30      -1.3371      0.00000

 spin component 2

 k-point     1 :       0.0000    0.0000    0.0000
  band No.  band energies     occupation 
      1     -12.2798      1.00000
      2     -12.0989      1.00000
      3     -12.0953      1.00000
      4     -12.0937      1.00000
      5     -12.0620      1.00000
      6     -12.0599      1.00000
      7     -11.9036      1.00000
      8     -11.9020      1.00000
      9     -11.9018      1.00000
     10     -11.7632      1.00000
     11     -11.7629      1.00000
     12     -11.7614      1.00000
     13     -11.7494      1.00000
     14     -11.7488      1.00000
     15     -11.7288      1.00000
     16     -11.7267      1.00000
     17     -11.7256      1.00000
     18     -11.6038      1.00000
     19     -11.6012      1.00000
     20     -11.5988      1.00000
     21      -8.0759      1.00000
     22      -5.1713      1.00000
     23      -5.1582      1.00000
     24      -5.1554      1.00000
     25      -2.2129      0.00000
     26      -1.7742      0.00000
     27      -1.7681      0.00000
     28      -1.7625      0.00000
     29      -1.3431      0.00000
     30      -1.3371      0.00000


--------------------------------------------------------------------------------------------------------


 soft charge-density along one line, spin component           1
         0         1         2         3         4         5         6         7         8         9
 total charge-density along one line
 
 soft charge-density along one line, spin component           2
         0         1         2         3         4         5         6         7         8         9
 total charge-density along one line
 
 pseudopotential strength for first ion, spin component:           1
-16.192   0.003  -0.001  -0.001   0.000 -15.792   0.003  -0.001
  0.003 -16.193  -0.001   0.001   0.001   0.003 -15.793  -0.001
 -0.001  -0.001 -16.195   0.002   0.001  -0.001  -0.001 -15.795
 -0.001   0.001   0.002 -16.195   0.003  -0.001   0.001   0.002
  0.000   0.001   0.001   0.003 -16.191   0.000   0.001   0.001
-15.792   0.003  -0.001  -0.001   0.000 -15.380   0.003  -0.001
  0.003 -15.793  -0.001   0.001   0.001   0.003 -15.382  -0.001
 -0.001  -0.001 -15.795   0.002   0.001  -0.001  -0.001 -15.383
 -0.001   0.001   0.002 -15.795   0.003  -0.001   0.001   0.002
  0.000   0.001   0.001   0.003 -15.792   0.000   0.001   0.001
 -0.000   0.001   0.001  -0.001   0.001  -0.000   0.001   0.001
  0.000  -0.000  -0.000   0.000  -0.000   0.000  -0.000  -0.000
 -0.002   0.002  -0.000   0.000  -0.001  -0.002   0.002  -0.000
  0.000   0.000   0.002  -0.001  -0.000   0.000   0.000   0.002
  0.001   0.000   0.001   0.002  -0.002   0.000   0.000   0.001
  0.001  -0.002   0.000   0.000   0.001   0.001  -0.001   0.000
  0.000  -0.000  -0.002   0.001  -0.000   0.000  -0.000  -0.002
 -0.000   0.000  -0.001  -0.002   0.001  -0.000   0.000  -0.001
  0.004   0.000   0.000  -0.001  -0.001   0.004   0.000   0.000
 -0.004   0.003   0.000  -0.001  -0.000  -0.003   0.003   0.000
 -0.002  -0.005  -0.001  -0.000  -0.000  -0.002  -0.004  -0.001
  0.001   0.001  -0.005  -0.002  -0.001   0.001   0.001  -0.005
  0.000  -0.000   0.003  -0.004  -0.001   0.000  -0.000   0.003
 -0.000   0.001  -0.000   0.002  -0.004  -0.000   0.001  -0.000
  0.001   0.001   0.000   0.000   0.004   0.001   0.001   0.000
 -0.007  -0.001  -0.000   0.001   0.002  -0.006  -0.001  -0.000
  0.006  -0.005  -0.000   0.002   0.000   0.006  -0.004  -0.000
  0.003   0.008   0.002   0.001   0.001   0.003   0.008   0.002
 -0.001  -0.002   0.008   0.004   0.001  -0.001  -0.001   0.008
 -0.001   0.001  -0.005   0.007   0.002  -0.001   0.001  -0.004
  0.000  -0.001   0.000  -0.004   0.006   0.000  -0.001   0.000
 -0.002  -0.001  -0.000  -0.001  -0.007  -0.002  -0.001  -0.000
 pseudopotential strength for first ion, spin component:           2
-16.192   0.003  -0.001  -0.001   0.000 -15.792   0.003  -0.001
  0.003 -16.193  -0.001   0.001   0.001   0.003 -15.793  -0.001
 -0.001  -0.001 -16.195   0.002   0.001  -0.001  -0.001 -15.795
 -0.001   0.001   0.002 -16.195   0.003  -0.001   0.001   0.002
  0.000   0.001   0.001   0.003 -16.191   0.000   0.001   0.001
-15.792   0.003  -0.001  -0.001   0.000 -15.380   0.003  -0.001
  0.003 -15.793  -0.001   0.001   0.001   0.003 -15.382  -0.001
 -0.001  -0.001 -15.795   0.002   0.001  -0.001  -0.001 -15.383
 -0.001   0.001   0.002 -15.795   0.003  -0.001   0.001   0.002
  0.000   0.001   0.001   0.003 -15.792   0.000   0.001   0.001
 -0.000   0.001   0.001  -0.001   0.001  -0.000   0.001   0.001
  0.000  -0.000  -0.000   0.000  -0.000   0.000  -0.000  -0.000
 -0.002   0.002  -0.000   0.000  -0.001  -0.002   0.002  -0.000
  0.000   0.000   0.002  -0.001  -0.000   0.000   0.000   0.002
  0.001   0.000   0.001   0.002  -0.002   0.000   0.000   0.001
  0.001  -0.002   0.000   0.000   0.001   0.001  -0.001   0.000
  0.000  -0.000  -0.002   0.001  -0.000   0.000  -0.000  -0.002
 -0.000   0.000  -0.001  -0.002   0.001  -0.000   0.000  -0.001
  0.004   0.000   0.000  -0.001  -0.001   0.004   0.000   0.000
 -0.004   0.003   0.000  -0.001  -0.000  -0.003   0.003   0.000
 -0.002  -0.005  -0.001  -0.000  -0.000  -0.002  -0.004  -0.001
  0.001   0.001  -0.005  -0.002  -0.001   0.001   0.001  -0.005
  0.000  -0.000   0.003  -0.004  -0.001   0.000  -0.000   0.003
 -0.000   0.001  -0.000   0.002  -0.004  -0.000   0.001  -0.000
  0.001   0.001   0.000   0.000   0.004   0.001   0.001   0.000
 -0.007  -0.001  -0.000   0.001   0.002  -0.006  -0.001  -0.000
  0.006  -0.005  -0.000   0.002   0.000   0.006  -0.004  -0.000
  0.003   0.008   0.002   0.001   0.001   0.003   0.008   0.002
 -0.001  -0.002   0.008   0.004   0.001  -0.001  -0.001   0.008
 -0.001   0.001  -0.005   0.007   0.002  -0.001   0.001  -0.004
  0.000  -0.001   0.000  -0.004   0.006   0.000  -0.001   0.000
 -0.002  -0.001  -0.000  -0.001  -0.007  -0.002  -0.001  -0.000
 total augmentation occupancy for first ion, spin component:           1
  2.268  -0.119   0.110  -0.018  -0.039  -0.244   0.127  -0.114   0.015   0.040   0.021   0.001  -0.078   0.023   0.037  -0.002
 -0.119   2.289   0.067   0.066  -0.053   0.127  -0.268  -0.071  -0.064   0.056  -0.026  -0.002   0.087   0.030   0.022   0.002
  0.110   0.067   2.306  -0.004  -0.085  -0.114  -0.071  -0.289   0.010   0.088  -0.029  -0.002  -0.008   0.086   0.049  -0.000
 -0.018   0.066  -0.004   2.232  -0.074   0.015  -0.064   0.010  -0.218   0.083   0.067   0.004   0.022  -0.048   0.071   0.000
 -0.039  -0.053  -0.085  -0.074   2.150   0.040   0.056   0.088   0.083  -0.124  -0.024  -0.002  -0.007  -0.008  -0.056  -0.000
 -0.244   0.127  -0.114   0.015   0.040   0.215  -0.135   0.117  -0.011  -0.041  -0.020  -0.001   0.076  -0.021  -0.037   0.002
  0.127  -0.268  -0.071  -0.064   0.056  -0.135   0.243   0.074   0.061  -0.058   0.024   0.002  -0.085  -0.030  -0.021  -0.003
 -0.114  -0.071  -0.289   0.010   0.088   0.117   0.074   0.267  -0.015  -0.091   0.027   0.002   0.008  -0.085  -0.048   0.000
  0.015  -0.064   0.010  -0.218   0.083  -0.011   0.061  -0.015   0.201  -0.092  -0.062  -0.004  -0.021   0.049  -0.071  -0.000
  0.040   0.056   0.088   0.083  -0.124  -0.041  -0.058  -0.091  -0.092   0.094   0.022   0.002   0.007   0.007   0.055   0.000
  0.021  -0.026  -0.029   0.067  -0.024  -0.020   0.024   0.027  -0.062   0.022   1.857   0.001  -0.005  -0.015   0.012  -0.001
  0.001  -0.002  -0.002   0.004  -0.002  -0.001   0.002   0.002  -0.004   0.002   0.001   0.000  -0.001  -0.002   0.002  -0.000
 -0.078   0.087  -0.008   0.022  -0.007   0.076  -0.085   0.008  -0.021   0.007  -0.005  -0.001   0.038   0.002  -0.001   0.001
  0.023   0.030   0.086  -0.048  -0.008  -0.021  -0.030  -0.085   0.049   0.007  -0.015  -0.002   0.002   0.042  -0.004   0.000
  0.037   0.022   0.049   0.071  -0.056  -0.037  -0.021  -0.048  -0.071   0.055   0.012   0.002  -0.001  -0.004   0.041  -0.000
 -0.002   0.002  -0.000   0.000  -0.000   0.002  -0.003   0.000  -0.000   0.000  -0.001  -0.000   0.001   0.000  -0.000   0.000
  0.000   0.001   0.003  -0.002   0.000  -0.000  -0.001  -0.003   0.003  -0.000  -0.003  -0.000   0.000   0.002  -0.000   0.000
  0.001   0.000   0.001   0.003  -0.002  -0.001  -0.000  -0.001  -0.003   0.002   0.002   0.000  -0.000  -0.000   0.001  -0.000
 -0.009   0.005  -0.008  -0.001   0.003   0.012  -0.005   0.008   0.001  -0.004  -0.003  -0.000   0.004  -0.001  -0.003   0.000
  0.009  -0.009   0.004  -0.004   0.000  -0.013   0.011  -0.004   0.003  -0.000  -0.004   0.000  -0.005   0.001   0.000  -0.000
 -0.002   0.010   0.010   0.004  -0.006   0.001  -0.014  -0.011  -0.004   0.006  -0.002  -0.000   0.003   0.003   0.003   0.000
  0.004   0.005   0.008   0.003  -0.006  -0.004  -0.005  -0.012  -0.005   0.006   0.001   0.000   0.000   0.002   0.004   0.000
 -0.008   0.004  -0.007   0.003   0.000   0.008  -0.004   0.010  -0.008  -0.001  -0.002   0.000   0.003  -0.004   0.000   0.000
  0.000  -0.006  -0.005  -0.005   0.004  -0.000   0.007   0.005   0.008  -0.007   0.001  -0.000  -0.002  -0.000  -0.004  -0.000
 -0.000   0.002   0.001   0.001   0.001   0.001  -0.002  -0.001  -0.001   0.002  -0.002  -0.000   0.001   0.000   0.000   0.000
 -0.003   0.002  -0.003  -0.000   0.001   0.005  -0.002   0.004   0.000  -0.002  -0.001  -0.000   0.002  -0.001  -0.001   0.000
  0.003  -0.003   0.002  -0.002   0.000  -0.005   0.005  -0.002   0.001  -0.000  -0.002   0.000  -0.002   0.000   0.000  -0.000
 -0.001   0.003   0.004   0.002  -0.003   0.001  -0.006  -0.005  -0.002   0.003  -0.001  -0.000   0.001   0.001   0.001   0.000
  0.002   0.002   0.003   0.001  -0.003  -0.002  -0.002  -0.005  -0.002   0.003   0.000   0.000   0.000   0.001   0.002   0.000
 -0.003   0.001  -0.002   0.001  -0.000   0.003  -0.002   0.004  -0.003  -0.000  -0.001   0.000   0.001  -0.002   0.000   0.000
  0.000  -0.002  -0.002  -0.002   0.001  -0.000   0.003   0.002   0.003  -0.003   0.000  -0.000  -0.001  -0.000  -0.002  -0.000
  0.000   0.001   0.000   0.000   0.001   0.000  -0.001  -0.000  -0.000   0.001  -0.001  -0.000   0.000   0.000   0.000   0.000
 total augmentation occupancy for first ion, spin component:           2
  0.000  -0.000   0.000  -0.000  -0.000  -0.000   0.000  -0.000   0.000  -0.000  -0.000  -0.000  -0.000   0.000   0.000  -0.000
 -0.000   0.000  -0.000  -0.000   0.000   0.000  -0.000  -0.000   0.000   0.000   0.000   0.000   0.000   0.000   0.000   0.000
  0.000  -0.000   0.000   0.000   0.000  -0.000   0.000  -0.000  -0.000  -0.000   0.000  -0.000   0.000  -0.000   0.000  -0.000
 -0.000  -0.000   0.000   0.000   0.000   0.000  -0.000  -0.000  -0.000  -0.000  -0.000  -0.000   0.000   0.000  -0.000   0.000
 -0.000   0.000   0.000   0.000   0.000  -0.000  -0.000  -0.000  -0.000  -0.000   0.000   0.000  -0.000  -0.000   0.000  -0.000
 -0.000   0.000  -0.000   0.000  -0.000  -0.000  -0.000  -0.000   0.000   0.000   0.000   0.000  -0.000  -0.000   0.000   0.000
  0.000  -0.000   0.000  -0.000  -0.000  -0.000   0.000   0.000  -0.000  -0.000  -0.000  -0.000  -0.000  -0.000  -0.000  -0.000
 -0.000  -0.000  -0.000  -0.000  -0.000  -0.000   0.000  -0.000   0.000  -0.000  -0.000   0.000  -0.000   0.000  -0.000  -0.000
  0.000   0.000  -0.000  -0.000  -0.000   0.000  -0.000   0.000  -0.000   0.000   0.000  -0.000   0.000   0.000   0.000  -0.000
 -0.000   0.000  -0.000  -0.000  -0.000   0.000  -0.000  -0.000   0.000  -0.000  -0.000   0.000   0.000   0.000  -0.000   0.000
 -0.000   0.000   0.000  -0.000   0.000   0.000  -0.000  -0.000   0.000  -0.000   0.000  -0.000   0.000   0.000  -0.000  -0.000
 -0.000   0.000  -0.000  -0.000   0.000   0.000  -0.000   0.000  -0.000   0.000  -0.000   0.000   0.000  -0.000   0.000   0.000
 -0.000   0.000   0.000   0.000  -0.000  -0.000  -0.000  -0.000   0.000   0.000   0.000   0.000  -0.000   0.000   0.000   0.000
  0.000   0.000  -0.000   0.000  -0.000  -0.000  -0.000   0.000   0.000   0.000   0.000  -0.000   0.000   0.000  -0.000  -0.000
  0.000   0.000   0.000  -0.000   0.000   0.000  -0.000  -0.000   0.000  -0.000  -0.000   0.000   0.000  -0.000   0.000   0.000
 -0.000   0.000  -0.000   0.000  -0.000   0.000  -0.000  -0.000  -0.000   0.000  -0.000   0.000   0.000  -0.000   0.000   0.000
  0.000   0.000   0.000  -0.000   0.000   0.000  -0.000  -0.000  -0.000   0.000   0.000  -0.000   0.000   0.000   0.000   0.000
  0.000   0.000   0.000   0.000  -0.000  -0.000   0.000  -0.000   0.000  -0.000  -0.000   0.000  -0.000   0.000   0.000  -0.000
  0.000  -0.000   0.000   0.000   0.000  -0.000   0.000   0.000   0.000  -0.000  -0.000   0.000  -0.000  -0.000  -0.000   0.000
 -0.000   0.000   0.000  -0.000  -0.000   0.000  -0.000  -0.000   0.000   0.000   0.000  -0.000   0.000   0.000  -0.000   0.000
 -0.000  -0.000  -0.000   0.000   0.000   0.000  -0.000  -0.000  -0.000   0.000  -0.000   0.000   0.000  -0.000   0.000   0.000
 -0.000  -0.000  -0.000   0.000   0.000   0.000  -0.000   0.000  -0.000  -0.000   0.000   0.000   0.000  -0.000   0.000   0.000
  0.000  -0.000   0.000  -0.000   0.000  -0.000   0.000   0.000   0.000  -0.000   0.000   0.000  -0.000  -0.000  -0.000  -0.000
 -0.000   0.000   0.000   0.000  -0.000   0.000  -0.000   0.000  -0.000   0.000  -0.000  -0.000   0.000  -0.000   0.000   0.000
  0.000  -0.000  -0.000  -0.000  -0.000  -0.000   0.000  -0.000   0.000  -0.000   0.000   0.000  -0.000   0.000  -0.000  -0.000
  0.000  -0.000   0.000   0.000  -0.000  -0.000   0.000   0.000   0.000  -0.000  -0.000  -0.000  -0.000  -0.000  -0.000  -0.000
 -0.000   0.000   0.000  -0.000  -0.000   0.000  -0.000  -0.000   0.000   0.000   0.000  -0.000   0.000   0.000  -0.000   0.000
 -0.000  -0.000  -0.000   0.000   0.000   0.000  -0.000  -0.000  -0.000   0.000  -0.000   0.000   0.000  -0.000   0.000   0.000
 -0.000   0.000  -0.000   0.000   0.000   0.000  -0.000   0.000  -0.000  -0.000   0.000   0.000   0.000  -0.000   0.000   0.000
  0.000  -0.000  -0.000  -0.000   0.000  -0.000   0.000   0.000   0.000  -0.000  -0.000   0.000  -0.000  -0.000  -0.000  -0.000
 -0.000   0.000   0.000   0.000  -0.000   0.000  -0.000   0.000  -0.000   0.000  -0.000  -0.000   0.000   0.000   0.000   0.000
  0.000  -0.000   0.000   0.000  -0.000  -0.000   0.000  -0.000   0.000  -0.000   0.000  -0.000  -0.000   0.000  -0.000  -0.000


------------------------ aborting loop because EDIFF is reached ----------------------------------------


 


 total charge     
 
# of ion       s       p       d       f       tot
--------------------------------------------------
    1        0.849   0.076   9.641   0.001  10.568
    2        0.850   0.074   9.641   0.001  10.567
    3        0.850   0.075   9.641   0.001  10.567
    4        0.850   0.076   9.641   0.002  10.568
--------------------------------------------------
tot          3.398   0.302  38.564   0.006  42.270

 


 magnetization (x)
 
# of ion       s       p       d       f       tot
--------------------------------------------------
    1        0.000   0.000  -0.000  -0.000  -0.000
    2        0.000  -0.000   0.000  -0.000   0.000
    3        0.000   0.000  -0.000  -0.000   0.000
    4        0.000   0.000  -0.000  -0.000  -0.000
--------------------------------------------------
tot          0.000   0.000  -0.000  -0.000   0.000

 
    CHARGE:  cpu time    1.6907: real time    1.6967
    FORLOC:  cpu time    0.0320: real time    0.0318
    FORNL :  cpu time    9.0566: real time    9.0819
    FORCOR:  cpu time    4.6853: real time    4.7018
    FORHAR:  cpu time    0.2980: real time    0.2997
    MIXING:  cpu time    0.0850: real time    0.0849
    OFIELD:  cpu time    0.0000: real time    0.0000

 VOLUME and BASIS-vectors are now :
 -----------------------------------------------------------------------------
  energy-cutoff  :      500.00
  volume of cell :     4913.00
      direct lattice vectors                 reciprocal lattice vectors
    17.000000000  0.000000000  0.000000000     0.058823529  0.000000000  0.000000000
     0.000000000 17.000000000  0.000000000     0.000000000  0.058823529  0.000000000
     0.000000000  0.000000000 17.000000000     0.000000000  0.000000000  0.058823529

  length of vectors
    17.000000000 17.000000000 17.000000000     0.058823529  0.058823529  0.058823529


 FORCES acting on ions
    electron-ion (+dipol)            ewald-force                    non-local-force                 convergence-correction
 -----------------------------------------------------------------------------------------------
   0.303E+03 -.113E+03 -.372E+03   -.303E+03 0.113E+03 0.372E+03   0.662E-01 -.255E-01 -.826E-01   -.238E-01 0.344E-01 0.324E-01
   -.189E+03 -.413E+03 0.188E+03   0.189E+03 0.413E+03 -.188E+03   -.340E-01 -.806E-01 0.363E-01   0.206E-01 0.767E-01 -.420E-02
   0.251E+03 0.239E+03 0.350E+03   -.251E+03 -.239E+03 -.350E+03   0.506E-01 0.502E-01 0.741E-01   -.265E-01 -.107E-01 -.209E-01
   -.365E+03 0.286E+03 -.166E+03   0.365E+03 -.286E+03 0.166E+03   -.805E-01 0.660E-01 -.380E-01   0.232E-01 -.327E-02 0.170E-01
 -----------------------------------------------------------------------------------------------
   0.610E-02 -.108E+00 -.148E-01   0.568E-13 0.114E-12 0.000E+00   0.220E-02 0.101E-01 -.102E-01   -.662E-02 0.972E-01 0.242E-01
 
 
 POSITION                                       TOTAL-FORCE (eV/Angst)
 -----------------------------------------------------------------------------------
     15.96657      0.27677      1.44105        -0.003076      0.005843      0.004383
      0.90887      1.47533     16.23764        -0.005976     -0.006663     -0.000817
     16.16867     15.89192     15.60348         0.002735      0.004663     -0.003890
      1.59255     15.71365      0.63244         0.006317     -0.003844      0.000324
 -----------------------------------------------------------------------------------
    total drift:                                0.001681     -0.001078     -0.000768


--------------------------------------------------------------------------------------------------------



  FREE ENERGIE OF THE ION-ELECTRON SYSTEM (eV)
  ---------------------------------------------------
  free  energy   TOTEN  =        -0.68721828 eV

  energy  without entropy=       -0.68721828  energy(sigma->0) =       -0.68721828
 
 d Force = 0.1707034E-03[ 0.121E-03, 0.221E-03]  d Energy = 0.1703552E-03 0.348E-06
 d Force = 0.1722904E+01[ 0.172E+01, 0.173E+01]  d Ewald  = 0.1722901E+01 0.279E-05


--------------------------------------------------------------------------------------------------------


    POTLOK:  cpu time    4.8653: real time    4.8773


--------------------------------------------------------------------------------------------------------


 Conjugate gradient step on ions:
 trial-energy change:   -0.000170  1 .order   -0.000171   -0.000221   -0.000121
  (g-gl).g = 0.163E-04      g.g   = 0.380E-04  gl.gl    = 0.292E-03
 g(Force)  = 0.380E-04   g(Stress)= 0.000E+00 ortho     =-0.400E-05
 gamma     =   0.05592
 trial     =   5.84174
 opt step  =  12.90050  (harmonic =  12.90050) maximal distance =0.00807038
 next E    =    -0.687292   (d E  =  -0.00024)


--------------------------------------------------------------------------------------------------------


  
 reached required accuracy - stopping structural energy minimisation
     LOOP+:  cpu time   81.2396: real time   84.7600
    4ORBIT:  cpu time    0.0000: real time    0.0000
 


 total charge     
 
# of ion       s       p       d       f       tot
--------------------------------------------------
    1        0.849   0.076   9.641   0.001  10.568
    2        0.850   0.074   9.641   0.001  10.567
    3        0.850   0.075   9.641   0.001  10.567
    4        0.850   0.076   9.641   0.002  10.568
--------------------------------------------------
tot          3.398   0.302  38.564   0.006  42.270

 


 magnetization (x)
 
# of ion       s       p       d       f       tot
--------------------------------------------------
    1        0.000   0.000  -0.000  -0.000  -0.000
    2        0.000  -0.000   0.000  -0.000   0.000
    3        0.000   0.000  -0.000  -0.000   0.000
    4        0.000   0.000  -0.000  -0.000  -0.000
--------------------------------------------------
tot          0.000   0.000  -0.000  -0.000   0.000

 

 total amount of memory used by VASP MPI-rank0   254555. kBytes
=======================================================================

   base      :      30000. kBytes
   nonlr-proj:        797. kBytes
   fftplans  :     134259. kBytes
   grid      :      81985. kBytes
   one-center:         49. kBytes
   wavefun   :       7465. kBytes
 
  
  
 General timing and accounting informations for this job:
 ========================================================
  
                  Total CPU time used (sec):     1116.644
                            User time (sec):     1106.786
                          System time (sec):        9.859
                         Elapsed time (sec):     1233.951
  
                   Maximum memory used (kb):      785972.
                   Average memory used (kb):           0.
  
                          Minor page faults:       409790
                          Major page faults:           26
                 Voluntary context switches:         1119
