Cd                                      
   1.00000000000000     
    17.0000000000000000    0.0000000000000000    0.0000000000000000
     0.0000000000000000   17.0000000000000000    0.0000000000000000
     0.0000000000000000    0.0000000000000000   17.0000000000000000
   Cd
     4
Direct
  0.9382290010094504  0.0148468216075565  0.0854128125949275
  0.0525960702865448  0.0816483494686763  0.9536407179385356
  0.9484935388859538  0.9395311848403023  0.9152106359562772
  0.0981319780533459  0.9261895264364081  0.0407128923337891
 
  0.00000000E+00  0.00000000E+00  0.00000000E+00
  0.00000000E+00  0.00000000E+00  0.00000000E+00
  0.00000000E+00  0.00000000E+00  0.00000000E+00
  0.00000000E+00  0.00000000E+00  0.00000000E+00
