Cd                                      
   1.00000000000000     
    17.0000000000000000    0.0000000000000000    0.0000000000000000
     0.0000000000000000   17.0000000000000000    0.0000000000000000
     0.0000000000000000    0.0000000000000000   17.0000000000000000
   Cd
     4
Direct
  0.9392099560020344  0.0162804745979239  0.0847677052137956
  0.0534629858008437  0.0867839896345853  0.9551555053747102
  0.9510982664961681  0.9348189527477517  0.9178517770379242
  0.0936793799362555  0.9243324653726894  0.0372020711970928
 
  0.00000000E+00  0.00000000E+00  0.00000000E+00
  0.00000000E+00  0.00000000E+00  0.00000000E+00
  0.00000000E+00  0.00000000E+00  0.00000000E+00
  0.00000000E+00  0.00000000E+00  0.00000000E+00
