PROCAR new format
# of k-points:    1         # of bands:   30         # of ions:    4

 k-point     1 :    0.00000000 0.00000000 0.00000000     weight = 1.00000000

band     1 # energy  -12.27979167 # occ.  1.00000000
 
ion      s      p      d      f    tot
    1  0.002  0.001  0.232  0.000  0.235
    2  0.002  0.001  0.226  0.000  0.228
    3  0.002  0.001  0.230  0.000  0.233
    4  0.002  0.001  0.233  0.000  0.236
tot    0.007  0.004  0.921  0.000  0.932
 
band     2 # energy  -12.09892683 # occ.  1.00000000
 
ion      s      p      d      f    tot
    1  0.000  0.000  0.301  0.000  0.301
    2  0.001  0.000  0.083  0.000  0.085
    3  0.001  0.000  0.237  0.000  0.238
    4  0.000  0.000  0.325  0.000  0.325
tot    0.002  0.001  0.946  0.000  0.949
 
band     3 # energy  -12.09526304 # occ.  1.00000000
 
ion      s      p      d      f    tot
    1  0.001  0.000  0.246  0.000  0.247
    2  0.000  0.000  0.269  0.000  0.269
    3  0.001  0.000  0.125  0.000  0.126
    4  0.000  0.000  0.306  0.000  0.307
tot    0.002  0.001  0.946  0.000  0.949
 
band     4 # energy  -12.09369701 # occ.  1.00000000
 
ion      s      p      d      f    tot
    1  0.001  0.000  0.184  0.000  0.186
    2  0.000  0.000  0.299  0.000  0.299
    3  0.000  0.000  0.347  0.000  0.347
    4  0.001  0.000  0.116  0.000  0.118
tot    0.002  0.001  0.946  0.000  0.949
 
band     5 # energy  -12.06197500 # occ.  1.00000000
 
ion      s      p      d      f    tot
    1  0.000  0.000  0.230  0.000  0.231
    2  0.000  0.000  0.258  0.000  0.259
    3  0.000  0.000  0.229  0.000  0.229
    4  0.000  0.000  0.237  0.000  0.237
tot    0.000  0.000  0.955  0.000  0.956
 
band     6 # energy  -12.05992410 # occ.  1.00000000
 
ion      s      p      d      f    tot
    1  0.000  0.000  0.224  0.000  0.225
    2  0.000  0.000  0.271  0.000  0.272
    3  0.000  0.000  0.252  0.000  0.252
    4  0.000  0.000  0.207  0.000  0.208
tot    0.000  0.000  0.955  0.000  0.956
 
band     7 # energy  -11.90358932 # occ.  1.00000000
 
ion      s      p      d      f    tot
    1  0.000  0.000  0.295  0.000  0.295
    2  0.000  0.000  0.039  0.000  0.040
    3  0.000  0.000  0.265  0.000  0.265
    4  0.000  0.000  0.358  0.000  0.358
tot    0.001  0.000  0.957  0.000  0.958
 
band     8 # energy  -11.90199185 # occ.  1.00000000
 
ion      s      p      d      f    tot
    1  0.000  0.000  0.067  0.000  0.068
    2  0.000  0.000  0.362  0.000  0.362
    3  0.000  0.000  0.192  0.000  0.192
    4  0.000  0.000  0.336  0.000  0.336
tot    0.001  0.000  0.957  0.000  0.958
 
band     9 # energy  -11.90181381 # occ.  1.00000000
 
ion      s      p      d      f    tot
    1  0.000  0.000  0.348  0.000  0.348
    2  0.000  0.000  0.321  0.000  0.321
    3  0.000  0.000  0.268  0.000  0.268
    4  0.000  0.000  0.020  0.000  0.021
tot    0.001  0.000  0.957  0.000  0.958
 
band    10 # energy  -11.76324157 # occ.  1.00000000
 
ion      s      p      d      f    tot
    1  0.000  0.000  0.024  0.000  0.024
    2  0.000  0.000  0.382  0.000  0.382
    3  0.000  0.000  0.300  0.000  0.300
    4  0.000  0.000  0.263  0.000  0.263
tot    0.000  0.000  0.969  0.000  0.969
 
band    11 # energy  -11.76290420 # occ.  1.00000000
 
ion      s      p      d      f    tot
    1  0.000  0.000  0.291  0.000  0.291
    2  0.000  0.000  0.309  0.000  0.309
    3  0.000  0.000  0.322  0.000  0.322
    4  0.000  0.000  0.048  0.000  0.048
tot    0.000  0.000  0.969  0.000  0.969
 
band    12 # energy  -11.76143236 # occ.  1.00000000
 
ion      s      p      d      f    tot
    1  0.000  0.000  0.339  0.000  0.339
    2  0.000  0.000  0.113  0.000  0.113
    3  0.000  0.000  0.149  0.000  0.149
    4  0.000  0.000  0.368  0.000  0.368
tot    0.000  0.000  0.969  0.000  0.969
 
band    13 # energy  -11.74938642 # occ.  1.00000000
 
ion      s      p      d      f    tot
    1  0.000  0.000  0.285  0.000  0.285
    2  0.000  0.000  0.203  0.000  0.203
    3  0.000  0.000  0.200  0.000  0.200
    4  0.000  0.000  0.282  0.000  0.282
tot    0.000  0.000  0.969  0.000  0.970
 
band    14 # energy  -11.74877986 # occ.  1.00000000
 
ion      s      p      d      f    tot
    1  0.000  0.000  0.274  0.000  0.274
    2  0.000  0.000  0.215  0.000  0.215
    3  0.000  0.000  0.238  0.000  0.238
    4  0.000  0.000  0.243  0.000  0.243
tot    0.000  0.000  0.970  0.000  0.970
 
band    15 # energy  -11.72876100 # occ.  1.00000000
 
ion      s      p      d      f    tot
    1  0.000  0.000  0.042  0.000  0.042
    2  0.000  0.000  0.501  0.000  0.501
    3  0.000  0.000  0.394  0.000  0.395
    4  0.000  0.000  0.030  0.000  0.030
tot    0.001  0.000  0.968  0.000  0.969
 
band    16 # energy  -11.72671856 # occ.  1.00000000
 
ion      s      p      d      f    tot
    1  0.000  0.000  0.108  0.000  0.108
    2  0.000  0.000  0.196  0.000  0.197
    3  0.000  0.000  0.261  0.000  0.261
    4  0.000  0.000  0.402  0.000  0.403
tot    0.001  0.000  0.968  0.000  0.969
 
band    17 # energy  -11.72560181 # occ.  1.00000000
 
ion      s      p      d      f    tot
    1  0.000  0.000  0.577  0.000  0.577
    2  0.000  0.000  0.030  0.000  0.030
    3  0.000  0.000  0.069  0.000  0.069
    4  0.000  0.000  0.293  0.000  0.293
tot    0.001  0.000  0.968  0.000  0.969
 
band    18 # energy  -11.60377760 # occ.  1.00000000
 
ion      s      p      d      f    tot
    1  0.000  0.000  0.128  0.000  0.128
    2  0.000  0.000  0.362  0.000  0.362
    3  0.000  0.000  0.362  0.000  0.362
    4  0.000  0.000  0.124  0.000  0.124
tot    0.000  0.000  0.975  0.000  0.975
 
band    19 # energy  -11.60117118 # occ.  1.00000000
 
ion      s      p      d      f    tot
    1  0.000  0.000  0.248  0.000  0.248
    2  0.000  0.000  0.339  0.000  0.339
    3  0.000  0.000  0.118  0.000  0.118
    4  0.000  0.000  0.270  0.000  0.270
tot    0.000  0.001  0.975  0.000  0.975
 
band    20 # energy  -11.59882703 # occ.  1.00000000
 
ion      s      p      d      f    tot
    1  0.000  0.000  0.361  0.000  0.361
    2  0.000  0.000  0.026  0.000  0.026
    3  0.000  0.000  0.247  0.000  0.247
    4  0.000  0.000  0.340  0.000  0.340
tot    0.000  0.001  0.975  0.000  0.975
 
band    21 # energy   -8.07588355 # occ.  1.00000000
 
ion      s      p      d      f    tot
    1  0.104  0.010  0.006  0.000  0.120
    2  0.103  0.010  0.006  0.000  0.118
    3  0.103  0.010  0.006  0.000  0.119
    4  0.104  0.010  0.006  0.000  0.120
tot    0.414  0.039  0.024  0.000  0.476
 
band    22 # energy   -5.17130589 # occ.  1.00000000
 
ion      s      p      d      f    tot
    1  0.025  0.011  0.005  0.000  0.040
    2  0.265  0.004  0.001  0.000  0.270
    3  0.134  0.008  0.003  0.000  0.145
    4  0.000  0.011  0.005  0.000  0.017
tot    0.423  0.033  0.014  0.001  0.472
 
band    23 # energy   -5.15823881 # occ.  1.00000000
 
ion      s      p      d      f    tot
    1  0.068  0.009  0.004  0.000  0.082
    2  0.049  0.010  0.004  0.000  0.063
    3  0.170  0.007  0.003  0.000  0.179
    4  0.137  0.008  0.003  0.000  0.148
tot    0.423  0.034  0.014  0.001  0.471
 
band    24 # energy   -5.15538094 # occ.  1.00000000
 
ion      s      p      d      f    tot
    1  0.224  0.005  0.002  0.000  0.231
    2  0.005  0.011  0.005  0.000  0.021
    3  0.014  0.011  0.005  0.000  0.030
    4  0.180  0.007  0.003  0.000  0.189
tot    0.422  0.034  0.014  0.001  0.471
 
band    25 # energy   -2.21293129 # occ.  0.00000000
 
ion      s      p      d      f    tot
    1  0.003  0.060  0.003  0.000  0.066
    2  0.003  0.061  0.003  0.000  0.067
    3  0.003  0.061  0.003  0.000  0.066
    4  0.003  0.060  0.003  0.000  0.066
tot    0.012  0.242  0.010  0.001  0.265
 
band    26 # energy   -1.77416225 # occ.  0.00000000
 
ion      s      p      d      f    tot
    1  0.001  0.057  0.002  0.000  0.060
    2  0.021  0.043  0.001  0.000  0.065
    3  0.005  0.055  0.001  0.000  0.062
    4  0.002  0.057  0.002  0.000  0.061
tot    0.029  0.212  0.005  0.001  0.248
 
band    27 # energy   -1.76805185 # occ.  0.00000000
 
ion      s      p      d      f    tot
    1  0.009  0.053  0.001  0.000  0.063
    2  0.001  0.057  0.002  0.000  0.060
    3  0.016  0.046  0.001  0.000  0.063
    4  0.004  0.056  0.002  0.000  0.061
tot    0.029  0.212  0.005  0.001  0.247
 
band    28 # energy   -1.76246409 # occ.  0.00000000
 
ion      s      p      d      f    tot
    1  0.013  0.049  0.001  0.000  0.063
    2  0.000  0.058  0.002  0.000  0.060
    3  0.000  0.058  0.002  0.000  0.060
    4  0.016  0.047  0.001  0.000  0.064
tot    0.029  0.212  0.005  0.001  0.247
 
band    29 # energy   -1.34307505 # occ.  0.00000000
 
ion      s      p      d      f    tot
    1  0.000  0.051  0.002  0.000  0.053
    2  0.000  0.052  0.002  0.000  0.054
    3  0.000  0.051  0.002  0.000  0.053
    4  0.000  0.051  0.002  0.000  0.053
tot    0.000  0.205  0.007  0.001  0.213
 
band    30 # energy   -1.33714002 # occ.  0.00000000
 
ion      s      p      d      f    tot
    1  0.000  0.051  0.002  0.000  0.053
    2  0.000  0.051  0.002  0.000  0.053
    3  0.000  0.051  0.002  0.000  0.053
    4  0.000  0.051  0.002  0.000  0.053
tot    0.000  0.205  0.007  0.001  0.213
 
# of k-points:    1         # of bands:   30         # of ions:    4

 k-point     1 :    0.00000000 0.00000000 0.00000000     weight = 1.00000000

band     1 # energy  -12.27979048 # occ.  1.00000000
 
ion      s      p      d      f    tot
    1  0.002  0.001  0.232  0.000  0.235
    2  0.002  0.001  0.226  0.000  0.228
    3  0.002  0.001  0.230  0.000  0.233
    4  0.002  0.001  0.233  0.000  0.236
tot    0.007  0.004  0.921  0.000  0.932
 
band     2 # energy  -12.09892546 # occ.  1.00000000
 
ion      s      p      d      f    tot
    1  0.000  0.000  0.301  0.000  0.301
    2  0.001  0.000  0.083  0.000  0.085
    3  0.001  0.000  0.237  0.000  0.238
    4  0.000  0.000  0.325  0.000  0.325
tot    0.002  0.001  0.946  0.000  0.949
 
band     3 # energy  -12.09526153 # occ.  1.00000000
 
ion      s      p      d      f    tot
    1  0.001  0.000  0.246  0.000  0.247
    2  0.000  0.000  0.269  0.000  0.269
    3  0.001  0.000  0.125  0.000  0.126
    4  0.000  0.000  0.306  0.000  0.307
tot    0.002  0.001  0.946  0.000  0.949
 
band     4 # energy  -12.09369597 # occ.  1.00000000
 
ion      s      p      d      f    tot
    1  0.001  0.000  0.184  0.000  0.186
    2  0.000  0.000  0.299  0.000  0.299
    3  0.000  0.000  0.347  0.000  0.347
    4  0.001  0.000  0.116  0.000  0.118
tot    0.002  0.001  0.946  0.000  0.949
 
band     5 # energy  -12.06197376 # occ.  1.00000000
 
ion      s      p      d      f    tot
    1  0.000  0.000  0.230  0.000  0.231
    2  0.000  0.000  0.258  0.000  0.259
    3  0.000  0.000  0.229  0.000  0.229
    4  0.000  0.000  0.237  0.000  0.237
tot    0.000  0.000  0.955  0.000  0.956
 
band     6 # energy  -12.05992319 # occ.  1.00000000
 
ion      s      p      d      f    tot
    1  0.000  0.000  0.224  0.000  0.225
    2  0.000  0.000  0.271  0.000  0.272
    3  0.000  0.000  0.252  0.000  0.252
    4  0.000  0.000  0.207  0.000  0.208
tot    0.000  0.000  0.955  0.000  0.956
 
band     7 # energy  -11.90358699 # occ.  1.00000000
 
ion      s      p      d      f    tot
    1  0.000  0.000  0.295  0.000  0.295
    2  0.000  0.000  0.039  0.000  0.040
    3  0.000  0.000  0.265  0.000  0.265
    4  0.000  0.000  0.358  0.000  0.358
tot    0.001  0.000  0.957  0.000  0.958
 
band     8 # energy  -11.90199076 # occ.  1.00000000
 
ion      s      p      d      f    tot
    1  0.000  0.000  0.067  0.000  0.068
    2  0.000  0.000  0.362  0.000  0.362
    3  0.000  0.000  0.192  0.000  0.192
    4  0.000  0.000  0.336  0.000  0.336
tot    0.001  0.000  0.957  0.000  0.958
 
band     9 # energy  -11.90181307 # occ.  1.00000000
 
ion      s      p      d      f    tot
    1  0.000  0.000  0.348  0.000  0.348
    2  0.000  0.000  0.321  0.000  0.321
    3  0.000  0.000  0.267  0.000  0.267
    4  0.000  0.000  0.021  0.000  0.021
tot    0.001  0.000  0.957  0.000  0.958
 
band    10 # energy  -11.76324076 # occ.  1.00000000
 
ion      s      p      d      f    tot
    1  0.000  0.000  0.024  0.000  0.024
    2  0.000  0.000  0.382  0.000  0.382
    3  0.000  0.000  0.300  0.000  0.300
    4  0.000  0.000  0.263  0.000  0.263
tot    0.000  0.000  0.969  0.000  0.969
 
band    11 # energy  -11.76290367 # occ.  1.00000000
 
ion      s      p      d      f    tot
    1  0.000  0.000  0.290  0.000  0.290
    2  0.000  0.000  0.309  0.000  0.309
    3  0.000  0.000  0.322  0.000  0.322
    4  0.000  0.000  0.048  0.000  0.048
tot    0.000  0.000  0.969  0.000  0.969
 
band    12 # energy  -11.76142969 # occ.  1.00000000
 
ion      s      p      d      f    tot
    1  0.000  0.000  0.339  0.000  0.339
    2  0.000  0.000  0.113  0.000  0.113
    3  0.000  0.000  0.149  0.000  0.149
    4  0.000  0.000  0.368  0.000  0.368
tot    0.000  0.000  0.969  0.000  0.969
 
band    13 # energy  -11.74938486 # occ.  1.00000000
 
ion      s      p      d      f    tot
    1  0.000  0.000  0.285  0.000  0.285
    2  0.000  0.000  0.203  0.000  0.203
    3  0.000  0.000  0.200  0.000  0.200
    4  0.000  0.000  0.282  0.000  0.282
tot    0.000  0.000  0.969  0.000  0.970
 
band    14 # energy  -11.74877816 # occ.  1.00000000
 
ion      s      p      d      f    tot
    1  0.000  0.000  0.274  0.000  0.274
    2  0.000  0.000  0.215  0.000  0.215
    3  0.000  0.000  0.238  0.000  0.238
    4  0.000  0.000  0.243  0.000  0.243
tot    0.000  0.000  0.970  0.000  0.970
 
band    15 # energy  -11.72876225 # occ.  1.00000000
 
ion      s      p      d      f    tot
    1  0.000  0.000  0.042  0.000  0.043
    2  0.000  0.000  0.501  0.000  0.502
    3  0.000  0.000  0.394  0.000  0.394
    4  0.000  0.000  0.030  0.000  0.030
tot    0.001  0.000  0.968  0.000  0.969
 
band    16 # energy  -11.72671675 # occ.  1.00000000
 
ion      s      p      d      f    tot
    1  0.000  0.000  0.109  0.000  0.109
    2  0.000  0.000  0.196  0.000  0.196
    3  0.000  0.000  0.262  0.000  0.262
    4  0.000  0.000  0.402  0.000  0.402
tot    0.001  0.000  0.968  0.000  0.969
 
band    17 # energy  -11.72559914 # occ.  1.00000000
 
ion      s      p      d      f    tot
    1  0.000  0.000  0.576  0.000  0.577
    2  0.000  0.000  0.029  0.000  0.030
    3  0.000  0.000  0.069  0.000  0.069
    4  0.000  0.000  0.293  0.000  0.294
tot    0.001  0.000  0.968  0.000  0.969
 
band    18 # energy  -11.60377690 # occ.  1.00000000
 
ion      s      p      d      f    tot
    1  0.000  0.000  0.128  0.000  0.128
    2  0.000  0.000  0.362  0.000  0.362
    3  0.000  0.000  0.362  0.000  0.362
    4  0.000  0.000  0.124  0.000  0.124
tot    0.000  0.000  0.975  0.000  0.975
 
band    19 # energy  -11.60117028 # occ.  1.00000000
 
ion      s      p      d      f    tot
    1  0.000  0.000  0.248  0.000  0.248
    2  0.000  0.000  0.339  0.000  0.339
    3  0.000  0.000  0.118  0.000  0.118
    4  0.000  0.000  0.270  0.000  0.270
tot    0.000  0.001  0.975  0.000  0.975
 
band    20 # energy  -11.59882481 # occ.  1.00000000
 
ion      s      p      d      f    tot
    1  0.000  0.000  0.361  0.000  0.361
    2  0.000  0.000  0.026  0.000  0.026
    3  0.000  0.000  0.247  0.000  0.248
    4  0.000  0.000  0.340  0.000  0.340
tot    0.000  0.001  0.975  0.000  0.975
 
band    21 # energy   -8.07588370 # occ.  1.00000000
 
ion      s      p      d      f    tot
    1  0.104  0.010  0.006  0.000  0.120
    2  0.103  0.010  0.006  0.000  0.118
    3  0.103  0.010  0.006  0.000  0.119
    4  0.104  0.010  0.006  0.000  0.120
tot    0.414  0.039  0.024  0.000  0.476
 
band    22 # energy   -5.17130633 # occ.  1.00000000
 
ion      s      p      d      f    tot
    1  0.025  0.011  0.005  0.000  0.040
    2  0.265  0.004  0.001  0.000  0.270
    3  0.134  0.008  0.003  0.000  0.145
    4  0.000  0.011  0.005  0.000  0.017
tot    0.423  0.033  0.014  0.001  0.472
 
band    23 # energy   -5.15823868 # occ.  1.00000000
 
ion      s      p      d      f    tot
    1  0.068  0.009  0.004  0.000  0.082
    2  0.049  0.010  0.004  0.000  0.063
    3  0.170  0.007  0.003  0.000  0.179
    4  0.137  0.008  0.003  0.000  0.147
tot    0.423  0.034  0.014  0.001  0.471
 
band    24 # energy   -5.15538094 # occ.  1.00000000
 
ion      s      p      d      f    tot
    1  0.224  0.005  0.002  0.000  0.231
    2  0.005  0.011  0.005  0.000  0.021
    3  0.014  0.011  0.005  0.000  0.030
    4  0.180  0.007  0.003  0.000  0.189
tot    0.422  0.034  0.014  0.001  0.471
 
band    25 # energy   -2.21293466 # occ.  0.00000000
 
ion      s      p      d      f    tot
    1  0.003  0.060  0.003  0.000  0.066
    2  0.003  0.061  0.003  0.000  0.067
    3  0.003  0.061  0.003  0.000  0.066
    4  0.003  0.060  0.003  0.000  0.066
tot    0.012  0.242  0.010  0.001  0.265
 
band    26 # energy   -1.77416448 # occ.  0.00000000
 
ion      s      p      d      f    tot
    1  0.001  0.057  0.002  0.000  0.060
    2  0.021  0.043  0.001  0.000  0.065
    3  0.005  0.055  0.001  0.000  0.062
    4  0.002  0.057  0.002  0.000  0.061
tot    0.029  0.212  0.005  0.001  0.248
 
band    27 # energy   -1.76805432 # occ.  0.00000000
 
ion      s      p      d      f    tot
    1  0.009  0.053  0.001  0.000  0.063
    2  0.001  0.057  0.002  0.000  0.060
    3  0.016  0.046  0.001  0.000  0.063
    4  0.004  0.056  0.002  0.000  0.061
tot    0.029  0.212  0.005  0.001  0.247
 
band    28 # energy   -1.76246691 # occ.  0.00000000
 
ion      s      p      d      f    tot
    1  0.013  0.049  0.001  0.000  0.063
    2  0.000  0.058  0.002  0.000  0.060
    3  0.000  0.058  0.002  0.000  0.060
    4  0.016  0.047  0.001  0.000  0.064
tot    0.029  0.212  0.005  0.001  0.247
 
band    29 # energy   -1.34307825 # occ.  0.00000000
 
ion      s      p      d      f    tot
    1  0.000  0.051  0.002  0.000  0.053
    2  0.000  0.052  0.002  0.000  0.054
    3  0.000  0.051  0.002  0.000  0.053
    4  0.000  0.051  0.002  0.000  0.053
tot    0.000  0.205  0.007  0.001  0.213
 
band    30 # energy   -1.33714327 # occ.  0.00000000
 
ion      s      p      d      f    tot
    1  0.000  0.051  0.002  0.000  0.053
    2  0.000  0.051  0.002  0.000  0.053
    3  0.000  0.051  0.002  0.000  0.053
    4  0.000  0.051  0.002  0.000  0.053
tot    0.000  0.205  0.007  0.001  0.213
 
