<?xml version="1.0" encoding="ISO-8859-1"?>
<modeling>
 <generator>
  <i name="program" type="string">vasp </i>
  <i name="version" type="string">5.4.4.18Apr17-6-g9f103f2a35  </i>
  <i name="subversion" type="string">(build Feb 27 2020 20:42:00) gamma-only         parallel </i>
  <i name="platform" type="string">LinuxIFC </i>
  <i name="date" type="string">2022 07 13 </i>
  <i name="time" type="string">11:51:55 </i>
 </generator>
 <incar>
  <i type="string" name="SYSTEM"> Cd</i>
  <i type="string" name="PREC">normal    ! calcululation level (change</i>
  <i type="string" name="ALGO"> NORMAL    !</i>
  <i type="logical" name="ADDGRID"> T  </i>
  <i type="int" name="ISPIN">     2</i>
  <i name="AMIX">      0.02000000</i>
  <i name="BMIX">      0.00001000</i>
  <i name="AMIX_MAG">      0.10000000</i>
  <i name="BMIX_MAG">      0.00001000</i>
  <i type="int" name="NELM">   120</i>
  <i type="int" name="NELMDL">    -8</i>
  <i type="int" name="NELMIN">     6</i>
  <i type="int" name="IBRION">     2</i>
  <i name="EDIFF">      0.00000100</i>
  <i name="EDIFFG">     -0.01000000</i>
  <i type="int" name="NSW">   200</i>
  <i type="int" name="ISIF">     0</i>
  <i name="ENCUT">    500.00000000</i>
  <i name="POTIM">      0.50000000</i>
  <i type="string" name="LREAL"> AUTO</i>
  <i type="logical" name="LPLANE"> T  </i>
  <i type="int" name="ISMEAR">     0</i>
  <i name="SIGMA">      0.00500000</i>
  <i type="int" name="NWRITE">     1</i>
  <i type="logical" name="LWAVE"> F  </i>
  <i type="logical" name="LCHARG"> F  </i>
  <i type="int" name="LORBIT">    10</i>
  <i type="logical" name="LASPH"> T  </i>
  <v type="int" name="KPOINT_BSE">    -1     0     0     0</v>
  <i type="int" name="NELM">   120</i>
  <i type="logical" name="LASPH"> T  </i>
 </incar>
 <structure name="primitive_cell" >
  <crystal>
   <varray name="basis" >
    <v>      17.00000000       0.00000000       0.00000000 </v>
    <v>       0.00000000      17.00000000       0.00000000 </v>
    <v>       0.00000000       0.00000000      17.00000000 </v>
   </varray>
   <i name="volume">   4913.00000000 </i>
   <varray name="rec_basis" >
    <v>       0.05882353       0.00000000       0.00000000 </v>
    <v>       0.00000000       0.05882353       0.00000000 </v>
    <v>       0.00000000       0.00000000       0.05882353 </v>
   </varray>
  </crystal>
  <varray name="positions" >
   <v>      -0.06177100       0.01484682       0.08541281 </v>
   <v>      -0.05150646      -0.06046882      -0.08478936 </v>
   <v>       0.05259607       0.08164835      -0.04635928 </v>
   <v>       0.09813198      -0.07381047       0.04071289 </v>
  </varray>
 </structure>
 <varray name="primitive_index" >
  <v type="int" >        1 </v>
  <v type="int" >        3 </v>
  <v type="int" >        2 </v>
  <v type="int" >        4 </v>
 </varray>
 <kpoints>
  <generation param="Gamma">
   <v type="int" name="divisions">       1        1        1 </v>
   <v name="usershift">      0.00000000       0.00000000       0.00000000 </v>
   <v name="genvec1">      1.00000000       0.00000000       0.00000000 </v>
   <v name="genvec2">      0.00000000       1.00000000       0.00000000 </v>
   <v name="genvec3">      0.00000000       0.00000000       1.00000000 </v>
   <v name="shift">      0.00000000       0.00000000       0.00000000 </v>
  </generation>
  <varray name="kpointlist" >
   <v>       0.00000000       0.00000000       0.00000000 </v>
  </varray>
  <varray name="weights" >
   <v>       1.00000000 </v>
  </varray>
 </kpoints>
 <parameters>
  <separator name="general" >
   <i type="string" name="SYSTEM">Cd</i>
   <i type="logical" name="LCOMPAT"> F  </i>
  </separator>
  <separator name="electronic" >
   <i type="string" name="PREC">normal</i>
   <i name="ENMAX">    500.00000000</i>
   <i name="ENAUG">    591.24700000</i>
   <i name="EDIFF">      0.00000100</i>
   <i type="int" name="IALGO">    38</i>
   <i type="int" name="IWAVPR">    11</i>
   <i type="int" name="NBANDS">    30</i>
   <i name="NELECT">     48.00000000</i>
   <i type="int" name="TURBO">     0</i>
   <i type="int" name="IRESTART">     0</i>
   <i type="int" name="NREBOOT">     0</i>
   <i type="int" name="NMIN">     0</i>
   <i name="EREF">      0.00000000</i>
   <separator name="electronic smearing" >
    <i type="int" name="ISMEAR">     0</i>
    <i name="SIGMA">      0.00500000</i>
    <i name="KSPACING">      0.50000000</i>
    <i type="logical" name="KGAMMA"> T  </i>
   </separator>
   <separator name="electronic projectors" >
    <i type="logical" name="LREAL"> T  </i>
    <v name="ROPT">     -0.00050000</v>
    <i type="int" name="LMAXPAW">  -100</i>
    <i type="int" name="LMAXMIX">     2</i>
    <i type="logical" name="NLSPLINE"> F  </i>
   </separator>
   <separator name="electronic startup" >
    <i type="int" name="ISTART">     0</i>
    <i type="int" name="ICHARG">     2</i>
    <i type="int" name="INIWAV">     1</i>
   </separator>
   <separator name="electronic spin" >
    <i type="int" name="ISPIN">     2</i>
    <i type="logical" name="LNONCOLLINEAR"> F  </i>
    <v name="MAGMOM">      1.00000000      1.00000000      1.00000000      1.00000000</v>
    <i name="NUPDOWN">     -1.00000000</i>
    <i type="logical" name="LSORBIT"> F  </i>
    <v name="SAXIS">      0.00000000      0.00000000      1.00000000</v>
    <i type="logical" name="LSPIRAL"> F  </i>
    <v name="QSPIRAL">      0.00000000      0.00000000      0.00000000</v>
    <i type="logical" name="LZEROZ"> F  </i>
   </separator>
   <separator name="electronic exchange-correlation" >
    <i type="logical" name="LASPH"> T  </i>
    <i type="logical" name="LMETAGGA"> F  </i>
   </separator>
   <separator name="electronic convergence" >
    <i type="int" name="NELM">   120</i>
    <i type="int" name="NELMDL">    -8</i>
    <i type="int" name="NELMIN">     6</i>
    <i name="ENINI">    500.00000000</i>
    <separator name="electronic convergence detail" >
     <i type="logical" name="LDIAG"> T  </i>
     <i type="logical" name="LSUBROT"> F  </i>
     <i name="WEIMIN">      0.00100000</i>
     <i name="EBREAK">      0.00000001</i>
     <i name="DEPER">      0.30000000</i>
     <i type="int" name="NRMM">     4</i>
     <i name="TIME">      0.40000000</i>
    </separator>
   </separator>
   <separator name="electronic mixer" >
    <i name="AMIX">      0.02000000</i>
    <i name="BMIX">      0.00001000</i>
    <i name="AMIN">      0.02000000</i>
    <i name="AMIX_MAG">      0.10000000</i>
    <i name="BMIX_MAG">      0.00001000</i>
    <separator name="electronic mixer details" >
     <i type="int" name="IMIX">     4</i>
     <i type="logical" name="MIXFIRST"> F  </i>
     <i type="int" name="MAXMIX">   -45</i>
     <i name="WC">    100.00000000</i>
     <i type="int" name="INIMIX">     1</i>
     <i type="int" name="MIXPRE">     1</i>
     <i type="int" name="MREMOVE">     5</i>
    </separator>
   </separator>
   <separator name="electronic dipolcorrection" >
    <i type="logical" name="LDIPOL"> F  </i>
    <i type="logical" name="LMONO"> F  </i>
    <i type="int" name="IDIPOL">     0</i>
    <i name="EPSILON">      1.00000000</i>
    <v name="DIPOL">   -100.00000000   -100.00000000   -100.00000000</v>
    <i name="EFIELD">      0.00000000</i>
   </separator>
  </separator>
  <separator name="grids" >
   <i type="int" name="NGX">    96</i>
   <i type="int" name="NGY">    96</i>
   <i type="int" name="NGZ">    96</i>
   <i type="int" name="NGXF">   192</i>
   <i type="int" name="NGYF">   192</i>
   <i type="int" name="NGZF">   192</i>
   <i type="logical" name="ADDGRID"> T  </i>
  </separator>
  <separator name="ionic" >
   <i type="int" name="NSW">   200</i>
   <i type="int" name="IBRION">     2</i>
   <i type="int" name="MDALGO">     0</i>
   <i type="int" name="ISIF">     0</i>
   <i name="PSTRESS">      0.00000000</i>
   <i name="EDIFFG">     -0.01000000</i>
   <i type="int" name="NFREE">     1</i>
   <i name="POTIM">      0.50000000</i>
   <i name="SMASS">     -3.00000000</i>
   <i name="SCALEE">      1.00000000</i>
  </separator>
  <separator name="ionic md" >
   <i name="TEBEG">      0.00010000</i>
   <i name="TEEND">      0.00010000</i>
   <i type="int" name="NBLOCK">     1</i>
   <i type="int" name="KBLOCK">   200</i>
   <i type="int" name="NPACO">   256</i>
   <i name="APACO">     16.00000000</i>
  </separator>
  <separator name="symmetry" >
   <i type="int" name="ISYM">     2</i>
   <i name="SYMPREC">      0.00001000</i>
  </separator>
  <separator name="dos" >
   <i type="int" name="LORBIT">    10</i>
   <v name="RWIGS">     -1.00000000</v>
   <i type="int" name="NEDOS">   301</i>
   <i name="EMIN">     10.00000000</i>
   <i name="EMAX">    -10.00000000</i>
   <i name="EFERMI">      0.00000000</i>
  </separator>
  <separator name="writing" >
   <i type="int" name="NWRITE">     1</i>
   <i type="logical" name="LWAVE"> F  </i>
   <i type="logical" name="LDOWNSAMPLE"> F  </i>
   <i type="logical" name="LCHARG"> F  </i>
   <i type="logical" name="LPARD"> F  </i>
   <i type="logical" name="LVTOT"> F  </i>
   <i type="logical" name="LVHAR"> F  </i>
   <i type="logical" name="LELF"> F  </i>
   <i type="logical" name="LOPTICS"> F  </i>
   <v name="STM">      0.00000000      0.00000000      0.00000000      0.00000000      0.00000000      0.00000000      0.00000000</v>
  </separator>
  <separator name="performance" >
   <i type="int" name="NPAR">     2</i>
   <i type="int" name="NSIM">     4</i>
   <i type="int" name="NBLK">    -1</i>
   <i type="logical" name="LPLANE"> T  </i>
   <i type="logical" name="LSCALAPACK"> T  </i>
   <i type="logical" name="LSCAAWARE"> F  </i>
   <i type="logical" name="LSCALU"> F  </i>
   <i type="logical" name="LASYNC"> F  </i>
   <i type="logical" name="LORBITALREAL"> F  </i>
  </separator>
  <separator name="miscellaneous" >
   <i type="int" name="IDIOT">     3</i>
   <i type="int" name="ISPECIAL">     0</i>
   <i type="logical" name="LMUSIC"> F  </i>
   <v name="POMASS">    112.41100000</v>
   <v name="DARWINR">      0.00000000</v>
   <v name="DARWINV">      1.00000000</v>
   <i type="logical" name="LCORR"> T  </i>
  </separator>
  <i type="logical" name="GGA_COMPAT"> T  </i>
  <i type="logical" name="LBERRY"> F  </i>
  <i type="int" name="ICORELEVEL">     0</i>
  <i type="logical" name="LDAU"> F  </i>
  <i type="int" name="I_CONSTRAINED_M">     0</i>
  <separator name="electronic exchange-correlation" >
   <i type="string" name="GGA">--</i>
   <i type="int" name="VOSKOWN">     0</i>
   <i type="logical" name="LHFCALC"> F  </i>
   <i type="string" name="PRECFOCK"></i>
   <i type="logical" name="LSYMGRAD"> F  </i>
   <i type="logical" name="LHFONE"> F  </i>
   <i type="logical" name="LRHFCALC"> F  </i>
   <i type="logical" name="LTHOMAS"> F  </i>
   <i type="logical" name="LMODELHF"> F  </i>
   <i name="ENCUT4O">     -1.00000000</i>
   <i type="int" name="EXXOEP">     0</i>
   <i type="int" name="FOURORBIT">     0</i>
   <i name="AEXX">      0.00000000</i>
   <i name="HFALPHA">      0.00000000</i>
   <i name="MCALPHA">      0.00000000</i>
   <i name="ALDAX">      1.00000000</i>
   <i name="AGGAX">      1.00000000</i>
   <i name="ALDAC">      1.00000000</i>
   <i name="AGGAC">      1.00000000</i>
   <i type="int" name="NKREDX">     1</i>
   <i type="int" name="NKREDY">     1</i>
   <i type="int" name="NKREDZ">     1</i>
   <i type="logical" name="SHIFTRED"> F  </i>
   <i type="logical" name="ODDONLY"> F  </i>
   <i type="logical" name="EVENONLY"> F  </i>
   <i type="int" name="LMAXFOCK">     0</i>
   <i type="int" name="NMAXFOCKAE">     0</i>
   <i type="logical" name="LFOCKAEDFT"> F  </i>
   <i name="HFSCREEN">      0.00000000</i>
   <i name="HFSCREENC">      0.00000000</i>
   <i type="int" name="NBANDSGWLOW">     0</i>
  </separator>
  <separator name="vdW DFT" >
   <i type="logical" name="LUSE_VDW"> F  </i>
   <i name="Zab_VDW">     -0.84910000</i>
   <i name="PARAM1">      0.12340000</i>
   <i name="PARAM2">      1.00000000</i>
   <i name="PARAM3">      0.00000000</i>
  </separator>
  <separator name="model GW" >
   <i type="int" name="MODEL_GW">     0</i>
   <i name="MODEL_EPS0">    736.95000000</i>
   <i name="MODEL_ALPHA">      1.00000000</i>
  </separator>
  <separator name="linear response parameters" >
   <i type="logical" name="LEPSILON"> F  </i>
   <i type="logical" name="LRPA"> F  </i>
   <i type="logical" name="LNABLA"> F  </i>
   <i type="logical" name="LVEL"> F  </i>
   <i type="int" name="KINTER">     0</i>
   <i name="CSHIFT">      0.10000000</i>
   <i name="OMEGAMAX">     -1.00000000</i>
   <i name="DEG_THRESHOLD">      0.00200000</i>
   <i name="RTIME">     -0.10000000</i>
   <i name="WPLASMAI">      0.00000000</i>
   <v name="DFIELD">      0.00000000      0.00000000      0.00000000</v>
   <v name="WPLASMA">      0.00000000      0.00000000      0.00000000      0.00000000      0.00000000      0.00000000      0.00000000      0.00000000      0.00000000</v>
  </separator>
  <separator name="orbital magnetization" >
   <i type="logical" name="NUCIND"> F  </i>
   <v name="MAGPOS">      0.00000000      0.00000000      0.00000000</v>
   <i type="logical" name="LNICSALL"> T  </i>
   <i type="logical" name="ORBITALMAG"> F  </i>
   <i type="logical" name="LMAGBLOCH"> F  </i>
   <i type="logical" name="LCHIMAG"> F  </i>
   <i type="logical" name="LGAUGE"> T  </i>
   <i type="int" name="MAGATOM">     0</i>
   <v name="MAGDIPOL">      0.00000000      0.00000000      0.00000000</v>
   <v name="AVECCONST">      0.00000000      0.00000000      0.00000000</v>
  </separator>
  <separator name="response functions" >
   <i type="logical" name="LADDER"> F  </i>
   <i type="logical" name="LRPAFORCE"> F  </i>
   <i type="logical" name="LFXC"> F  </i>
   <i type="logical" name="LHARTREE"> T  </i>
   <i type="int" name="IBSE">     0</i>
   <v type="int" name="KPOINT">    -1     0     0     0</v>
   <i type="logical" name="LTCTE"> F  </i>
   <i type="logical" name="LTETE"> F  </i>
   <i type="logical" name="LTRIPLET"> F  </i>
   <i type="logical" name="LFXCEPS"> F  </i>
   <i type="logical" name="LFXHEG"> F  </i>
   <i type="int" name="NATURALO">     2</i>
   <i type="logical" name="L2ORDER"> F  </i>
   <i type="logical" name="LMP2LT"> F  </i>
   <i type="logical" name="LUSEW"> F  </i>
   <i name="ENCUTGW">     -2.00000000</i>
   <i name="ENCUTGWSOFT">     -2.00000000</i>
   <i name="ENCUTLF">     -1.00000000</i>
   <i type="int" name="LMAXMP2">    -1</i>
   <i name="SCISSOR">      0.00000000</i>
   <i type="int" name="NOMEGA">     0</i>
   <i type="int" name="NOMEGAR">     0</i>
   <i type="int" name="NBANDSGW">    -1</i>
   <i type="int" name="NBANDSO">    -1</i>
   <i type="int" name="NBANDSV">    -1</i>
   <i type="int" name="NELM">   120</i>
   <i type="int" name="NELMHF">     1</i>
   <i type="int" name="DIM">     3</i>
   <i type="int" name="ANTIRES">     0</i>
   <i name="OMEGAMAX">    -30.00000000</i>
   <i name="OMEGAMIN">    -30.00000000</i>
   <i name="OMEGATL">   -200.00000000</i>
   <i type="int" name="OMEGAGRID">   140</i>
   <i name="CSHIFT">     -0.10000000</i>
   <i type="logical" name="SELFENERGY"> F  </i>
   <i type="logical" name="LSPECTRAL"> F  </i>
   <i type="logical" name="LSPECTRALGW"> F  </i>
   <i type="logical" name="LSINGLES"> F  </i>
   <i type="logical" name="LFERMIGW"> F  </i>
   <i type="logical" name="ODDONLYGW"> F  </i>
   <i type="logical" name="EVENONLYGW"> F  </i>
   <i type="int" name="NKREDLFX">     1</i>
   <i type="int" name="NKREDLFY">     1</i>
   <i type="int" name="NKREDLFZ">     1</i>
   <i type="int" name="MAXMEM">  2800</i>
   <i type="int" name="TELESCOPE">     0</i>
   <i type="int" name="TAUPAR">     1</i>
   <i type="int" name="OMEGAPAR">    -1</i>
   <i name="LAMBDA">      1.00000000</i>
  </separator>
  <separator name="External order field" >
   <i name="OFIELD_KAPPA">      0.00000000</i>
   <v name="OFIELD_K">      0.00000000      0.00000000      0.00000000</v>
   <i name="OFIELD_Q6_NEAR">      0.00000000</i>
   <i name="OFIELD_Q6_FAR">      0.00000000</i>
   <i name="OFIELD_A">      0.00000000</i>
  </separator>
 </parameters>
 <atominfo>
  <atoms>       4 </atoms>
  <types>       1 </types>
  <array name="atoms" >
   <dimension dim="1">ion</dimension>
   <field type="string">element</field>
   <field type="int">atomtype</field>
   <set>
    <rc><c>Cd</c><c>   1</c></rc>
    <rc><c>Cd</c><c>   1</c></rc>
    <rc><c>Cd</c><c>   1</c></rc>
    <rc><c>Cd</c><c>   1</c></rc>
   </set>
  </array>
  <array name="atomtypes" >
   <dimension dim="1">type</dimension>
   <field type="int">atomspertype</field>
   <field type="string">element</field>
   <field>mass</field>
   <field>valence</field>
   <field type="string">pseudopotential</field>
   <set>
    <rc><c>   4</c><c>Cd</c><c>    112.41100000</c><c>     12.00000000</c><c>  PAW Cd_GW 18May2010                   </c></rc>
   </set>
  </array>
 </atominfo>
 <structure name="initialpos" >
  <crystal>
   <varray name="basis" >
    <v>      17.00000000       0.00000000       0.00000000 </v>
    <v>       0.00000000      17.00000000       0.00000000 </v>
    <v>       0.00000000       0.00000000      17.00000000 </v>
   </varray>
   <i name="volume">   4913.00000000 </i>
   <varray name="rec_basis" >
    <v>       0.05882353       0.00000000       0.00000000 </v>
    <v>       0.00000000       0.05882353       0.00000000 </v>
    <v>       0.00000000       0.00000000       0.05882353 </v>
   </varray>
  </crystal>
  <varray name="positions" >
   <v>       0.93822900       0.01484682       0.08541281 </v>
   <v>       0.05259607       0.08164835       0.95364072 </v>
   <v>       0.94849354       0.93953118       0.91521064 </v>
   <v>       0.09813198       0.92618953       0.04071289 </v>
  </varray>
 </structure>
 <calculation>
  <scstep>
   <time name="dav">    3.37    3.38</time>
   <time name="total">    8.23    8.28</time>
   <energy>
    <i name="alphaZ">      4.83781458 </i>
    <i name="ewald">   1202.61712670 </i>
    <i name="hartreedc">  -5943.68237527 </i>
    <i name="XCdc">     15.97278350 </i>
    <i name="pawpsdc">   4712.74651672 </i>
    <i name="pawaedc">  -4651.29208614 </i>
    <i name="eentropy">     -0.00000000 </i>
    <i name="bandstr">     56.13574687 </i>
    <i name="atom">   5172.70447966 </i>
    <i name="e_fr_energy">    570.04000662 </i>
    <i name="e_wo_entrp">    570.04000662 </i>
    <i name="e_0_energy">    570.04000662 </i>
   </energy>
  </scstep>
  <scstep>
   <time name="dav">    5.85    5.88</time>
   <time name="total">    5.85    5.88</time>
   <energy>
    <i name="e_fr_energy">    259.15272644 </i>
    <i name="e_wo_entrp">    259.15272644 </i>
    <i name="e_0_energy">    259.15272644 </i>
   </energy>
  </scstep>
  <scstep>
   <time name="dav">    4.52    4.55</time>
   <time name="total">    4.52    4.55</time>
   <energy>
    <i name="e_fr_energy">     33.08840581 </i>
    <i name="e_wo_entrp">     33.08840581 </i>
    <i name="e_0_energy">     33.08840581 </i>
   </energy>
  </scstep>
  <scstep>
   <time name="dav">    4.49    4.55</time>
   <time name="total">    4.49    4.55</time>
   <energy>
    <i name="e_fr_energy">      0.62596146 </i>
    <i name="e_wo_entrp">      0.62596146 </i>
    <i name="e_0_energy">      0.62596146 </i>
   </energy>
  </scstep>
  <scstep>
   <time name="dav">    3.99    4.00</time>
   <time name="total">    3.99    4.00</time>
   <energy>
    <i name="e_fr_energy">     -0.12915862 </i>
    <i name="e_wo_entrp">     -0.12915862 </i>
    <i name="e_0_energy">     -0.12915862 </i>
   </energy>
  </scstep>
  <scstep>
   <time name="dav">    4.47    4.50</time>
   <time name="total">    4.47    4.50</time>
   <energy>
    <i name="e_fr_energy">     -0.15453915 </i>
    <i name="e_wo_entrp">     -0.15453915 </i>
    <i name="e_0_energy">     -0.15453915 </i>
   </energy>
  </scstep>
  <scstep>
   <time name="dav">    4.40    4.63</time>
   <time name="total">    4.40    4.63</time>
   <energy>
    <i name="e_fr_energy">     -0.15493108 </i>
    <i name="e_wo_entrp">     -0.15493108 </i>
    <i name="e_0_energy">     -0.15493108 </i>
   </energy>
  </scstep>
  <scstep>
   <time name="dav">    4.60    6.08</time>
   <time name="total">    6.37    7.86</time>
   <energy>
    <i name="e_fr_energy">     -0.15494600 </i>
    <i name="e_wo_entrp">     -0.15494600 </i>
    <i name="e_0_energy">     -0.15494600 </i>
   </energy>
  </scstep>
  <scstep>
   <time name="dav">    3.69    3.71</time>
   <time name="total">   10.32   10.39</time>
   <energy>
    <i name="e_fr_energy">     -0.25173811 </i>
    <i name="e_wo_entrp">     -0.25173811 </i>
    <i name="e_0_energy">     -0.25173811 </i>
   </energy>
  </scstep>
  <scstep>
   <time name="dav">    3.86    3.87</time>
   <time name="total">   10.53   10.56</time>
   <energy>
    <i name="e_fr_energy">     -0.67510300 </i>
    <i name="e_wo_entrp">     -0.67510300 </i>
    <i name="e_0_energy">     -0.67510300 </i>
   </energy>
  </scstep>
  <scstep>
   <time name="dav">    4.26    4.29</time>
   <time name="total">   10.93   10.99</time>
   <energy>
    <i name="e_fr_energy">     -0.67402747 </i>
    <i name="e_wo_entrp">     -0.67402747 </i>
    <i name="e_0_energy">     -0.67402747 </i>
   </energy>
  </scstep>
  <scstep>
   <time name="dav">    3.85    3.87</time>
   <time name="total">   10.51   10.57</time>
   <energy>
    <i name="e_fr_energy">     -0.67048287 </i>
    <i name="e_wo_entrp">     -0.67048287 </i>
    <i name="e_0_energy">     -0.67048287 </i>
   </energy>
  </scstep>
  <scstep>
   <time name="dav">    4.27    4.29</time>
   <time name="total">   10.95   10.99</time>
   <energy>
    <i name="e_fr_energy">     -0.67099546 </i>
    <i name="e_wo_entrp">     -0.67099546 </i>
    <i name="e_0_energy">     -0.67099546 </i>
   </energy>
  </scstep>
  <scstep>
   <time name="dav">    4.19    4.20</time>
   <time name="total">   10.85   10.90</time>
   <energy>
    <i name="e_fr_energy">     -0.67210617 </i>
    <i name="e_wo_entrp">     -0.67210617 </i>
    <i name="e_0_energy">     -0.67210617 </i>
   </energy>
  </scstep>
  <scstep>
   <time name="dav">    4.27    4.29</time>
   <time name="total">   10.91   10.98</time>
   <energy>
    <i name="e_fr_energy">     -0.67180387 </i>
    <i name="e_wo_entrp">     -0.67180387 </i>
    <i name="e_0_energy">     -0.67180387 </i>
   </energy>
  </scstep>
  <scstep>
   <time name="dav">    4.02    4.04</time>
   <time name="total">   10.71   10.75</time>
   <energy>
    <i name="e_fr_energy">     -0.67138551 </i>
    <i name="e_wo_entrp">     -0.67138551 </i>
    <i name="e_0_energy">     -0.67138551 </i>
   </energy>
  </scstep>
  <scstep>
   <time name="dav">    4.60    4.62</time>
   <time name="total">   11.29   11.34</time>
   <energy>
    <i name="e_fr_energy">     -0.67140700 </i>
    <i name="e_wo_entrp">     -0.67140700 </i>
    <i name="e_0_energy">     -0.67140700 </i>
   </energy>
  </scstep>
  <scstep>
   <time name="dav">    4.02    4.03</time>
   <time name="total">   10.71   10.76</time>
   <energy>
    <i name="e_fr_energy">     -0.67136343 </i>
    <i name="e_wo_entrp">     -0.67136343 </i>
    <i name="e_0_energy">     -0.67136343 </i>
   </energy>
  </scstep>
  <scstep>
   <time name="dav">    4.60    4.62</time>
   <time name="total">   11.33   11.36</time>
   <energy>
    <i name="e_fr_energy">     -0.67135413 </i>
    <i name="e_wo_entrp">     -0.67135413 </i>
    <i name="e_0_energy">     -0.67135413 </i>
   </energy>
  </scstep>
  <scstep>
   <time name="dav">    2.69    2.71</time>
   <time name="total">    7.57    7.63</time>
   <energy>
    <i name="alphaZ">      4.83781458 </i>
    <i name="ewald">   1202.61712670 </i>
    <i name="hartreedc">  -5934.65112655 </i>
    <i name="XCdc">     15.21681687 </i>
    <i name="pawpsdc">   4717.73454096 </i>
    <i name="pawaedc">  -4657.65451699 </i>
    <i name="eentropy">     -0.00000000 </i>
    <i name="bandstr">   -521.47648978 </i>
    <i name="atom">   5172.70447966 </i>
    <i name="e_fr_energy">     -0.67135456 </i>
    <i name="e_wo_entrp">     -0.67135456 </i>
    <i name="e_0_energy">     -0.67135456 </i>
   </energy>
  </scstep>
  <structure>
   <crystal>
    <varray name="basis" >
     <v>      17.00000000       0.00000000       0.00000000 </v>
     <v>       0.00000000      17.00000000       0.00000000 </v>
     <v>       0.00000000       0.00000000      17.00000000 </v>
    </varray>
    <i name="volume">   4913.00000000 </i>
    <varray name="rec_basis" >
     <v>       0.05882353       0.00000000       0.00000000 </v>
     <v>       0.00000000       0.05882353       0.00000000 </v>
     <v>       0.00000000       0.00000000       0.05882353 </v>
    </varray>
   </crystal>
   <varray name="positions" >
    <v>       0.93822900       0.01484682       0.08541281 </v>
    <v>       0.05259607       0.08164835       0.95364072 </v>
    <v>       0.94849354       0.93953118       0.91521064 </v>
    <v>       0.09813198       0.92618953       0.04071289 </v>
   </varray>
  </structure>
  <varray name="forces" >
   <v>       0.02071441       0.01134742      -0.00906219 </v>
   <v>       0.03793787       0.11920881       0.02074023 </v>
   <v>       0.01630670      -0.10129728       0.03278402 </v>
   <v>      -0.07495897      -0.02925896      -0.04446205 </v>
  </varray>
  <energy>
   <i name="e_fr_energy">     -0.67135456 </i>
   <i name="e_wo_entrp">     -0.67135456 </i>
   <i name="e_0_energy">     -0.00000000 </i>
  </energy>
  <time name="totalsc">  190.27  193.00</time>
 </calculation>
 <calculation>
  <scstep>
   <time name="dav">    4.61    4.63</time>
   <time name="total">   11.18   11.28</time>
   <energy>
    <i name="alphaZ">      4.83781458 </i>
    <i name="ewald">   1201.30361615 </i>
    <i name="hartreedc">  -5933.39889343 </i>
    <i name="XCdc">     15.21468925 </i>
    <i name="pawpsdc">   4717.94684976 </i>
    <i name="pawaedc">  -4657.86679963 </i>
    <i name="eentropy">     -0.00000000 </i>
    <i name="bandstr">   -521.41462616 </i>
    <i name="atom">   5172.70447966 </i>
    <i name="e_fr_energy">     -0.67286981 </i>
    <i name="e_wo_entrp">     -0.67286981 </i>
    <i name="e_0_energy">     -0.67286981 </i>
   </energy>
  </scstep>
  <scstep>
   <time name="dav">    3.69    3.70</time>
   <time name="total">   10.35   10.39</time>
   <energy>
    <i name="e_fr_energy">     -0.67306912 </i>
    <i name="e_wo_entrp">     -0.67306912 </i>
    <i name="e_0_energy">     -0.67306912 </i>
   </energy>
  </scstep>
  <scstep>
   <time name="dav">    4.86    4.87</time>
   <time name="total">   11.53   11.56</time>
   <energy>
    <i name="e_fr_energy">     -0.67307119 </i>
    <i name="e_wo_entrp">     -0.67307119 </i>
    <i name="e_0_energy">     -0.67307119 </i>
   </energy>
  </scstep>
  <scstep>
   <time name="dav">    2.36    2.38</time>
   <time name="total">    9.02    9.70</time>
   <energy>
    <i name="e_fr_energy">     -0.67306916 </i>
    <i name="e_wo_entrp">     -0.67306916 </i>
    <i name="e_0_energy">     -0.67306916 </i>
   </energy>
  </scstep>
  <scstep>
   <time name="dav">    2.70    2.71</time>
   <time name="total">    9.38    9.41</time>
   <energy>
    <i name="e_fr_energy">     -0.67307016 </i>
    <i name="e_wo_entrp">     -0.67307016 </i>
    <i name="e_0_energy">     -0.67307016 </i>
   </energy>
  </scstep>
  <scstep>
   <time name="dav">    2.12    2.13</time>
   <time name="total">    7.02    7.04</time>
   <energy>
    <i name="alphaZ">      4.83781458 </i>
    <i name="ewald">   1201.30361615 </i>
    <i name="hartreedc">  -5933.42356552 </i>
    <i name="XCdc">     15.21571597 </i>
    <i name="pawpsdc">   4717.89105293 </i>
    <i name="pawaedc">  -4657.80529212 </i>
    <i name="eentropy">     -0.00000000 </i>
    <i name="bandstr">   -521.39689191 </i>
    <i name="atom">   5172.70447966 </i>
    <i name="e_fr_energy">     -0.67307024 </i>
    <i name="e_wo_entrp">     -0.67307024 </i>
    <i name="e_0_energy">     -0.67307024 </i>
   </energy>
  </scstep>
  <structure>
   <crystal>
    <varray name="basis" >
     <v>      17.00000000       0.00000000       0.00000000 </v>
     <v>       0.00000000      17.00000000       0.00000000 </v>
     <v>       0.00000000       0.00000000      17.00000000 </v>
    </varray>
    <i name="volume">   4913.00000000 </i>
    <varray name="rec_basis" >
     <v>       0.05882353       0.00000000       0.00000000 </v>
     <v>       0.00000000       0.05882353       0.00000000 </v>
     <v>       0.00000000       0.00000000       0.05882353 </v>
    </varray>
   </crystal>
   <varray name="positions" >
    <v>       0.93828778       0.01487902       0.08538710 </v>
    <v>       0.05270373       0.08198664       0.95369957 </v>
    <v>       0.94853981       0.93924372       0.91530367 </v>
    <v>       0.09791926       0.92610650       0.04058672 </v>
   </varray>
  </structure>
  <varray name="forces" >
   <v>       0.01789075       0.01129223      -0.00683751 </v>
   <v>       0.03301468       0.10754036       0.01779586 </v>
   <v>       0.01836796      -0.09115640       0.03128953 </v>
   <v>      -0.06927339      -0.02767619      -0.04224787 </v>
  </varray>
  <energy>
   <i name="e_fr_energy">     -0.67307024 </i>
   <i name="e_wo_entrp">     -0.67307024 </i>
   <i name="e_0_energy">     -0.00000000 </i>
  </energy>
  <time name="totalsc">   79.75   83.13</time>
 </calculation>
 <calculation>
  <scstep>
   <time name="dav">    4.27    4.29</time>
   <time name="total">   10.89   10.95</time>
   <energy>
    <i name="alphaZ">      4.83781458 </i>
    <i name="ewald">   1197.39083072 </i>
    <i name="hartreedc">  -5929.59994080 </i>
    <i name="XCdc">     15.20642218 </i>
    <i name="pawpsdc">   4717.83986439 </i>
    <i name="pawaedc">  -4657.74862190 </i>
    <i name="eentropy">     -0.00000000 </i>
    <i name="bandstr">   -521.29873764 </i>
    <i name="atom">   5172.70447966 </i>
    <i name="e_fr_energy">     -0.66788880 </i>
    <i name="e_wo_entrp">     -0.66788880 </i>
    <i name="e_0_energy">     -0.66788880 </i>
   </energy>
  </scstep>
  <scstep>
   <time name="dav">    4.36    4.38</time>
   <time name="total">   11.01   11.06</time>
   <energy>
    <i name="e_fr_energy">     -0.67741351 </i>
    <i name="e_wo_entrp">     -0.67741351 </i>
    <i name="e_0_energy">     -0.67741351 </i>
   </energy>
  </scstep>
  <scstep>
   <time name="dav">    4.52    4.54</time>
   <time name="total">   11.17   11.20</time>
   <energy>
    <i name="e_fr_energy">     -0.67746951 </i>
    <i name="e_wo_entrp">     -0.67746951 </i>
    <i name="e_0_energy">     -0.67746951 </i>
   </energy>
  </scstep>
  <scstep>
   <time name="dav">    4.35    4.37</time>
   <time name="total">   11.03   11.06</time>
   <energy>
    <i name="e_fr_energy">     -0.67746410 </i>
    <i name="e_wo_entrp">     -0.67746410 </i>
    <i name="e_0_energy">     -0.67746410 </i>
   </energy>
  </scstep>
  <scstep>
   <time name="dav">    4.03    4.04</time>
   <time name="total">   10.70   10.96</time>
   <energy>
    <i name="e_fr_energy">     -0.67748054 </i>
    <i name="e_wo_entrp">     -0.67748054 </i>
    <i name="e_0_energy">     -0.67748054 </i>
   </energy>
  </scstep>
  <scstep>
   <time name="dav">    3.61    3.62</time>
   <time name="total">   10.29   10.32</time>
   <energy>
    <i name="e_fr_energy">     -0.67748725 </i>
    <i name="e_wo_entrp">     -0.67748725 </i>
    <i name="e_0_energy">     -0.67748725 </i>
   </energy>
  </scstep>
  <scstep>
   <time name="dav">    2.13    2.13</time>
   <time name="total">    7.00    7.02</time>
   <energy>
    <i name="alphaZ">      4.83781458 </i>
    <i name="ewald">   1197.39083072 </i>
    <i name="hartreedc">  -5929.74020288 </i>
    <i name="XCdc">     15.21009373 </i>
    <i name="pawpsdc">   4717.33773787 </i>
    <i name="pawaedc">  -4657.23117747 </i>
    <i name="eentropy">     -0.00000000 </i>
    <i name="bandstr">   -521.18706335 </i>
    <i name="atom">   5172.70447966 </i>
    <i name="e_fr_energy">     -0.67748713 </i>
    <i name="e_wo_entrp">     -0.67748713 </i>
    <i name="e_0_energy">     -0.67748713 </i>
   </energy>
  </scstep>
  <structure>
   <crystal>
    <varray name="basis" >
     <v>      17.00000000       0.00000000       0.00000000 </v>
     <v>       0.00000000      17.00000000       0.00000000 </v>
     <v>       0.00000000       0.00000000      17.00000000 </v>
    </varray>
    <i name="volume">   4913.00000000 </i>
    <varray name="rec_basis" >
     <v>       0.05882353       0.00000000       0.00000000 </v>
     <v>       0.00000000       0.05882353       0.00000000 </v>
     <v>       0.00000000       0.00000000       0.05882353 </v>
    </varray>
   </crystal>
   <varray name="positions" >
    <v>       0.93846413       0.01497563       0.08530995 </v>
    <v>       0.05302671       0.08300151       0.95387614 </v>
    <v>       0.94867864       0.93838134       0.91558277 </v>
    <v>       0.09728110       0.92585740       0.04020819 </v>
   </varray>
  </structure>
  <varray name="forces" >
   <v>       0.01583844       0.01287646      -0.00859528 </v>
   <v>       0.01808371       0.07657088       0.01667482 </v>
   <v>       0.02834006      -0.06661999       0.03417825 </v>
   <v>      -0.06226221      -0.02282735      -0.04225779 </v>
  </varray>
  <energy>
   <i name="e_fr_energy">     -0.67748713 </i>
   <i name="e_wo_entrp">     -0.67748713 </i>
   <i name="e_0_energy">     -0.00000000 </i>
  </energy>
  <time name="totalsc">   93.43   94.04</time>
 </calculation>
 <calculation>
  <scstep>
   <time name="dav">    4.27    4.29</time>
   <time name="total">   10.89   10.94</time>
   <energy>
    <i name="alphaZ">      4.83781458 </i>
    <i name="ewald">   1189.69276647 </i>
    <i name="hartreedc">  -5922.13099662 </i>
    <i name="XCdc">     15.19143715 </i>
    <i name="pawpsdc">   4717.17109773 </i>
    <i name="pawaedc">  -4657.05672980 </i>
    <i name="eentropy">     -0.00000000 </i>
    <i name="bandstr">   -521.04728738 </i>
    <i name="atom">   5172.70447966 </i>
    <i name="e_fr_energy">     -0.63741821 </i>
    <i name="e_wo_entrp">     -0.63741821 </i>
    <i name="e_0_energy">     -0.63741821 </i>
   </energy>
  </scstep>
  <scstep>
   <time name="dav">    4.37    4.38</time>
   <time name="total">   11.02   11.07</time>
   <energy>
    <i name="e_fr_energy">     -0.68284086 </i>
    <i name="e_wo_entrp">     -0.68284086 </i>
    <i name="e_0_energy">     -0.68284086 </i>
   </energy>
  </scstep>
  <scstep>
   <time name="dav">    4.52    4.54</time>
   <time name="total">   11.18   11.22</time>
   <energy>
    <i name="e_fr_energy">     -0.68317040 </i>
    <i name="e_wo_entrp">     -0.68317040 </i>
    <i name="e_0_energy">     -0.68317040 </i>
   </energy>
  </scstep>
  <scstep>
   <time name="dav">    4.36    4.37</time>
   <time name="total">   11.03   11.06</time>
   <energy>
    <i name="e_fr_energy">     -0.68316049 </i>
    <i name="e_wo_entrp">     -0.68316049 </i>
    <i name="e_0_energy">     -0.68316049 </i>
   </energy>
  </scstep>
  <scstep>
   <time name="dav">    4.02    4.04</time>
   <time name="total">   10.69   10.74</time>
   <energy>
    <i name="e_fr_energy">     -0.68319027 </i>
    <i name="e_wo_entrp">     -0.68319027 </i>
    <i name="e_0_energy">     -0.68319027 </i>
   </energy>
  </scstep>
  <scstep>
   <time name="dav">    3.60    3.62</time>
   <time name="total">   10.29   10.32</time>
   <energy>
    <i name="e_fr_energy">     -0.68321482 </i>
    <i name="e_wo_entrp">     -0.68321482 </i>
    <i name="e_0_energy">     -0.68321482 </i>
   </energy>
  </scstep>
  <scstep>
   <time name="dav">    2.70    2.71</time>
   <time name="total">    9.37    9.41</time>
   <energy>
    <i name="e_fr_energy">     -0.68321350 </i>
    <i name="e_wo_entrp">     -0.68321350 </i>
    <i name="e_0_energy">     -0.68321350 </i>
   </energy>
  </scstep>
  <scstep>
   <time name="dav">    3.69    3.71</time>
   <time name="total">   10.37   10.42</time>
   <energy>
    <i name="e_fr_energy">     -0.68320321 </i>
    <i name="e_wo_entrp">     -0.68320321 </i>
    <i name="e_0_energy">     -0.68320321 </i>
   </energy>
  </scstep>
  <scstep>
   <time name="dav">    4.27    4.28</time>
   <time name="total">   10.94   10.99</time>
   <energy>
    <i name="e_fr_energy">     -0.68320444 </i>
    <i name="e_wo_entrp">     -0.68320444 </i>
    <i name="e_0_energy">     -0.68320444 </i>
   </energy>
  </scstep>
  <scstep>
   <time name="dav">    2.12    2.13</time>
   <time name="total">    6.99    7.03</time>
   <energy>
    <i name="alphaZ">      4.83781458 </i>
    <i name="ewald">   1189.69276647 </i>
    <i name="hartreedc">  -5922.31400400 </i>
    <i name="XCdc">     15.19686623 </i>
    <i name="pawpsdc">   4716.14039855 </i>
    <i name="pawaedc">  -4655.99012905 </i>
    <i name="eentropy">     -0.00000000 </i>
    <i name="bandstr">   -520.95139698 </i>
    <i name="atom">   5172.70447966 </i>
    <i name="e_fr_energy">     -0.68320454 </i>
    <i name="e_wo_entrp">     -0.68320454 </i>
    <i name="e_0_energy">     -0.68320454 </i>
   </energy>
  </scstep>
  <structure>
   <crystal>
    <varray name="basis" >
     <v>      17.00000000       0.00000000       0.00000000 </v>
     <v>       0.00000000      17.00000000       0.00000000 </v>
     <v>       0.00000000       0.00000000      17.00000000 </v>
    </varray>
    <i name="volume">   4913.00000000 </i>
    <varray name="rec_basis" >
     <v>       0.05882353       0.00000000       0.00000000 </v>
     <v>       0.00000000       0.05882353       0.00000000 </v>
     <v>       0.00000000       0.00000000       0.05882353 </v>
    </varray>
   </crystal>
   <varray name="positions" >
    <v>       0.93881684       0.01516884       0.08515565 </v>
    <v>       0.05367267       0.08503126       0.95422928 </v>
    <v>       0.94895629       0.93665657       0.91614098 </v>
    <v>       0.09600479       0.92535921       0.03945115 </v>
   </varray>
  </structure>
  <varray name="forces" >
   <v>       0.00864990       0.01486612      -0.00781952 </v>
   <v>      -0.00635065       0.02198982       0.01261479 </v>
   <v>       0.04035553      -0.02328004       0.03266626 </v>
   <v>      -0.04265479      -0.01357590      -0.03746153 </v>
  </varray>
  <energy>
   <i name="e_fr_energy">     -0.68320454 </i>
   <i name="e_wo_entrp">     -0.68320454 </i>
   <i name="e_0_energy">     -0.00000000 </i>
  </energy>
  <time name="totalsc">  124.02  125.29</time>
 </calculation>
 <calculation>
  <scstep>
   <time name="dav">    4.60    4.62</time>
   <time name="total">   11.21   11.28</time>
   <energy>
    <i name="alphaZ">      4.83781458 </i>
    <i name="ewald">   1174.82810065 </i>
    <i name="hartreedc">  -5907.60152198 </i>
    <i name="XCdc">     15.16811037 </i>
    <i name="pawpsdc">   4716.13210592 </i>
    <i name="pawaedc">  -4655.98148539 </i>
    <i name="eentropy">     -0.00000000 </i>
    <i name="bandstr">   -520.64747065 </i>
    <i name="atom">   5172.70447966 </i>
    <i name="e_fr_energy">     -0.55986685 </i>
    <i name="e_wo_entrp">     -0.55986685 </i>
    <i name="e_0_energy">     -0.55986685 </i>
   </energy>
  </scstep>
  <scstep>
   <time name="dav">    4.36    4.38</time>
   <time name="total">   11.01   11.08</time>
   <energy>
    <i name="e_fr_energy">     -0.68159016 </i>
    <i name="e_wo_entrp">     -0.68159016 </i>
    <i name="e_0_energy">     -0.68159016 </i>
   </energy>
  </scstep>
  <scstep>
   <time name="dav">    4.84    4.87</time>
   <time name="total">   11.50   11.56</time>
   <energy>
    <i name="e_fr_energy">     -0.68331552 </i>
    <i name="e_wo_entrp">     -0.68331552 </i>
    <i name="e_0_energy">     -0.68331552 </i>
   </energy>
  </scstep>
  <scstep>
   <time name="dav">    4.35    4.37</time>
   <time name="total">   11.01   11.06</time>
   <energy>
    <i name="e_fr_energy">     -0.68331313 </i>
    <i name="e_wo_entrp">     -0.68331313 </i>
    <i name="e_0_energy">     -0.68331313 </i>
   </energy>
  </scstep>
  <scstep>
   <time name="dav">    4.01    4.03</time>
   <time name="total">   10.69   10.73</time>
   <energy>
    <i name="e_fr_energy">     -0.68333009 </i>
    <i name="e_wo_entrp">     -0.68333009 </i>
    <i name="e_0_energy">     -0.68333009 </i>
   </energy>
  </scstep>
  <scstep>
   <time name="dav">    4.26    4.28</time>
   <time name="total">   10.94   10.99</time>
   <energy>
    <i name="e_fr_energy">     -0.68344895 </i>
    <i name="e_wo_entrp">     -0.68344895 </i>
    <i name="e_0_energy">     -0.68344895 </i>
   </energy>
  </scstep>
  <scstep>
   <time name="dav">    3.60    3.62</time>
   <time name="total">   10.25   10.31</time>
   <energy>
    <i name="e_fr_energy">     -0.68345024 </i>
    <i name="e_wo_entrp">     -0.68345024 </i>
    <i name="e_0_energy">     -0.68345024 </i>
   </energy>
  </scstep>
  <scstep>
   <time name="dav">    3.69    3.71</time>
   <time name="total">   10.33   10.39</time>
   <energy>
    <i name="e_fr_energy">     -0.68339169 </i>
    <i name="e_wo_entrp">     -0.68339169 </i>
    <i name="e_0_energy">     -0.68339169 </i>
   </energy>
  </scstep>
  <scstep>
   <time name="dav">    3.60    3.62</time>
   <time name="total">   10.28   10.33</time>
   <energy>
    <i name="e_fr_energy">     -0.68341782 </i>
    <i name="e_wo_entrp">     -0.68341782 </i>
    <i name="e_0_energy">     -0.68341782 </i>
   </energy>
  </scstep>
  <scstep>
   <time name="dav">    2.70    2.71</time>
   <time name="total">    7.55    7.58</time>
   <energy>
    <i name="alphaZ">      4.83781458 </i>
    <i name="ewald">   1174.82810065 </i>
    <i name="hartreedc">  -5907.83889982 </i>
    <i name="XCdc">     15.17592470 </i>
    <i name="pawpsdc">   4714.94527335 </i>
    <i name="pawaedc">  -4654.74446375 </i>
    <i name="eentropy">     -0.00000000 </i>
    <i name="bandstr">   -520.59164730 </i>
    <i name="atom">   5172.70447966 </i>
    <i name="e_fr_energy">     -0.68341792 </i>
    <i name="e_wo_entrp">     -0.68341792 </i>
    <i name="e_0_energy">     -0.68341792 </i>
   </energy>
  </scstep>
  <structure>
   <crystal>
    <varray name="basis" >
     <v>      17.00000000       0.00000000       0.00000000 </v>
     <v>       0.00000000      17.00000000       0.00000000 </v>
     <v>       0.00000000       0.00000000      17.00000000 </v>
    </varray>
    <i name="volume">   4913.00000000 </i>
    <varray name="rec_basis" >
     <v>       0.05882353       0.00000000       0.00000000 </v>
     <v>       0.00000000       0.05882353       0.00000000 </v>
     <v>       0.00000000       0.00000000       0.05882353 </v>
    </varray>
   </crystal>
   <varray name="positions" >
    <v>       0.93952224       0.01555526       0.08484704 </v>
    <v>       0.05496459       0.08909075       0.95493556 </v>
    <v>       0.94951159       0.93320703       0.91725740 </v>
    <v>       0.09345216       0.92436284       0.03793705 </v>
   </varray>
  </structure>
  <varray name="forces" >
   <v>      -0.00590866       0.02063545      -0.00874127 </v>
   <v>      -0.04091241      -0.06592675       0.01215223 </v>
   <v>       0.04022219       0.04311385       0.01895370 </v>
   <v>       0.00659887       0.00217744      -0.02236466 </v>
  </varray>
  <energy>
   <i name="e_fr_energy">     -0.68341792 </i>
   <i name="e_wo_entrp">     -0.68341792 </i>
   <i name="e_0_energy">     -0.00000000 </i>
  </energy>
  <time name="totalsc">  126.02  127.16</time>
 </calculation>
 <calculation>
  <scstep>
   <time name="dav">    4.27    4.29</time>
   <time name="total">   10.86   10.94</time>
   <energy>
    <i name="alphaZ">      4.83781458 </i>
    <i name="ewald">   1181.92681816 </i>
    <i name="hartreedc">  -5914.89103462 </i>
    <i name="XCdc">     15.18936368 </i>
    <i name="pawpsdc">   4714.93619876 </i>
    <i name="pawaedc">  -4654.73489092 </i>
    <i name="eentropy">     -0.00000000 </i>
    <i name="bandstr">   -520.61968424 </i>
    <i name="atom">   5172.70447966 </i>
    <i name="e_fr_energy">     -0.65093493 </i>
    <i name="e_wo_entrp">     -0.65093493 </i>
    <i name="e_0_energy">     -0.65093493 </i>
   </energy>
  </scstep>
  <scstep>
   <time name="dav">    4.02    4.03</time>
   <time name="total">   10.63   10.73</time>
   <energy>
    <i name="e_fr_energy">     -0.68395325 </i>
    <i name="e_wo_entrp">     -0.68395325 </i>
    <i name="e_0_energy">     -0.68395325 </i>
   </energy>
  </scstep>
  <scstep>
   <time name="dav">    4.84    4.86</time>
   <time name="total">   11.49   11.55</time>
   <energy>
    <i name="e_fr_energy">     -0.68505338 </i>
    <i name="e_wo_entrp">     -0.68505338 </i>
    <i name="e_0_energy">     -0.68505338 </i>
   </energy>
  </scstep>
  <scstep>
   <time name="dav">    3.99    4.04</time>
   <time name="total">   10.66   10.74</time>
   <energy>
    <i name="e_fr_energy">     -0.68505362 </i>
    <i name="e_wo_entrp">     -0.68505362 </i>
    <i name="e_0_energy">     -0.68505362 </i>
   </energy>
  </scstep>
  <scstep>
   <time name="dav">    4.34    4.36</time>
   <time name="total">   11.01   11.06</time>
   <energy>
    <i name="e_fr_energy">     -0.68501872 </i>
    <i name="e_wo_entrp">     -0.68501872 </i>
    <i name="e_0_energy">     -0.68501872 </i>
   </energy>
  </scstep>
  <scstep>
   <time name="dav">    4.26    4.28</time>
   <time name="total">   10.95   10.99</time>
   <energy>
    <i name="e_fr_energy">     -0.68504668 </i>
    <i name="e_wo_entrp">     -0.68504668 </i>
    <i name="e_0_energy">     -0.68504668 </i>
   </energy>
  </scstep>
  <scstep>
   <time name="dav">    3.27    3.31</time>
   <time name="total">    9.93   10.01</time>
   <energy>
    <i name="e_fr_energy">     -0.68505279 </i>
    <i name="e_wo_entrp">     -0.68505279 </i>
    <i name="e_0_energy">     -0.68505279 </i>
   </energy>
  </scstep>
  <scstep>
   <time name="dav">    3.36    3.37</time>
   <time name="total">   10.03   10.08</time>
   <energy>
    <i name="e_fr_energy">     -0.68504860 </i>
    <i name="e_wo_entrp">     -0.68504860 </i>
    <i name="e_0_energy">     -0.68504860 </i>
   </energy>
  </scstep>
  <scstep>
   <time name="dav">    4.10    4.12</time>
   <time name="total">   10.73   10.80</time>
   <energy>
    <i name="e_fr_energy">     -0.68505472 </i>
    <i name="e_wo_entrp">     -0.68505472 </i>
    <i name="e_0_energy">     -0.68505472 </i>
   </energy>
  </scstep>
  <scstep>
   <time name="dav">    2.11    2.14</time>
   <time name="total">    6.94   12.32</time>
   <energy>
    <i name="alphaZ">      4.83781458 </i>
    <i name="ewald">   1181.92681816 </i>
    <i name="hartreedc">  -5914.73154085 </i>
    <i name="XCdc">     15.18395321 </i>
    <i name="pawpsdc">   4715.26787730 </i>
    <i name="pawaedc">  -4655.08095923 </i>
    <i name="eentropy">     -0.00000000 </i>
    <i name="bandstr">   -520.79349778 </i>
    <i name="atom">   5172.70447966 </i>
    <i name="e_fr_energy">     -0.68505494 </i>
    <i name="e_wo_entrp">     -0.68505494 </i>
    <i name="e_0_energy">     -0.68505494 </i>
   </energy>
  </scstep>
  <structure>
   <crystal>
    <varray name="basis" >
     <v>      17.00000000       0.00000000       0.00000000 </v>
     <v>       0.00000000      17.00000000       0.00000000 </v>
     <v>       0.00000000       0.00000000      17.00000000 </v>
    </varray>
    <i name="volume">   4913.00000000 </i>
    <varray name="rec_basis" >
     <v>       0.05882353       0.00000000       0.00000000 </v>
     <v>       0.00000000       0.05882353       0.00000000 </v>
     <v>       0.00000000       0.00000000       0.05882353 </v>
    </varray>
   </crystal>
   <varray name="positions" >
    <v>       0.93918107       0.01536837       0.08499630 </v>
    <v>       0.05433976       0.08712740       0.95459398 </v>
    <v>       0.94924302       0.93487538       0.91671745 </v>
    <v>       0.09468673       0.92484473       0.03866934 </v>
   </varray>
  </structure>
  <varray name="forces" >
   <v>       0.00047928       0.01682346      -0.00838753 </v>
   <v>      -0.02574809      -0.02596863       0.01163998 </v>
   <v>       0.04404251       0.01399307       0.02753833 </v>
   <v>      -0.01877370      -0.00484791      -0.03079079 </v>
  </varray>
  <energy>
   <i name="e_fr_energy">     -0.68505494 </i>
   <i name="e_wo_entrp">     -0.68505494 </i>
   <i name="e_0_energy">     -0.00000000 </i>
  </energy>
  <time name="totalsc">  124.49  133.84</time>
 </calculation>
 <calculation>
  <scstep>
   <time name="dav">    4.60    4.63</time>
   <time name="total">   11.15   11.25</time>
   <energy>
    <i name="alphaZ">      4.83781458 </i>
    <i name="ewald">   1191.36847814 </i>
    <i name="hartreedc">  -5924.11154561 </i>
    <i name="XCdc">     15.20310084 </i>
    <i name="pawpsdc">   4715.32590823 </i>
    <i name="pawaedc">  -4655.14193117 </i>
    <i name="eentropy">     -0.00000000 </i>
    <i name="bandstr">   -520.87140033 </i>
    <i name="atom">   5172.70447966 </i>
    <i name="e_fr_energy">     -0.68509565 </i>
    <i name="e_wo_entrp">     -0.68509565 </i>
    <i name="e_0_energy">     -0.68509565 </i>
   </energy>
  </scstep>
  <scstep>
   <time name="dav">    4.01    4.03</time>
   <time name="total">   10.61   10.68</time>
   <energy>
    <i name="e_fr_energy">     -0.68604942 </i>
    <i name="e_wo_entrp">     -0.68604942 </i>
    <i name="e_0_energy">     -0.68604942 </i>
   </energy>
  </scstep>
  <scstep>
   <time name="dav">    4.59    4.62</time>
   <time name="total">   11.19   11.25</time>
   <energy>
    <i name="e_fr_energy">     -0.68605953 </i>
    <i name="e_wo_entrp">     -0.68605953 </i>
    <i name="e_0_energy">     -0.68605953 </i>
   </energy>
  </scstep>
  <scstep>
   <time name="dav">    3.61    3.62</time>
   <time name="total">   10.20   10.91</time>
   <energy>
    <i name="e_fr_energy">     -0.68605717 </i>
    <i name="e_wo_entrp">     -0.68605717 </i>
    <i name="e_0_energy">     -0.68605717 </i>
   </energy>
  </scstep>
  <scstep>
   <time name="dav">    4.34    4.36</time>
   <time name="total">   10.96   11.01</time>
   <energy>
    <i name="e_fr_energy">     -0.68606250 </i>
    <i name="e_wo_entrp">     -0.68606250 </i>
    <i name="e_0_energy">     -0.68606250 </i>
   </energy>
  </scstep>
  <scstep>
   <time name="dav">    2.95    2.96</time>
   <time name="total">    9.55    9.61</time>
   <energy>
    <i name="e_fr_energy">     -0.68606537 </i>
    <i name="e_wo_entrp">     -0.68606537 </i>
    <i name="e_0_energy">     -0.68606537 </i>
   </energy>
  </scstep>
  <scstep>
   <time name="dav">    2.37    2.38</time>
   <time name="total">    7.20   33.81</time>
   <energy>
    <i name="alphaZ">      4.83781458 </i>
    <i name="ewald">   1191.36847814 </i>
    <i name="hartreedc">  -5923.95680014 </i>
    <i name="XCdc">     15.19704968 </i>
    <i name="pawpsdc">   4715.81709144 </i>
    <i name="pawaedc">  -4655.65175580 </i>
    <i name="eentropy">     -0.00000000 </i>
    <i name="bandstr">   -521.00242309 </i>
    <i name="atom">   5172.70447966 </i>
    <i name="e_fr_energy">     -0.68606552 </i>
    <i name="e_wo_entrp">     -0.68606552 </i>
    <i name="e_0_energy">     -0.68606552 </i>
   </energy>
  </scstep>
  <structure>
   <crystal>
    <varray name="basis" >
     <v>      17.00000000       0.00000000       0.00000000 </v>
     <v>       0.00000000      17.00000000       0.00000000 </v>
     <v>       0.00000000       0.00000000      17.00000000 </v>
    </varray>
    <i name="volume">   4913.00000000 </i>
    <varray name="rec_basis" >
     <v>       0.05882353       0.00000000       0.00000000 </v>
     <v>       0.00000000       0.05882353       0.00000000 </v>
     <v>       0.00000000       0.00000000       0.05882353 </v>
    </varray>
   </crystal>
   <varray name="positions" >
    <v>       0.93922839       0.01558412       0.08488186 </v>
    <v>       0.05412122       0.08707040       0.95476927 </v>
    <v>       0.94978079       0.93483127       0.91709930 </v>
    <v>       0.09432020       0.92473009       0.03822663 </v>
   </varray>
  </structure>
  <varray name="forces" >
   <v>      -0.00203662       0.01584213      -0.00374701 </v>
   <v>      -0.02070779      -0.01993847       0.00791801 </v>
   <v>       0.03287586       0.01029975       0.01814282 </v>
   <v>      -0.01013145      -0.00620341      -0.02231382 </v>
  </varray>
  <energy>
   <i name="e_fr_energy">     -0.68606552 </i>
   <i name="e_wo_entrp">     -0.68606552 </i>
   <i name="e_0_energy">     -0.00000000 </i>
  </energy>
  <time name="totalsc">   92.11  119.95</time>
 </calculation>
 <calculation>
  <scstep>
   <time name="dav">    4.61    4.64</time>
   <time name="total">   11.19   11.27</time>
   <energy>
    <i name="alphaZ">      4.83781458 </i>
    <i name="ewald">   1207.48432514 </i>
    <i name="hartreedc">  -5939.91001338 </i>
    <i name="XCdc">     15.22909822 </i>
    <i name="pawpsdc">   4715.98514260 </i>
    <i name="pawaedc">  -4655.82939732 </i>
    <i name="eentropy">     -0.00000000 </i>
    <i name="bandstr">   -521.18473091 </i>
    <i name="atom">   5172.70447966 </i>
    <i name="e_fr_energy">     -0.68328140 </i>
    <i name="e_wo_entrp">     -0.68328140 </i>
    <i name="e_0_energy">     -0.68328140 </i>
   </energy>
  </scstep>
  <scstep>
   <time name="dav">    4.02    4.04</time>
   <time name="total">   10.64   10.68</time>
   <energy>
    <i name="e_fr_energy">     -0.68692136 </i>
    <i name="e_wo_entrp">     -0.68692136 </i>
    <i name="e_0_energy">     -0.68692136 </i>
   </energy>
  </scstep>
  <scstep>
   <time name="dav">    4.60    4.62</time>
   <time name="total">   11.22   11.25</time>
   <energy>
    <i name="e_fr_energy">     -0.68697370 </i>
    <i name="e_wo_entrp">     -0.68697370 </i>
    <i name="e_0_energy">     -0.68697370 </i>
   </energy>
  </scstep>
  <scstep>
   <time name="dav">    4.60    4.62</time>
   <time name="total">   11.21   11.28</time>
   <energy>
    <i name="e_fr_energy">     -0.68696970 </i>
    <i name="e_wo_entrp">     -0.68696970 </i>
    <i name="e_0_energy">     -0.68696970 </i>
   </energy>
  </scstep>
  <scstep>
   <time name="dav">    4.35    4.37</time>
   <time name="total">   10.98   11.01</time>
   <energy>
    <i name="e_fr_energy">     -0.68696784 </i>
    <i name="e_wo_entrp">     -0.68696784 </i>
    <i name="e_0_energy">     -0.68696784 </i>
   </energy>
  </scstep>
  <scstep>
   <time name="dav">    4.60    4.61</time>
   <time name="total">   11.24   11.27</time>
   <energy>
    <i name="e_fr_energy">     -0.68698602 </i>
    <i name="e_wo_entrp">     -0.68698602 </i>
    <i name="e_0_energy">     -0.68698602 </i>
   </energy>
  </scstep>
  <scstep>
   <time name="dav">    2.70    2.71</time>
   <time name="total">    9.30    9.37</time>
   <energy>
    <i name="e_fr_energy">     -0.68698454 </i>
    <i name="e_wo_entrp">     -0.68698454 </i>
    <i name="e_0_energy">     -0.68698454 </i>
   </energy>
  </scstep>
  <scstep>
   <time name="dav">    3.69    3.71</time>
   <time name="total">   10.33   10.99</time>
   <energy>
    <i name="e_fr_energy">     -0.68698720 </i>
    <i name="e_wo_entrp">     -0.68698720 </i>
    <i name="e_0_energy">     -0.68698720 </i>
   </energy>
  </scstep>
  <scstep>
   <time name="dav">    2.70    2.71</time>
   <time name="total">    7.53    7.77</time>
   <energy>
    <i name="alphaZ">      4.83781458 </i>
    <i name="ewald">   1207.48432514 </i>
    <i name="hartreedc">  -5939.60969250 </i>
    <i name="XCdc">     15.21828671 </i>
    <i name="pawpsdc">   4717.25090180 </i>
    <i name="pawaedc">  -4657.14488324 </i>
    <i name="eentropy">     -0.00000000 </i>
    <i name="bandstr">   -521.42821959 </i>
    <i name="atom">   5172.70447966 </i>
    <i name="e_fr_energy">     -0.68698743 </i>
    <i name="e_wo_entrp">     -0.68698743 </i>
    <i name="e_0_energy">     -0.68698743 </i>
   </energy>
  </scstep>
  <structure>
   <crystal>
    <varray name="basis" >
     <v>      17.00000000       0.00000000       0.00000000 </v>
     <v>       0.00000000      17.00000000       0.00000000 </v>
     <v>       0.00000000       0.00000000      17.00000000 </v>
    </varray>
    <i name="volume">   4913.00000000 </i>
    <varray name="rec_basis" >
     <v>       0.05882353       0.00000000       0.00000000 </v>
     <v>       0.00000000       0.05882353       0.00000000 </v>
     <v>       0.00000000       0.00000000       0.05882353 </v>
    </varray>
   </crystal>
   <varray name="positions" >
    <v>       0.93930859       0.01594986       0.08468786 </v>
    <v>       0.05375073       0.08697378       0.95506644 </v>
    <v>       0.95069241       0.93475649       0.91774661 </v>
    <v>       0.09369885       0.92453575       0.03747615 </v>
   </varray>
  </structure>
  <varray name="forces" >
   <v>      -0.00582230       0.01259097       0.00500351 </v>
   <v>      -0.01231332      -0.01208042       0.00144098 </v>
   <v>       0.01142840       0.00742811      -0.00095899 </v>
   <v>       0.00670722      -0.00793867      -0.00548550 </v>
  </varray>
  <energy>
   <i name="e_fr_energy">     -0.68698743 </i>
   <i name="e_wo_entrp">     -0.68698743 </i>
   <i name="e_0_energy">     -0.00000000 </i>
  </energy>
  <time name="totalsc">  114.79  117.92</time>
 </calculation>
 <calculation>
  <scstep>
   <time name="dav">    4.60    4.63</time>
   <time name="total">   11.18   11.24</time>
   <energy>
    <i name="alphaZ">      4.83781458 </i>
    <i name="ewald">   1212.60919607 </i>
    <i name="hartreedc">  -5944.69841266 </i>
    <i name="XCdc">     15.22894806 </i>
    <i name="pawpsdc">   4717.25536077 </i>
    <i name="pawaedc">  -4657.14986640 </i>
    <i name="eentropy">     -0.00000000 </i>
    <i name="bandstr">   -521.47435034 </i>
    <i name="atom">   5172.70447966 </i>
    <i name="e_fr_energy">     -0.68683025 </i>
    <i name="e_wo_entrp">     -0.68683025 </i>
    <i name="e_0_energy">     -0.68683025 </i>
   </energy>
  </scstep>
  <scstep>
   <time name="dav">    4.01    4.03</time>
   <time name="total">   10.59   10.66</time>
   <energy>
    <i name="e_fr_energy">     -0.68704025 </i>
    <i name="e_wo_entrp">     -0.68704025 </i>
    <i name="e_0_energy">     -0.68704025 </i>
   </energy>
  </scstep>
  <scstep>
   <time name="dav">    4.84    4.87</time>
   <time name="total">   11.45   17.90</time>
   <energy>
    <i name="e_fr_energy">     -0.68704142 </i>
    <i name="e_wo_entrp">     -0.68704142 </i>
    <i name="e_0_energy">     -0.68704142 </i>
   </energy>
  </scstep>
  <scstep>
   <time name="dav">    2.12    2.13</time>
   <time name="total">    8.72    8.80</time>
   <energy>
    <i name="e_fr_energy">     -0.68704124 </i>
    <i name="e_wo_entrp">     -0.68704124 </i>
    <i name="e_0_energy">     -0.68704124 </i>
   </energy>
  </scstep>
  <scstep>
   <time name="dav">    3.68    3.70</time>
   <time name="total">   10.31   10.36</time>
   <energy>
    <i name="e_fr_energy">     -0.68704717 </i>
    <i name="e_wo_entrp">     -0.68704717 </i>
    <i name="e_0_energy">     -0.68704717 </i>
   </energy>
  </scstep>
  <scstep>
   <time name="dav">    2.94    2.96</time>
   <time name="total">    7.78    7.82</time>
   <energy>
    <i name="alphaZ">      4.83781458 </i>
    <i name="ewald">   1212.60919607 </i>
    <i name="hartreedc">  -5944.69601394 </i>
    <i name="XCdc">     15.22735618 </i>
    <i name="pawpsdc">   4717.66825668 </i>
    <i name="pawaedc">  -4657.57996153 </i>
    <i name="eentropy">     -0.00000000 </i>
    <i name="bandstr">   -521.45817563 </i>
    <i name="atom">   5172.70447966 </i>
    <i name="e_fr_energy">     -0.68704793 </i>
    <i name="e_wo_entrp">     -0.68704793 </i>
    <i name="e_0_energy">     -0.68704793 </i>
   </energy>
  </scstep>
  <structure>
   <crystal>
    <varray name="basis" >
     <v>      17.00000000       0.00000000       0.00000000 </v>
     <v>       0.00000000      17.00000000       0.00000000 </v>
     <v>       0.00000000       0.00000000      17.00000000 </v>
    </varray>
    <i name="volume">   4913.00000000 </i>
    <varray name="rec_basis" >
     <v>       0.05882353       0.00000000       0.00000000 </v>
     <v>       0.00000000       0.05882353       0.00000000 </v>
     <v>       0.00000000       0.00000000       0.05882353 </v>
    </varray>
   </crystal>
   <varray name="positions" >
    <v>       0.93933395       0.01606550       0.08462652 </v>
    <v>       0.05363359       0.08694323       0.95516040 </v>
    <v>       0.95098065       0.93473284       0.91795128 </v>
    <v>       0.09350239       0.92447430       0.03723886 </v>
   </varray>
  </structure>
  <varray name="forces" >
   <v>      -0.00771065       0.01191501       0.00907468 </v>
   <v>      -0.00922509      -0.00932777      -0.00115026 </v>
   <v>       0.00447142       0.00540948      -0.00786512 </v>
   <v>       0.01246432      -0.00799673      -0.00005931 </v>
  </varray>
  <energy>
   <i name="e_fr_energy">     -0.68704793 </i>
   <i name="e_wo_entrp">     -0.68704793 </i>
   <i name="e_0_energy">     -0.00000000 </i>
  </energy>
  <time name="totalsc">   81.25   88.21</time>
 </calculation>
 <calculation>
  <scstep>
   <time name="dav">    4.60    4.62</time>
   <time name="total">   11.19   11.26</time>
   <energy>
    <i name="alphaZ">      4.83781458 </i>
    <i name="ewald">   1210.88629479 </i>
    <i name="hartreedc">  -5942.98801130 </i>
    <i name="XCdc">     15.22368614 </i>
    <i name="pawpsdc">   4717.68653502 </i>
    <i name="pawaedc">  -4657.59905324 </i>
    <i name="eentropy">     -0.00000000 </i>
    <i name="bandstr">   -521.43881465 </i>
    <i name="atom">   5172.70447966 </i>
    <i name="e_fr_energy">     -0.68706899 </i>
    <i name="e_wo_entrp">     -0.68706899 </i>
    <i name="e_0_energy">     -0.68706899 </i>
   </energy>
  </scstep>
  <scstep>
   <time name="dav">    4.03    4.05</time>
   <time name="total">   10.62   10.68</time>
   <energy>
    <i name="e_fr_energy">     -0.68721669 </i>
    <i name="e_wo_entrp">     -0.68721669 </i>
    <i name="e_0_energy">     -0.68721669 </i>
   </energy>
  </scstep>
  <scstep>
   <time name="dav">    4.84    4.87</time>
   <time name="total">   11.49   14.64</time>
   <energy>
    <i name="e_fr_energy">     -0.68721707 </i>
    <i name="e_wo_entrp">     -0.68721707 </i>
    <i name="e_0_energy">     -0.68721707 </i>
   </energy>
  </scstep>
  <scstep>
   <time name="dav">    2.12    2.13</time>
   <time name="total">    8.75    8.78</time>
   <energy>
    <i name="e_fr_energy">     -0.68721566 </i>
    <i name="e_wo_entrp">     -0.68721566 </i>
    <i name="e_0_energy">     -0.68721566 </i>
   </energy>
  </scstep>
  <scstep>
   <time name="dav">    4.02    4.03</time>
   <time name="total">   10.66   10.70</time>
   <energy>
    <i name="e_fr_energy">     -0.68721752 </i>
    <i name="e_wo_entrp">     -0.68721752 </i>
    <i name="e_0_energy">     -0.68721752 </i>
   </energy>
  </scstep>
  <scstep>
   <time name="dav">    2.95    2.96</time>
   <time name="total">    7.80    7.83</time>
   <energy>
    <i name="alphaZ">      4.83781458 </i>
    <i name="ewald">   1210.88629479 </i>
    <i name="hartreedc">  -5942.97076047 </i>
    <i name="XCdc">     15.22463727 </i>
    <i name="pawpsdc">   4717.64753619 </i>
    <i name="pawaedc">  -4657.56047876 </i>
    <i name="eentropy">     -0.00000000 </i>
    <i name="bandstr">   -521.45674154 </i>
    <i name="atom">   5172.70447966 </i>
    <i name="e_fr_energy">     -0.68721828 </i>
    <i name="e_wo_entrp">     -0.68721828 </i>
    <i name="e_0_energy">     -0.68721828 </i>
   </energy>
  </scstep>
  <structure>
   <crystal>
    <varray name="basis" >
     <v>      17.00000000       0.00000000       0.00000000 </v>
     <v>       0.00000000      17.00000000       0.00000000 </v>
     <v>       0.00000000       0.00000000      17.00000000 </v>
    </varray>
    <i name="volume">   4913.00000000 </i>
    <varray name="rec_basis" >
     <v>       0.05882353       0.00000000       0.00000000 </v>
     <v>       0.00000000       0.05882353       0.00000000 </v>
     <v>       0.00000000       0.00000000       0.05882353 </v>
    </varray>
   </crystal>
   <varray name="positions" >
    <v>       0.93920996       0.01628047       0.08476771 </v>
    <v>       0.05346299       0.08678399       0.95515551 </v>
    <v>       0.95109827       0.93481895       0.91785178 </v>
    <v>       0.09367938       0.92433247       0.03720207 </v>
   </varray>
  </structure>
  <varray name="forces" >
   <v>      -0.00307640       0.00584308       0.00438310 </v>
   <v>      -0.00597567      -0.00666256      -0.00081684 </v>
   <v>       0.00273539       0.00466327      -0.00389017 </v>
   <v>       0.00631667      -0.00384378       0.00032391 </v>
  </varray>
  <energy>
   <i name="e_fr_energy">     -0.68721828 </i>
   <i name="e_wo_entrp">     -0.68721828 </i>
   <i name="e_0_energy">     -0.00000000 </i>
  </energy>
  <time name="totalsc">   81.24   84.76</time>
  <eigenvalues>
   <array>
    <dimension dim="1">band</dimension>
    <dimension dim="2">kpoint</dimension>
    <dimension dim="3">spin</dimension>
    <field>eigene</field>
    <field>occ</field>
    <set>
     <set comment="spin 1">
      <set comment="kpoint 1">
       <r>  -12.2798    1.0000 </r>
       <r>  -12.0989    1.0000 </r>
       <r>  -12.0953    1.0000 </r>
       <r>  -12.0937    1.0000 </r>
       <r>  -12.0620    1.0000 </r>
       <r>  -12.0599    1.0000 </r>
       <r>  -11.9036    1.0000 </r>
       <r>  -11.9020    1.0000 </r>
       <r>  -11.9018    1.0000 </r>
       <r>  -11.7632    1.0000 </r>
       <r>  -11.7629    1.0000 </r>
       <r>  -11.7614    1.0000 </r>
       <r>  -11.7494    1.0000 </r>
       <r>  -11.7488    1.0000 </r>
       <r>  -11.7288    1.0000 </r>
       <r>  -11.7267    1.0000 </r>
       <r>  -11.7256    1.0000 </r>
       <r>  -11.6038    1.0000 </r>
       <r>  -11.6012    1.0000 </r>
       <r>  -11.5988    1.0000 </r>
       <r>   -8.0759    1.0000 </r>
       <r>   -5.1713    1.0000 </r>
       <r>   -5.1582    1.0000 </r>
       <r>   -5.1554    1.0000 </r>
       <r>   -2.2129    0.0000 </r>
       <r>   -1.7742    0.0000 </r>
       <r>   -1.7681    0.0000 </r>
       <r>   -1.7625    0.0000 </r>
       <r>   -1.3431    0.0000 </r>
       <r>   -1.3371    0.0000 </r>
      </set>
     </set>
     <set comment="spin 2">
      <set comment="kpoint 1">
       <r>  -12.2798    1.0000 </r>
       <r>  -12.0989    1.0000 </r>
       <r>  -12.0953    1.0000 </r>
       <r>  -12.0937    1.0000 </r>
       <r>  -12.0620    1.0000 </r>
       <r>  -12.0599    1.0000 </r>
       <r>  -11.9036    1.0000 </r>
       <r>  -11.9020    1.0000 </r>
       <r>  -11.9018    1.0000 </r>
       <r>  -11.7632    1.0000 </r>
       <r>  -11.7629    1.0000 </r>
       <r>  -11.7614    1.0000 </r>
       <r>  -11.7494    1.0000 </r>
       <r>  -11.7488    1.0000 </r>
       <r>  -11.7288    1.0000 </r>
       <r>  -11.7267    1.0000 </r>
       <r>  -11.7256    1.0000 </r>
       <r>  -11.6038    1.0000 </r>
       <r>  -11.6012    1.0000 </r>
       <r>  -11.5988    1.0000 </r>
       <r>   -8.0759    1.0000 </r>
       <r>   -5.1713    1.0000 </r>
       <r>   -5.1582    1.0000 </r>
       <r>   -5.1554    1.0000 </r>
       <r>   -2.2129    0.0000 </r>
       <r>   -1.7742    0.0000 </r>
       <r>   -1.7681    0.0000 </r>
       <r>   -1.7625    0.0000 </r>
       <r>   -1.3431    0.0000 </r>
       <r>   -1.3371    0.0000 </r>
      </set>
     </set>
    </set>
   </array>
  </eigenvalues>
  <separator name="orbital magnetization" >
   <v name="MAGDIPOLOUT">      0.00000000      0.00000000      0.00000000</v>
  </separator>
  <dos>
   <i name="efermi">     -5.11326673 </i>
   <total>
    <array>
     <dimension dim="1">gridpoints</dimension>
     <dimension dim="2">spin</dimension>
     <field>energy</field>
     <field>total</field>
     <field>integrated</field>
     <set>
      <set comment="spin 1">
       <r>   -12.8269     0.0000     0.0000 </r>
       <r>   -12.7868     0.0000     0.0000 </r>
       <r>   -12.7467     0.0000     0.0000 </r>
       <r>   -12.7066     0.0000     0.0000 </r>
       <r>   -12.6664     0.0000     0.0000 </r>
       <r>   -12.6263     0.0000     0.0000 </r>
       <r>   -12.5862     0.0000     0.0000 </r>
       <r>   -12.5461     0.0000     0.0000 </r>
       <r>   -12.5059     0.0000     0.0000 </r>
       <r>   -12.4658     0.0000     0.0000 </r>
       <r>   -12.4257     0.0000     0.0000 </r>
       <r>   -12.3856     0.0000     0.0000 </r>
       <r>   -12.3454     0.0000     0.0000 </r>
       <r>   -12.3053     0.0000     0.0000 </r>
       <r>   -12.2652    24.9229     1.0000 </r>
       <r>   -12.2251     0.0000     1.0000 </r>
       <r>   -12.1850     0.0000     1.0000 </r>
       <r>   -12.1448     0.0000     1.0000 </r>
       <r>   -12.1047     1.3873     1.0557 </r>
       <r>   -12.0646    81.4512     4.3237 </r>
       <r>   -12.0245    41.7781     6.0000 </r>
       <r>   -11.9843     0.0000     6.0000 </r>
       <r>   -11.9442     0.0000     6.0000 </r>
       <r>   -11.9041    24.3950     6.9788 </r>
       <r>   -11.8640    50.3750     9.0000 </r>
       <r>   -11.8238     0.0000     9.0000 </r>
       <r>   -11.7837     0.0000     9.0000 </r>
       <r>   -11.7436   121.5659    13.8776 </r>
       <r>   -11.7035    74.7696    17.0000 </r>
       <r>   -11.6634     0.0000    17.0000 </r>
       <r>   -11.6232     0.0000    17.0000 </r>
       <r>   -11.5831    74.7699    20.0000 </r>
       <r>   -11.5430     0.0000    20.0000 </r>
       <r>   -11.5029     0.0000    20.0000 </r>
       <r>   -11.4627     0.0000    20.0000 </r>
       <r>   -11.4226     0.0000    20.0000 </r>
       <r>   -11.3825     0.0000    20.0000 </r>
       <r>   -11.3424     0.0000    20.0000 </r>
       <r>   -11.3022     0.0000    20.0000 </r>
       <r>   -11.2621     0.0000    20.0000 </r>
       <r>   -11.2220     0.0000    20.0000 </r>
       <r>   -11.1819     0.0000    20.0000 </r>
       <r>   -11.1418     0.0000    20.0000 </r>
       <r>   -11.1016     0.0000    20.0000 </r>
       <r>   -11.0615     0.0000    20.0000 </r>
       <r>   -11.0214     0.0000    20.0000 </r>
       <r>   -10.9813     0.0000    20.0000 </r>
       <r>   -10.9411     0.0000    20.0000 </r>
       <r>   -10.9010     0.0000    20.0000 </r>
       <r>   -10.8609     0.0000    20.0000 </r>
       <r>   -10.8208     0.0000    20.0000 </r>
       <r>   -10.7806     0.0000    20.0000 </r>
       <r>   -10.7405     0.0000    20.0000 </r>
       <r>   -10.7004     0.0000    20.0000 </r>
       <r>   -10.6603     0.0000    20.0000 </r>
       <r>   -10.6202     0.0000    20.0000 </r>
       <r>   -10.5800     0.0000    20.0000 </r>
       <r>   -10.5399     0.0000    20.0000 </r>
       <r>   -10.4998     0.0000    20.0000 </r>
       <r>   -10.4597     0.0000    20.0000 </r>
       <r>   -10.4195     0.0000    20.0000 </r>
       <r>   -10.3794     0.0000    20.0000 </r>
       <r>   -10.3393     0.0000    20.0000 </r>
       <r>   -10.2992     0.0000    20.0000 </r>
       <r>   -10.2590     0.0000    20.0000 </r>
       <r>   -10.2189     0.0000    20.0000 </r>
       <r>   -10.1788     0.0000    20.0000 </r>
       <r>   -10.1387     0.0000    20.0000 </r>
       <r>   -10.0986     0.0000    20.0000 </r>
       <r>   -10.0584     0.0000    20.0000 </r>
       <r>   -10.0183     0.0000    20.0000 </r>
       <r>    -9.9782     0.0000    20.0000 </r>
       <r>    -9.9381     0.0000    20.0000 </r>
       <r>    -9.8979     0.0000    20.0000 </r>
       <r>    -9.8578     0.0000    20.0000 </r>
       <r>    -9.8177     0.0000    20.0000 </r>
       <r>    -9.7776     0.0000    20.0000 </r>
       <r>    -9.7374     0.0000    20.0000 </r>
       <r>    -9.6973     0.0000    20.0000 </r>
       <r>    -9.6572     0.0000    20.0000 </r>
       <r>    -9.6171     0.0000    20.0000 </r>
       <r>    -9.5770     0.0000    20.0000 </r>
       <r>    -9.5368     0.0000    20.0000 </r>
       <r>    -9.4967     0.0000    20.0000 </r>
       <r>    -9.4566     0.0000    20.0000 </r>
       <r>    -9.4165     0.0000    20.0000 </r>
       <r>    -9.3763     0.0000    20.0000 </r>
       <r>    -9.3362     0.0000    20.0000 </r>
       <r>    -9.2961     0.0000    20.0000 </r>
       <r>    -9.2560     0.0000    20.0000 </r>
       <r>    -9.2158     0.0000    20.0000 </r>
       <r>    -9.1757     0.0000    20.0000 </r>
       <r>    -9.1356     0.0000    20.0000 </r>
       <r>    -9.0955     0.0000    20.0000 </r>
       <r>    -9.0554     0.0000    20.0000 </r>
       <r>    -9.0152     0.0000    20.0000 </r>
       <r>    -8.9751     0.0000    20.0000 </r>
       <r>    -8.9350     0.0000    20.0000 </r>
       <r>    -8.8949     0.0000    20.0000 </r>
       <r>    -8.8547     0.0000    20.0000 </r>
       <r>    -8.8146     0.0000    20.0000 </r>
       <r>    -8.7745     0.0000    20.0000 </r>
       <r>    -8.7344     0.0000    20.0000 </r>
       <r>    -8.6942     0.0000    20.0000 </r>
       <r>    -8.6541     0.0000    20.0000 </r>
       <r>    -8.6140     0.0000    20.0000 </r>
       <r>    -8.5739     0.0000    20.0000 </r>
       <r>    -8.5338     0.0000    20.0000 </r>
       <r>    -8.4936     0.0000    20.0000 </r>
       <r>    -8.4535     0.0000    20.0000 </r>
       <r>    -8.4134     0.0000    20.0000 </r>
       <r>    -8.3733     0.0000    20.0000 </r>
       <r>    -8.3331     0.0000    20.0000 </r>
       <r>    -8.2930     0.0000    20.0000 </r>
       <r>    -8.2529     0.0000    20.0000 </r>
       <r>    -8.2128     0.0000    20.0000 </r>
       <r>    -8.1726     0.0000    20.0000 </r>
       <r>    -8.1325     0.0000    20.0000 </r>
       <r>    -8.0924     0.0000    20.0000 </r>
       <r>    -8.0523    24.9233    21.0000 </r>
       <r>    -8.0122     0.0000    21.0000 </r>
       <r>    -7.9720     0.0000    21.0000 </r>
       <r>    -7.9319     0.0000    21.0000 </r>
       <r>    -7.8918     0.0000    21.0000 </r>
       <r>    -7.8517     0.0000    21.0000 </r>
       <r>    -7.8115     0.0000    21.0000 </r>
       <r>    -7.7714     0.0000    21.0000 </r>
       <r>    -7.7313     0.0000    21.0000 </r>
       <r>    -7.6912     0.0000    21.0000 </r>
       <r>    -7.6511     0.0000    21.0000 </r>
       <r>    -7.6109     0.0000    21.0000 </r>
       <r>    -7.5708     0.0000    21.0000 </r>
       <r>    -7.5307     0.0000    21.0000 </r>
       <r>    -7.4906     0.0000    21.0000 </r>
       <r>    -7.4504     0.0000    21.0000 </r>
       <r>    -7.4103     0.0000    21.0000 </r>
       <r>    -7.3702     0.0000    21.0000 </r>
       <r>    -7.3301     0.0000    21.0000 </r>
       <r>    -7.2899     0.0000    21.0000 </r>
       <r>    -7.2498     0.0000    21.0000 </r>
       <r>    -7.2097     0.0000    21.0000 </r>
       <r>    -7.1696     0.0000    21.0000 </r>
       <r>    -7.1295     0.0000    21.0000 </r>
       <r>    -7.0893     0.0000    21.0000 </r>
       <r>    -7.0492     0.0000    21.0000 </r>
       <r>    -7.0091     0.0000    21.0000 </r>
       <r>    -6.9690     0.0000    21.0000 </r>
       <r>    -6.9288     0.0000    21.0000 </r>
       <r>    -6.8887     0.0000    21.0000 </r>
       <r>    -6.8486     0.0000    21.0000 </r>
       <r>    -6.8085     0.0000    21.0000 </r>
       <r>    -6.7683     0.0000    21.0000 </r>
       <r>    -6.7282     0.0000    21.0000 </r>
       <r>    -6.6881     0.0000    21.0000 </r>
       <r>    -6.6480     0.0000    21.0000 </r>
       <r>    -6.6079     0.0000    21.0000 </r>
       <r>    -6.5677     0.0000    21.0000 </r>
       <r>    -6.5276     0.0000    21.0000 </r>
       <r>    -6.4875     0.0000    21.0000 </r>
       <r>    -6.4474     0.0000    21.0000 </r>
       <r>    -6.4072     0.0000    21.0000 </r>
       <r>    -6.3671     0.0000    21.0000 </r>
       <r>    -6.3270     0.0000    21.0000 </r>
       <r>    -6.2869     0.0000    21.0000 </r>
       <r>    -6.2467     0.0000    21.0000 </r>
       <r>    -6.2066     0.0000    21.0000 </r>
       <r>    -6.1665     0.0000    21.0000 </r>
       <r>    -6.1264     0.0000    21.0000 </r>
       <r>    -6.0863     0.0000    21.0000 </r>
       <r>    -6.0461     0.0000    21.0000 </r>
       <r>    -6.0060     0.0000    21.0000 </r>
       <r>    -5.9659     0.0000    21.0000 </r>
       <r>    -5.9258     0.0000    21.0000 </r>
       <r>    -5.8856     0.0000    21.0000 </r>
       <r>    -5.8455     0.0000    21.0000 </r>
       <r>    -5.8054     0.0000    21.0000 </r>
       <r>    -5.7653     0.0000    21.0000 </r>
       <r>    -5.7251     0.0000    21.0000 </r>
       <r>    -5.6850     0.0000    21.0000 </r>
       <r>    -5.6449     0.0000    21.0000 </r>
       <r>    -5.6048     0.0000    21.0000 </r>
       <r>    -5.5647     0.0000    21.0000 </r>
       <r>    -5.5245     0.0000    21.0000 </r>
       <r>    -5.4844     0.0000    21.0000 </r>
       <r>    -5.4443     0.0000    21.0000 </r>
       <r>    -5.4042     0.0000    21.0000 </r>
       <r>    -5.3640     0.0000    21.0000 </r>
       <r>    -5.3239     0.0000    21.0000 </r>
       <r>    -5.2838     0.0000    21.0000 </r>
       <r>    -5.2437     0.0000    21.0000 </r>
       <r>    -5.2035     0.0000    21.0000 </r>
       <r>    -5.1634    26.6679    22.0700 </r>
       <r>    -5.1233    47.7815    24.0000 </r>
       <r>    -5.0832     0.0000    24.0000 </r>
       <r>    -5.0431     0.0000    24.0000 </r>
       <r>    -5.0029     0.0000    24.0000 </r>
       <r>    -4.9628     0.0000    24.0000 </r>
       <r>    -4.9227     0.0000    24.0000 </r>
       <r>    -4.8826     0.0000    24.0000 </r>
       <r>    -4.8424     0.0000    24.0000 </r>
       <r>    -4.8023     0.0000    24.0000 </r>
       <r>    -4.7622     0.0000    24.0000 </r>
       <r>    -4.7221     0.0000    24.0000 </r>
       <r>    -4.6819     0.0000    24.0000 </r>
       <r>    -4.6418     0.0000    24.0000 </r>
       <r>    -4.6017     0.0000    24.0000 </r>
       <r>    -4.5616     0.0000    24.0000 </r>
       <r>    -4.5215     0.0000    24.0000 </r>
       <r>    -4.4813     0.0000    24.0000 </r>
       <r>    -4.4412     0.0000    24.0000 </r>
       <r>    -4.4011     0.0000    24.0000 </r>
       <r>    -4.3610     0.0000    24.0000 </r>
       <r>    -4.3208     0.0000    24.0000 </r>
       <r>    -4.2807     0.0000    24.0000 </r>
       <r>    -4.2406     0.0000    24.0000 </r>
       <r>    -4.2005     0.0000    24.0000 </r>
       <r>    -4.1603     0.0000    24.0000 </r>
       <r>    -4.1202     0.0000    24.0000 </r>
       <r>    -4.0801     0.0000    24.0000 </r>
       <r>    -4.0400     0.0000    24.0000 </r>
       <r>    -3.9999     0.0000    24.0000 </r>
       <r>    -3.9597     0.0000    24.0000 </r>
       <r>    -3.9196     0.0000    24.0000 </r>
       <r>    -3.8795     0.0000    24.0000 </r>
       <r>    -3.8394     0.0000    24.0000 </r>
       <r>    -3.7992     0.0000    24.0000 </r>
       <r>    -3.7591     0.0000    24.0000 </r>
       <r>    -3.7190     0.0000    24.0000 </r>
       <r>    -3.6789     0.0000    24.0000 </r>
       <r>    -3.6387     0.0000    24.0000 </r>
       <r>    -3.5986     0.0000    24.0000 </r>
       <r>    -3.5585     0.0000    24.0000 </r>
       <r>    -3.5184     0.0000    24.0000 </r>
       <r>    -3.4783     0.0000    24.0000 </r>
       <r>    -3.4381     0.0000    24.0000 </r>
       <r>    -3.3980     0.0000    24.0000 </r>
       <r>    -3.3579     0.0000    24.0000 </r>
       <r>    -3.3178     0.0000    24.0000 </r>
       <r>    -3.2776     0.0000    24.0000 </r>
       <r>    -3.2375     0.0000    24.0000 </r>
       <r>    -3.1974     0.0000    24.0000 </r>
       <r>    -3.1573     0.0000    24.0000 </r>
       <r>    -3.1171     0.0000    24.0000 </r>
       <r>    -3.0770     0.0000    24.0000 </r>
       <r>    -3.0369     0.0000    24.0000 </r>
       <r>    -2.9968     0.0000    24.0000 </r>
       <r>    -2.9567     0.0000    24.0000 </r>
       <r>    -2.9165     0.0000    24.0000 </r>
       <r>    -2.8764     0.0000    24.0000 </r>
       <r>    -2.8363     0.0000    24.0000 </r>
       <r>    -2.7962     0.0000    24.0000 </r>
       <r>    -2.7560     0.0000    24.0000 </r>
       <r>    -2.7159     0.0000    24.0000 </r>
       <r>    -2.6758     0.0000    24.0000 </r>
       <r>    -2.6357     0.0000    24.0000 </r>
       <r>    -2.5955     0.0000    24.0000 </r>
       <r>    -2.5554     0.0000    24.0000 </r>
       <r>    -2.5153     0.0000    24.0000 </r>
       <r>    -2.4752     0.0000    24.0000 </r>
       <r>    -2.4351     0.0000    24.0000 </r>
       <r>    -2.3949     0.0000    24.0000 </r>
       <r>    -2.3548     0.0000    24.0000 </r>
       <r>    -2.3147     0.0000    24.0000 </r>
       <r>    -2.2746     0.0000    24.0000 </r>
       <r>    -2.2344     0.0000    24.0000 </r>
       <r>    -2.1943    24.9233    25.0000 </r>
       <r>    -2.1542     0.0000    25.0000 </r>
       <r>    -2.1141     0.0000    25.0000 </r>
       <r>    -2.0739     0.0000    25.0000 </r>
       <r>    -2.0338     0.0000    25.0000 </r>
       <r>    -1.9937     0.0000    25.0000 </r>
       <r>    -1.9536     0.0000    25.0000 </r>
       <r>    -1.9135     0.0000    25.0000 </r>
       <r>    -1.8733     0.0000    25.0000 </r>
       <r>    -1.8332     0.0000    25.0000 </r>
       <r>    -1.7931     0.0000    25.0000 </r>
       <r>    -1.7530    74.6801    27.9964 </r>
       <r>    -1.7128     0.0000    28.0000 </r>
       <r>    -1.6727     0.0000    28.0000 </r>
       <r>    -1.6326     0.0000    28.0000 </r>
       <r>    -1.5925     0.0000    28.0000 </r>
       <r>    -1.5523     0.0000    28.0000 </r>
       <r>    -1.5122     0.0000    28.0000 </r>
       <r>    -1.4721     0.0000    28.0000 </r>
       <r>    -1.4320     0.0000    28.0000 </r>
       <r>    -1.3919     0.0000    28.0000 </r>
       <r>    -1.3517     0.1794    28.0072 </r>
       <r>    -1.3116    49.6672    30.0000 </r>
       <r>    -1.2715     0.0000    30.0000 </r>
       <r>    -1.2314     0.0000    30.0000 </r>
       <r>    -1.1912     0.0000    30.0000 </r>
       <r>    -1.1511     0.0000    30.0000 </r>
       <r>    -1.1110     0.0000    30.0000 </r>
       <r>    -1.0709     0.0000    30.0000 </r>
       <r>    -1.0307     0.0000    30.0000 </r>
       <r>    -0.9906     0.0000    30.0000 </r>
       <r>    -0.9505     0.0000    30.0000 </r>
       <r>    -0.9104     0.0000    30.0000 </r>
       <r>    -0.8703     0.0000    30.0000 </r>
       <r>    -0.8301     0.0000    30.0000 </r>
       <r>    -0.7900     0.0000    30.0000 </r>
      </set>
      <set comment="spin 2">
       <r>   -12.8269     0.0000     0.0000 </r>
       <r>   -12.7868     0.0000     0.0000 </r>
       <r>   -12.7467     0.0000     0.0000 </r>
       <r>   -12.7066     0.0000     0.0000 </r>
       <r>   -12.6664     0.0000     0.0000 </r>
       <r>   -12.6263     0.0000     0.0000 </r>
       <r>   -12.5862     0.0000     0.0000 </r>
       <r>   -12.5461     0.0000     0.0000 </r>
       <r>   -12.5059     0.0000     0.0000 </r>
       <r>   -12.4658     0.0000     0.0000 </r>
       <r>   -12.4257     0.0000     0.0000 </r>
       <r>   -12.3856     0.0000     0.0000 </r>
       <r>   -12.3454     0.0000     0.0000 </r>
       <r>   -12.3053     0.0000     0.0000 </r>
       <r>   -12.2652    24.9229     1.0000 </r>
       <r>   -12.2251     0.0000     1.0000 </r>
       <r>   -12.1850     0.0000     1.0000 </r>
       <r>   -12.1448     0.0000     1.0000 </r>
       <r>   -12.1047     1.3862     1.0556 </r>
       <r>   -12.0646    81.4486     4.3236 </r>
       <r>   -12.0245    41.7819     6.0000 </r>
       <r>   -11.9843     0.0000     6.0000 </r>
       <r>   -11.9442     0.0000     6.0000 </r>
       <r>   -11.9041    24.3843     6.9784 </r>
       <r>   -11.8640    50.3857     9.0000 </r>
       <r>   -11.8238     0.0000     9.0000 </r>
       <r>   -11.7837     0.0000     9.0000 </r>
       <r>   -11.7436   121.5631    13.8775 </r>
       <r>   -11.7035    74.7696    17.0000 </r>
       <r>   -11.6634     0.0000    17.0000 </r>
       <r>   -11.6232     0.0000    17.0000 </r>
       <r>   -11.5831    74.7699    20.0000 </r>
       <r>   -11.5430     0.0000    20.0000 </r>
       <r>   -11.5029     0.0000    20.0000 </r>
       <r>   -11.4627     0.0000    20.0000 </r>
       <r>   -11.4226     0.0000    20.0000 </r>
       <r>   -11.3825     0.0000    20.0000 </r>
       <r>   -11.3424     0.0000    20.0000 </r>
       <r>   -11.3022     0.0000    20.0000 </r>
       <r>   -11.2621     0.0000    20.0000 </r>
       <r>   -11.2220     0.0000    20.0000 </r>
       <r>   -11.1819     0.0000    20.0000 </r>
       <r>   -11.1418     0.0000    20.0000 </r>
       <r>   -11.1016     0.0000    20.0000 </r>
       <r>   -11.0615     0.0000    20.0000 </r>
       <r>   -11.0214     0.0000    20.0000 </r>
       <r>   -10.9813     0.0000    20.0000 </r>
       <r>   -10.9411     0.0000    20.0000 </r>
       <r>   -10.9010     0.0000    20.0000 </r>
       <r>   -10.8609     0.0000    20.0000 </r>
       <r>   -10.8208     0.0000    20.0000 </r>
       <r>   -10.7806     0.0000    20.0000 </r>
       <r>   -10.7405     0.0000    20.0000 </r>
       <r>   -10.7004     0.0000    20.0000 </r>
       <r>   -10.6603     0.0000    20.0000 </r>
       <r>   -10.6202     0.0000    20.0000 </r>
       <r>   -10.5800     0.0000    20.0000 </r>
       <r>   -10.5399     0.0000    20.0000 </r>
       <r>   -10.4998     0.0000    20.0000 </r>
       <r>   -10.4597     0.0000    20.0000 </r>
       <r>   -10.4195     0.0000    20.0000 </r>
       <r>   -10.3794     0.0000    20.0000 </r>
       <r>   -10.3393     0.0000    20.0000 </r>
       <r>   -10.2992     0.0000    20.0000 </r>
       <r>   -10.2590     0.0000    20.0000 </r>
       <r>   -10.2189     0.0000    20.0000 </r>
       <r>   -10.1788     0.0000    20.0000 </r>
       <r>   -10.1387     0.0000    20.0000 </r>
       <r>   -10.0986     0.0000    20.0000 </r>
       <r>   -10.0584     0.0000    20.0000 </r>
       <r>   -10.0183     0.0000    20.0000 </r>
       <r>    -9.9782     0.0000    20.0000 </r>
       <r>    -9.9381     0.0000    20.0000 </r>
       <r>    -9.8979     0.0000    20.0000 </r>
       <r>    -9.8578     0.0000    20.0000 </r>
       <r>    -9.8177     0.0000    20.0000 </r>
       <r>    -9.7776     0.0000    20.0000 </r>
       <r>    -9.7374     0.0000    20.0000 </r>
       <r>    -9.6973     0.0000    20.0000 </r>
       <r>    -9.6572     0.0000    20.0000 </r>
       <r>    -9.6171     0.0000    20.0000 </r>
       <r>    -9.5770     0.0000    20.0000 </r>
       <r>    -9.5368     0.0000    20.0000 </r>
       <r>    -9.4967     0.0000    20.0000 </r>
       <r>    -9.4566     0.0000    20.0000 </r>
       <r>    -9.4165     0.0000    20.0000 </r>
       <r>    -9.3763     0.0000    20.0000 </r>
       <r>    -9.3362     0.0000    20.0000 </r>
       <r>    -9.2961     0.0000    20.0000 </r>
       <r>    -9.2560     0.0000    20.0000 </r>
       <r>    -9.2158     0.0000    20.0000 </r>
       <r>    -9.1757     0.0000    20.0000 </r>
       <r>    -9.1356     0.0000    20.0000 </r>
       <r>    -9.0955     0.0000    20.0000 </r>
       <r>    -9.0554     0.0000    20.0000 </r>
       <r>    -9.0152     0.0000    20.0000 </r>
       <r>    -8.9751     0.0000    20.0000 </r>
       <r>    -8.9350     0.0000    20.0000 </r>
       <r>    -8.8949     0.0000    20.0000 </r>
       <r>    -8.8547     0.0000    20.0000 </r>
       <r>    -8.8146     0.0000    20.0000 </r>
       <r>    -8.7745     0.0000    20.0000 </r>
       <r>    -8.7344     0.0000    20.0000 </r>
       <r>    -8.6942     0.0000    20.0000 </r>
       <r>    -8.6541     0.0000    20.0000 </r>
       <r>    -8.6140     0.0000    20.0000 </r>
       <r>    -8.5739     0.0000    20.0000 </r>
       <r>    -8.5338     0.0000    20.0000 </r>
       <r>    -8.4936     0.0000    20.0000 </r>
       <r>    -8.4535     0.0000    20.0000 </r>
       <r>    -8.4134     0.0000    20.0000 </r>
       <r>    -8.3733     0.0000    20.0000 </r>
       <r>    -8.3331     0.0000    20.0000 </r>
       <r>    -8.2930     0.0000    20.0000 </r>
       <r>    -8.2529     0.0000    20.0000 </r>
       <r>    -8.2128     0.0000    20.0000 </r>
       <r>    -8.1726     0.0000    20.0000 </r>
       <r>    -8.1325     0.0000    20.0000 </r>
       <r>    -8.0924     0.0000    20.0000 </r>
       <r>    -8.0523    24.9233    21.0000 </r>
       <r>    -8.0122     0.0000    21.0000 </r>
       <r>    -7.9720     0.0000    21.0000 </r>
       <r>    -7.9319     0.0000    21.0000 </r>
       <r>    -7.8918     0.0000    21.0000 </r>
       <r>    -7.8517     0.0000    21.0000 </r>
       <r>    -7.8115     0.0000    21.0000 </r>
       <r>    -7.7714     0.0000    21.0000 </r>
       <r>    -7.7313     0.0000    21.0000 </r>
       <r>    -7.6912     0.0000    21.0000 </r>
       <r>    -7.6511     0.0000    21.0000 </r>
       <r>    -7.6109     0.0000    21.0000 </r>
       <r>    -7.5708     0.0000    21.0000 </r>
       <r>    -7.5307     0.0000    21.0000 </r>
       <r>    -7.4906     0.0000    21.0000 </r>
       <r>    -7.4504     0.0000    21.0000 </r>
       <r>    -7.4103     0.0000    21.0000 </r>
       <r>    -7.3702     0.0000    21.0000 </r>
       <r>    -7.3301     0.0000    21.0000 </r>
       <r>    -7.2899     0.0000    21.0000 </r>
       <r>    -7.2498     0.0000    21.0000 </r>
       <r>    -7.2097     0.0000    21.0000 </r>
       <r>    -7.1696     0.0000    21.0000 </r>
       <r>    -7.1295     0.0000    21.0000 </r>
       <r>    -7.0893     0.0000    21.0000 </r>
       <r>    -7.0492     0.0000    21.0000 </r>
       <r>    -7.0091     0.0000    21.0000 </r>
       <r>    -6.9690     0.0000    21.0000 </r>
       <r>    -6.9288     0.0000    21.0000 </r>
       <r>    -6.8887     0.0000    21.0000 </r>
       <r>    -6.8486     0.0000    21.0000 </r>
       <r>    -6.8085     0.0000    21.0000 </r>
       <r>    -6.7683     0.0000    21.0000 </r>
       <r>    -6.7282     0.0000    21.0000 </r>
       <r>    -6.6881     0.0000    21.0000 </r>
       <r>    -6.6480     0.0000    21.0000 </r>
       <r>    -6.6079     0.0000    21.0000 </r>
       <r>    -6.5677     0.0000    21.0000 </r>
       <r>    -6.5276     0.0000    21.0000 </r>
       <r>    -6.4875     0.0000    21.0000 </r>
       <r>    -6.4474     0.0000    21.0000 </r>
       <r>    -6.4072     0.0000    21.0000 </r>
       <r>    -6.3671     0.0000    21.0000 </r>
       <r>    -6.3270     0.0000    21.0000 </r>
       <r>    -6.2869     0.0000    21.0000 </r>
       <r>    -6.2467     0.0000    21.0000 </r>
       <r>    -6.2066     0.0000    21.0000 </r>
       <r>    -6.1665     0.0000    21.0000 </r>
       <r>    -6.1264     0.0000    21.0000 </r>
       <r>    -6.0863     0.0000    21.0000 </r>
       <r>    -6.0461     0.0000    21.0000 </r>
       <r>    -6.0060     0.0000    21.0000 </r>
       <r>    -5.9659     0.0000    21.0000 </r>
       <r>    -5.9258     0.0000    21.0000 </r>
       <r>    -5.8856     0.0000    21.0000 </r>
       <r>    -5.8455     0.0000    21.0000 </r>
       <r>    -5.8054     0.0000    21.0000 </r>
       <r>    -5.7653     0.0000    21.0000 </r>
       <r>    -5.7251     0.0000    21.0000 </r>
       <r>    -5.6850     0.0000    21.0000 </r>
       <r>    -5.6449     0.0000    21.0000 </r>
       <r>    -5.6048     0.0000    21.0000 </r>
       <r>    -5.5647     0.0000    21.0000 </r>
       <r>    -5.5245     0.0000    21.0000 </r>
       <r>    -5.4844     0.0000    21.0000 </r>
       <r>    -5.4443     0.0000    21.0000 </r>
       <r>    -5.4042     0.0000    21.0000 </r>
       <r>    -5.3640     0.0000    21.0000 </r>
       <r>    -5.3239     0.0000    21.0000 </r>
       <r>    -5.2838     0.0000    21.0000 </r>
       <r>    -5.2437     0.0000    21.0000 </r>
       <r>    -5.2035     0.0000    21.0000 </r>
       <r>    -5.1634    26.6679    22.0700 </r>
       <r>    -5.1233    47.7816    24.0000 </r>
       <r>    -5.0832     0.0000    24.0000 </r>
       <r>    -5.0431     0.0000    24.0000 </r>
       <r>    -5.0029     0.0000    24.0000 </r>
       <r>    -4.9628     0.0000    24.0000 </r>
       <r>    -4.9227     0.0000    24.0000 </r>
       <r>    -4.8826     0.0000    24.0000 </r>
       <r>    -4.8424     0.0000    24.0000 </r>
       <r>    -4.8023     0.0000    24.0000 </r>
       <r>    -4.7622     0.0000    24.0000 </r>
       <r>    -4.7221     0.0000    24.0000 </r>
       <r>    -4.6819     0.0000    24.0000 </r>
       <r>    -4.6418     0.0000    24.0000 </r>
       <r>    -4.6017     0.0000    24.0000 </r>
       <r>    -4.5616     0.0000    24.0000 </r>
       <r>    -4.5215     0.0000    24.0000 </r>
       <r>    -4.4813     0.0000    24.0000 </r>
       <r>    -4.4412     0.0000    24.0000 </r>
       <r>    -4.4011     0.0000    24.0000 </r>
       <r>    -4.3610     0.0000    24.0000 </r>
       <r>    -4.3208     0.0000    24.0000 </r>
       <r>    -4.2807     0.0000    24.0000 </r>
       <r>    -4.2406     0.0000    24.0000 </r>
       <r>    -4.2005     0.0000    24.0000 </r>
       <r>    -4.1603     0.0000    24.0000 </r>
       <r>    -4.1202     0.0000    24.0000 </r>
       <r>    -4.0801     0.0000    24.0000 </r>
       <r>    -4.0400     0.0000    24.0000 </r>
       <r>    -3.9999     0.0000    24.0000 </r>
       <r>    -3.9597     0.0000    24.0000 </r>
       <r>    -3.9196     0.0000    24.0000 </r>
       <r>    -3.8795     0.0000    24.0000 </r>
       <r>    -3.8394     0.0000    24.0000 </r>
       <r>    -3.7992     0.0000    24.0000 </r>
       <r>    -3.7591     0.0000    24.0000 </r>
       <r>    -3.7190     0.0000    24.0000 </r>
       <r>    -3.6789     0.0000    24.0000 </r>
       <r>    -3.6387     0.0000    24.0000 </r>
       <r>    -3.5986     0.0000    24.0000 </r>
       <r>    -3.5585     0.0000    24.0000 </r>
       <r>    -3.5184     0.0000    24.0000 </r>
       <r>    -3.4783     0.0000    24.0000 </r>
       <r>    -3.4381     0.0000    24.0000 </r>
       <r>    -3.3980     0.0000    24.0000 </r>
       <r>    -3.3579     0.0000    24.0000 </r>
       <r>    -3.3178     0.0000    24.0000 </r>
       <r>    -3.2776     0.0000    24.0000 </r>
       <r>    -3.2375     0.0000    24.0000 </r>
       <r>    -3.1974     0.0000    24.0000 </r>
       <r>    -3.1573     0.0000    24.0000 </r>
       <r>    -3.1171     0.0000    24.0000 </r>
       <r>    -3.0770     0.0000    24.0000 </r>
       <r>    -3.0369     0.0000    24.0000 </r>
       <r>    -2.9968     0.0000    24.0000 </r>
       <r>    -2.9567     0.0000    24.0000 </r>
       <r>    -2.9165     0.0000    24.0000 </r>
       <r>    -2.8764     0.0000    24.0000 </r>
       <r>    -2.8363     0.0000    24.0000 </r>
       <r>    -2.7962     0.0000    24.0000 </r>
       <r>    -2.7560     0.0000    24.0000 </r>
       <r>    -2.7159     0.0000    24.0000 </r>
       <r>    -2.6758     0.0000    24.0000 </r>
       <r>    -2.6357     0.0000    24.0000 </r>
       <r>    -2.5955     0.0000    24.0000 </r>
       <r>    -2.5554     0.0000    24.0000 </r>
       <r>    -2.5153     0.0000    24.0000 </r>
       <r>    -2.4752     0.0000    24.0000 </r>
       <r>    -2.4351     0.0000    24.0000 </r>
       <r>    -2.3949     0.0000    24.0000 </r>
       <r>    -2.3548     0.0000    24.0000 </r>
       <r>    -2.3147     0.0000    24.0000 </r>
       <r>    -2.2746     0.0000    24.0000 </r>
       <r>    -2.2344     0.0000    24.0000 </r>
       <r>    -2.1943    24.9233    25.0000 </r>
       <r>    -2.1542     0.0000    25.0000 </r>
       <r>    -2.1141     0.0000    25.0000 </r>
       <r>    -2.0739     0.0000    25.0000 </r>
       <r>    -2.0338     0.0000    25.0000 </r>
       <r>    -1.9937     0.0000    25.0000 </r>
       <r>    -1.9536     0.0000    25.0000 </r>
       <r>    -1.9135     0.0000    25.0000 </r>
       <r>    -1.8733     0.0000    25.0000 </r>
       <r>    -1.8332     0.0000    25.0000 </r>
       <r>    -1.7931     0.0000    25.0000 </r>
       <r>    -1.7530    74.6804    27.9964 </r>
       <r>    -1.7128     0.0000    28.0000 </r>
       <r>    -1.6727     0.0000    28.0000 </r>
       <r>    -1.6326     0.0000    28.0000 </r>
       <r>    -1.5925     0.0000    28.0000 </r>
       <r>    -1.5523     0.0000    28.0000 </r>
       <r>    -1.5122     0.0000    28.0000 </r>
       <r>    -1.4721     0.0000    28.0000 </r>
       <r>    -1.4320     0.0000    28.0000 </r>
       <r>    -1.3919     0.0000    28.0000 </r>
       <r>    -1.3517     0.1799    28.0072 </r>
       <r>    -1.3116    49.6668    30.0000 </r>
       <r>    -1.2715     0.0000    30.0000 </r>
       <r>    -1.2314     0.0000    30.0000 </r>
       <r>    -1.1912     0.0000    30.0000 </r>
       <r>    -1.1511     0.0000    30.0000 </r>
       <r>    -1.1110     0.0000    30.0000 </r>
       <r>    -1.0709     0.0000    30.0000 </r>
       <r>    -1.0307     0.0000    30.0000 </r>
       <r>    -0.9906     0.0000    30.0000 </r>
       <r>    -0.9505     0.0000    30.0000 </r>
       <r>    -0.9104     0.0000    30.0000 </r>
       <r>    -0.8703     0.0000    30.0000 </r>
       <r>    -0.8301     0.0000    30.0000 </r>
       <r>    -0.7900     0.0000    30.0000 </r>
      </set>
     </set>
    </array>
   </total>
   <partial>
    <array>
     <dimension dim="1">gridpoints</dimension>
     <dimension dim="2">spin</dimension>
     <dimension dim="3">ion</dimension>
     <field>energy</field>
     <field>  s  </field>
     <field>  p  </field>
     <field>  d  </field>
     <field>  f  </field>
     <set>
      <set comment="ion 1">
       <set comment="spin 1">
        <r>   -12.8269     0.0000     0.0000     0.0000     0.0000 </r>
        <r>   -12.7868     0.0000     0.0000     0.0000     0.0000 </r>
        <r>   -12.7467     0.0000     0.0000     0.0000     0.0000 </r>
        <r>   -12.7066     0.0000     0.0000     0.0000     0.0000 </r>
        <r>   -12.6664     0.0000     0.0000     0.0000     0.0000 </r>
        <r>   -12.6263     0.0000     0.0000     0.0000     0.0000 </r>
        <r>   -12.5862     0.0000     0.0000     0.0000     0.0000 </r>
        <r>   -12.5461     0.0000     0.0000     0.0000     0.0000 </r>
        <r>   -12.5059     0.0000     0.0000     0.0000     0.0000 </r>
        <r>   -12.4658     0.0000     0.0000     0.0000     0.0000 </r>
        <r>   -12.4257     0.0000     0.0000     0.0000     0.0000 </r>
        <r>   -12.3856     0.0000     0.0000     0.0000     0.0000 </r>
        <r>   -12.3454     0.0000     0.0000     0.0000     0.0000 </r>
        <r>   -12.3053     0.0000     0.0000     0.0000     0.0000 </r>
        <r>   -12.2652     0.0452     0.0253     5.7805     0.0012 </r>
        <r>   -12.2251     0.0000     0.0000     0.0000     0.0000 </r>
        <r>   -12.1850     0.0000     0.0000     0.0000     0.0000 </r>
        <r>   -12.1448     0.0000     0.0000     0.0000     0.0000 </r>
        <r>   -12.1047     0.0002     0.0003     0.4093     0.0001 </r>
        <r>   -12.0646     0.0401     0.0239    19.6632     0.0026 </r>
        <r>   -12.0245     0.0001     0.0049     9.4898     0.0012 </r>
        <r>   -11.9843     0.0000     0.0000     0.0000     0.0000 </r>
        <r>   -11.9442     0.0000     0.0000     0.0000     0.0000 </r>
        <r>   -11.9041     0.0030     0.0006     5.9709     0.0003 </r>
        <r>   -11.8640     0.0069     0.0013    11.7308     0.0005 </r>
        <r>   -11.8238     0.0000     0.0000     0.0000     0.0000 </r>
        <r>   -11.7837     0.0000     0.0000     0.0000     0.0000 </r>
        <r>   -11.7436     0.0000     0.0007    29.3451     0.0005 </r>
        <r>   -11.7035     0.0125     0.0063    18.1303     0.0005 </r>
        <r>   -11.6634     0.0000     0.0000     0.0000     0.0000 </r>
        <r>   -11.6232     0.0000     0.0000     0.0000     0.0000 </r>
        <r>   -11.5831     0.0000     0.0095    18.3524     0.0016 </r>
        <r>   -11.5430     0.0000     0.0000     0.0000     0.0000 </r>
        <r>   -11.5029     0.0000     0.0000     0.0000     0.0000 </r>
        <r>   -11.4627     0.0000     0.0000     0.0000     0.0000 </r>
        <r>   -11.4226     0.0000     0.0000     0.0000     0.0000 </r>
        <r>   -11.3825     0.0000     0.0000     0.0000     0.0000 </r>
        <r>   -11.3424     0.0000     0.0000     0.0000     0.0000 </r>
        <r>   -11.3022     0.0000     0.0000     0.0000     0.0000 </r>
        <r>   -11.2621     0.0000     0.0000     0.0000     0.0000 </r>
        <r>   -11.2220     0.0000     0.0000     0.0000     0.0000 </r>
        <r>   -11.1819     0.0000     0.0000     0.0000     0.0000 </r>
        <r>   -11.1418     0.0000     0.0000     0.0000     0.0000 </r>
        <r>   -11.1016     0.0000     0.0000     0.0000     0.0000 </r>
        <r>   -11.0615     0.0000     0.0000     0.0000     0.0000 </r>
        <r>   -11.0214     0.0000     0.0000     0.0000     0.0000 </r>
        <r>   -10.9813     0.0000     0.0000     0.0000     0.0000 </r>
        <r>   -10.9411     0.0000     0.0000     0.0000     0.0000 </r>
        <r>   -10.9010     0.0000     0.0000     0.0000     0.0000 </r>
        <r>   -10.8609     0.0000     0.0000     0.0000     0.0000 </r>
        <r>   -10.8208     0.0000     0.0000     0.0000     0.0000 </r>
        <r>   -10.7806     0.0000     0.0000     0.0000     0.0000 </r>
        <r>   -10.7405     0.0000     0.0000     0.0000     0.0000 </r>
        <r>   -10.7004     0.0000     0.0000     0.0000     0.0000 </r>
        <r>   -10.6603     0.0000     0.0000     0.0000     0.0000 </r>
        <r>   -10.6202     0.0000     0.0000     0.0000     0.0000 </r>
        <r>   -10.5800     0.0000     0.0000     0.0000     0.0000 </r>
        <r>   -10.5399     0.0000     0.0000     0.0000     0.0000 </r>
        <r>   -10.4998     0.0000     0.0000     0.0000     0.0000 </r>
        <r>   -10.4597     0.0000     0.0000     0.0000     0.0000 </r>
        <r>   -10.4195     0.0000     0.0000     0.0000     0.0000 </r>
        <r>   -10.3794     0.0000     0.0000     0.0000     0.0000 </r>
        <r>   -10.3393     0.0000     0.0000     0.0000     0.0000 </r>
        <r>   -10.2992     0.0000     0.0000     0.0000     0.0000 </r>
        <r>   -10.2590     0.0000     0.0000     0.0000     0.0000 </r>
        <r>   -10.2189     0.0000     0.0000     0.0000     0.0000 </r>
        <r>   -10.1788     0.0000     0.0000     0.0000     0.0000 </r>
        <r>   -10.1387     0.0000     0.0000     0.0000     0.0000 </r>
        <r>   -10.0986     0.0000     0.0000     0.0000     0.0000 </r>
        <r>   -10.0584     0.0000     0.0000     0.0000     0.0000 </r>
        <r>   -10.0183     0.0000     0.0000     0.0000     0.0000 </r>
        <r>    -9.9782     0.0000     0.0000     0.0000     0.0000 </r>
        <r>    -9.9381     0.0000     0.0000     0.0000     0.0000 </r>
        <r>    -9.8979     0.0000     0.0000     0.0000     0.0000 </r>
        <r>    -9.8578     0.0000     0.0000     0.0000     0.0000 </r>
        <r>    -9.8177     0.0000     0.0000     0.0000     0.0000 </r>
        <r>    -9.7776     0.0000     0.0000     0.0000     0.0000 </r>
        <r>    -9.7374     0.0000     0.0000     0.0000     0.0000 </r>
        <r>    -9.6973     0.0000     0.0000     0.0000     0.0000 </r>
        <r>    -9.6572     0.0000     0.0000     0.0000     0.0000 </r>
        <r>    -9.6171     0.0000     0.0000     0.0000     0.0000 </r>
        <r>    -9.5770     0.0000     0.0000     0.0000     0.0000 </r>
        <r>    -9.5368     0.0000     0.0000     0.0000     0.0000 </r>
        <r>    -9.4967     0.0000     0.0000     0.0000     0.0000 </r>
        <r>    -9.4566     0.0000     0.0000     0.0000     0.0000 </r>
        <r>    -9.4165     0.0000     0.0000     0.0000     0.0000 </r>
        <r>    -9.3763     0.0000     0.0000     0.0000     0.0000 </r>
        <r>    -9.3362     0.0000     0.0000     0.0000     0.0000 </r>
        <r>    -9.2961     0.0000     0.0000     0.0000     0.0000 </r>
        <r>    -9.2560     0.0000     0.0000     0.0000     0.0000 </r>
        <r>    -9.2158     0.0000     0.0000     0.0000     0.0000 </r>
        <r>    -9.1757     0.0000     0.0000     0.0000     0.0000 </r>
        <r>    -9.1356     0.0000     0.0000     0.0000     0.0000 </r>
        <r>    -9.0955     0.0000     0.0000     0.0000     0.0000 </r>
        <r>    -9.0554     0.0000     0.0000     0.0000     0.0000 </r>
        <r>    -9.0152     0.0000     0.0000     0.0000     0.0000 </r>
        <r>    -8.9751     0.0000     0.0000     0.0000     0.0000 </r>
        <r>    -8.9350     0.0000     0.0000     0.0000     0.0000 </r>
        <r>    -8.8949     0.0000     0.0000     0.0000     0.0000 </r>
        <r>    -8.8547     0.0000     0.0000     0.0000     0.0000 </r>
        <r>    -8.8146     0.0000     0.0000     0.0000     0.0000 </r>
        <r>    -8.7745     0.0000     0.0000     0.0000     0.0000 </r>
        <r>    -8.7344     0.0000     0.0000     0.0000     0.0000 </r>
        <r>    -8.6942     0.0000     0.0000     0.0000     0.0000 </r>
        <r>    -8.6541     0.0000     0.0000     0.0000     0.0000 </r>
        <r>    -8.6140     0.0000     0.0000     0.0000     0.0000 </r>
        <r>    -8.5739     0.0000     0.0000     0.0000     0.0000 </r>
        <r>    -8.5338     0.0000     0.0000     0.0000     0.0000 </r>
        <r>    -8.4936     0.0000     0.0000     0.0000     0.0000 </r>
        <r>    -8.4535     0.0000     0.0000     0.0000     0.0000 </r>
        <r>    -8.4134     0.0000     0.0000     0.0000     0.0000 </r>
        <r>    -8.3733     0.0000     0.0000     0.0000     0.0000 </r>
        <r>    -8.3331     0.0000     0.0000     0.0000     0.0000 </r>
        <r>    -8.2930     0.0000     0.0000     0.0000     0.0000 </r>
        <r>    -8.2529     0.0000     0.0000     0.0000     0.0000 </r>
        <r>    -8.2128     0.0000     0.0000     0.0000     0.0000 </r>
        <r>    -8.1726     0.0000     0.0000     0.0000     0.0000 </r>
        <r>    -8.1325     0.0000     0.0000     0.0000     0.0000 </r>
        <r>    -8.0924     0.0000     0.0000     0.0000     0.0000 </r>
        <r>    -8.0523     2.5906     0.2412     0.1483     0.0004 </r>
        <r>    -8.0122     0.0000     0.0000     0.0000     0.0000 </r>
        <r>    -7.9720     0.0000     0.0000     0.0000     0.0000 </r>
        <r>    -7.9319     0.0000     0.0000     0.0000     0.0000 </r>
        <r>    -7.8918     0.0000     0.0000     0.0000     0.0000 </r>
        <r>    -7.8517     0.0000     0.0000     0.0000     0.0000 </r>
        <r>    -7.8115     0.0000     0.0000     0.0000     0.0000 </r>
        <r>    -7.7714     0.0000     0.0000     0.0000     0.0000 </r>
        <r>    -7.7313     0.0000     0.0000     0.0000     0.0000 </r>
        <r>    -7.6912     0.0000     0.0000     0.0000     0.0000 </r>
        <r>    -7.6511     0.0000     0.0000     0.0000     0.0000 </r>
        <r>    -7.6109     0.0000     0.0000     0.0000     0.0000 </r>
        <r>    -7.5708     0.0000     0.0000     0.0000     0.0000 </r>
        <r>    -7.5307     0.0000     0.0000     0.0000     0.0000 </r>
        <r>    -7.4906     0.0000     0.0000     0.0000     0.0000 </r>
        <r>    -7.4504     0.0000     0.0000     0.0000     0.0000 </r>
        <r>    -7.4103     0.0000     0.0000     0.0000     0.0000 </r>
        <r>    -7.3702     0.0000     0.0000     0.0000     0.0000 </r>
        <r>    -7.3301     0.0000     0.0000     0.0000     0.0000 </r>
        <r>    -7.2899     0.0000     0.0000     0.0000     0.0000 </r>
        <r>    -7.2498     0.0000     0.0000     0.0000     0.0000 </r>
        <r>    -7.2097     0.0000     0.0000     0.0000     0.0000 </r>
        <r>    -7.1696     0.0000     0.0000     0.0000     0.0000 </r>
        <r>    -7.1295     0.0000     0.0000     0.0000     0.0000 </r>
        <r>    -7.0893     0.0000     0.0000     0.0000     0.0000 </r>
        <r>    -7.0492     0.0000     0.0000     0.0000     0.0000 </r>
        <r>    -7.0091     0.0000     0.0000     0.0000     0.0000 </r>
        <r>    -6.9690     0.0000     0.0000     0.0000     0.0000 </r>
        <r>    -6.9288     0.0000     0.0000     0.0000     0.0000 </r>
        <r>    -6.8887     0.0000     0.0000     0.0000     0.0000 </r>
        <r>    -6.8486     0.0000     0.0000     0.0000     0.0000 </r>
        <r>    -6.8085     0.0000     0.0000     0.0000     0.0000 </r>
        <r>    -6.7683     0.0000     0.0000     0.0000     0.0000 </r>
        <r>    -6.7282     0.0000     0.0000     0.0000     0.0000 </r>
        <r>    -6.6881     0.0000     0.0000     0.0000     0.0000 </r>
        <r>    -6.6480     0.0000     0.0000     0.0000     0.0000 </r>
        <r>    -6.6079     0.0000     0.0000     0.0000     0.0000 </r>
        <r>    -6.5677     0.0000     0.0000     0.0000     0.0000 </r>
        <r>    -6.5276     0.0000     0.0000     0.0000     0.0000 </r>
        <r>    -6.4875     0.0000     0.0000     0.0000     0.0000 </r>
        <r>    -6.4474     0.0000     0.0000     0.0000     0.0000 </r>
        <r>    -6.4072     0.0000     0.0000     0.0000     0.0000 </r>
        <r>    -6.3671     0.0000     0.0000     0.0000     0.0000 </r>
        <r>    -6.3270     0.0000     0.0000     0.0000     0.0000 </r>
        <r>    -6.2869     0.0000     0.0000     0.0000     0.0000 </r>
        <r>    -6.2467     0.0000     0.0000     0.0000     0.0000 </r>
        <r>    -6.2066     0.0000     0.0000     0.0000     0.0000 </r>
        <r>    -6.1665     0.0000     0.0000     0.0000     0.0000 </r>
        <r>    -6.1264     0.0000     0.0000     0.0000     0.0000 </r>
        <r>    -6.0863     0.0000     0.0000     0.0000     0.0000 </r>
        <r>    -6.0461     0.0000     0.0000     0.0000     0.0000 </r>
        <r>    -6.0060     0.0000     0.0000     0.0000     0.0000 </r>
        <r>    -5.9659     0.0000     0.0000     0.0000     0.0000 </r>
        <r>    -5.9258     0.0000     0.0000     0.0000     0.0000 </r>
        <r>    -5.8856     0.0000     0.0000     0.0000     0.0000 </r>
        <r>    -5.8455     0.0000     0.0000     0.0000     0.0000 </r>
        <r>    -5.8054     0.0000     0.0000     0.0000     0.0000 </r>
        <r>    -5.7653     0.0000     0.0000     0.0000     0.0000 </r>
        <r>    -5.7251     0.0000     0.0000     0.0000     0.0000 </r>
        <r>    -5.6850     0.0000     0.0000     0.0000     0.0000 </r>
        <r>    -5.6449     0.0000     0.0000     0.0000     0.0000 </r>
        <r>    -5.6048     0.0000     0.0000     0.0000     0.0000 </r>
        <r>    -5.5647     0.0000     0.0000     0.0000     0.0000 </r>
        <r>    -5.5245     0.0000     0.0000     0.0000     0.0000 </r>
        <r>    -5.4844     0.0000     0.0000     0.0000     0.0000 </r>
        <r>    -5.4443     0.0000     0.0000     0.0000     0.0000 </r>
        <r>    -5.4042     0.0000     0.0000     0.0000     0.0000 </r>
        <r>    -5.3640     0.0000     0.0000     0.0000     0.0000 </r>
        <r>    -5.3239     0.0000     0.0000     0.0000     0.0000 </r>
        <r>    -5.2838     0.0000     0.0000     0.0000     0.0000 </r>
        <r>    -5.2437     0.0000     0.0000     0.0000     0.0000 </r>
        <r>    -5.2035     0.0000     0.0000     0.0000     0.0000 </r>
        <r>    -5.1634     0.7876     0.2777     0.1278     0.0046 </r>
        <r>    -5.1233     7.0917     0.3501     0.1426     0.0050 </r>
        <r>    -5.0832     0.0000     0.0000     0.0000     0.0000 </r>
        <r>    -5.0431     0.0000     0.0000     0.0000     0.0000 </r>
        <r>    -5.0029     0.0000     0.0000     0.0000     0.0000 </r>
        <r>    -4.9628     0.0000     0.0000     0.0000     0.0000 </r>
        <r>    -4.9227     0.0000     0.0000     0.0000     0.0000 </r>
        <r>    -4.8826     0.0000     0.0000     0.0000     0.0000 </r>
        <r>    -4.8424     0.0000     0.0000     0.0000     0.0000 </r>
        <r>    -4.8023     0.0000     0.0000     0.0000     0.0000 </r>
        <r>    -4.7622     0.0000     0.0000     0.0000     0.0000 </r>
        <r>    -4.7221     0.0000     0.0000     0.0000     0.0000 </r>
        <r>    -4.6819     0.0000     0.0000     0.0000     0.0000 </r>
        <r>    -4.6418     0.0000     0.0000     0.0000     0.0000 </r>
        <r>    -4.6017     0.0000     0.0000     0.0000     0.0000 </r>
        <r>    -4.5616     0.0000     0.0000     0.0000     0.0000 </r>
        <r>    -4.5215     0.0000     0.0000     0.0000     0.0000 </r>
        <r>    -4.4813     0.0000     0.0000     0.0000     0.0000 </r>
        <r>    -4.4412     0.0000     0.0000     0.0000     0.0000 </r>
        <r>    -4.4011     0.0000     0.0000     0.0000     0.0000 </r>
        <r>    -4.3610     0.0000     0.0000     0.0000     0.0000 </r>
        <r>    -4.3208     0.0000     0.0000     0.0000     0.0000 </r>
        <r>    -4.2807     0.0000     0.0000     0.0000     0.0000 </r>
        <r>    -4.2406     0.0000     0.0000     0.0000     0.0000 </r>
        <r>    -4.2005     0.0000     0.0000     0.0000     0.0000 </r>
        <r>    -4.1603     0.0000     0.0000     0.0000     0.0000 </r>
        <r>    -4.1202     0.0000     0.0000     0.0000     0.0000 </r>
        <r>    -4.0801     0.0000     0.0000     0.0000     0.0000 </r>
        <r>    -4.0400     0.0000     0.0000     0.0000     0.0000 </r>
        <r>    -3.9999     0.0000     0.0000     0.0000     0.0000 </r>
        <r>    -3.9597     0.0000     0.0000     0.0000     0.0000 </r>
        <r>    -3.9196     0.0000     0.0000     0.0000     0.0000 </r>
        <r>    -3.8795     0.0000     0.0000     0.0000     0.0000 </r>
        <r>    -3.8394     0.0000     0.0000     0.0000     0.0000 </r>
        <r>    -3.7992     0.0000     0.0000     0.0000     0.0000 </r>
        <r>    -3.7591     0.0000     0.0000     0.0000     0.0000 </r>
        <r>    -3.7190     0.0000     0.0000     0.0000     0.0000 </r>
        <r>    -3.6789     0.0000     0.0000     0.0000     0.0000 </r>
        <r>    -3.6387     0.0000     0.0000     0.0000     0.0000 </r>
        <r>    -3.5986     0.0000     0.0000     0.0000     0.0000 </r>
        <r>    -3.5585     0.0000     0.0000     0.0000     0.0000 </r>
        <r>    -3.5184     0.0000     0.0000     0.0000     0.0000 </r>
        <r>    -3.4783     0.0000     0.0000     0.0000     0.0000 </r>
        <r>    -3.4381     0.0000     0.0000     0.0000     0.0000 </r>
        <r>    -3.3980     0.0000     0.0000     0.0000     0.0000 </r>
        <r>    -3.3579     0.0000     0.0000     0.0000     0.0000 </r>
        <r>    -3.3178     0.0000     0.0000     0.0000     0.0000 </r>
        <r>    -3.2776     0.0000     0.0000     0.0000     0.0000 </r>
        <r>    -3.2375     0.0000     0.0000     0.0000     0.0000 </r>
        <r>    -3.1974     0.0000     0.0000     0.0000     0.0000 </r>
        <r>    -3.1573     0.0000     0.0000     0.0000     0.0000 </r>
        <r>    -3.1171     0.0000     0.0000     0.0000     0.0000 </r>
        <r>    -3.0770     0.0000     0.0000     0.0000     0.0000 </r>
        <r>    -3.0369     0.0000     0.0000     0.0000     0.0000 </r>
        <r>    -2.9968     0.0000     0.0000     0.0000     0.0000 </r>
        <r>    -2.9567     0.0000     0.0000     0.0000     0.0000 </r>
        <r>    -2.9165     0.0000     0.0000     0.0000     0.0000 </r>
        <r>    -2.8764     0.0000     0.0000     0.0000     0.0000 </r>
        <r>    -2.8363     0.0000     0.0000     0.0000     0.0000 </r>
        <r>    -2.7962     0.0000     0.0000     0.0000     0.0000 </r>
        <r>    -2.7560     0.0000     0.0000     0.0000     0.0000 </r>
        <r>    -2.7159     0.0000     0.0000     0.0000     0.0000 </r>
        <r>    -2.6758     0.0000     0.0000     0.0000     0.0000 </r>
        <r>    -2.6357     0.0000     0.0000     0.0000     0.0000 </r>
        <r>    -2.5955     0.0000     0.0000     0.0000     0.0000 </r>
        <r>    -2.5554     0.0000     0.0000     0.0000     0.0000 </r>
        <r>    -2.5153     0.0000     0.0000     0.0000     0.0000 </r>
        <r>    -2.4752     0.0000     0.0000     0.0000     0.0000 </r>
        <r>    -2.4351     0.0000     0.0000     0.0000     0.0000 </r>
        <r>    -2.3949     0.0000     0.0000     0.0000     0.0000 </r>
        <r>    -2.3548     0.0000     0.0000     0.0000     0.0000 </r>
        <r>    -2.3147     0.0000     0.0000     0.0000     0.0000 </r>
        <r>    -2.2746     0.0000     0.0000     0.0000     0.0000 </r>
        <r>    -2.2344     0.0000     0.0000     0.0000     0.0000 </r>
        <r>    -2.1943     0.0745     1.4995     0.0650     0.0033 </r>
        <r>    -2.1542     0.0000     0.0000     0.0000     0.0000 </r>
        <r>    -2.1141     0.0000     0.0000     0.0000     0.0000 </r>
        <r>    -2.0739     0.0000     0.0000     0.0000     0.0000 </r>
        <r>    -2.0338     0.0000     0.0000     0.0000     0.0000 </r>
        <r>    -1.9937     0.0000     0.0000     0.0000     0.0000 </r>
        <r>    -1.9536     0.0000     0.0000     0.0000     0.0000 </r>
        <r>    -1.9135     0.0000     0.0000     0.0000     0.0000 </r>
        <r>    -1.8733     0.0000     0.0000     0.0000     0.0000 </r>
        <r>    -1.8332     0.0000     0.0000     0.0000     0.0000 </r>
        <r>    -1.7931     0.0000     0.0000     0.0000     0.0000 </r>
        <r>    -1.7530     0.5483     3.9680     0.1024     0.0104 </r>
        <r>    -1.7128     0.0000     0.0000     0.0000     0.0000 </r>
        <r>    -1.6727     0.0000     0.0000     0.0000     0.0000 </r>
        <r>    -1.6326     0.0000     0.0000     0.0000     0.0000 </r>
        <r>    -1.5925     0.0000     0.0000     0.0000     0.0000 </r>
        <r>    -1.5523     0.0000     0.0000     0.0000     0.0000 </r>
        <r>    -1.5122     0.0000     0.0000     0.0000     0.0000 </r>
        <r>    -1.4721     0.0000     0.0000     0.0000     0.0000 </r>
        <r>    -1.4320     0.0000     0.0000     0.0000     0.0000 </r>
        <r>    -1.3919     0.0000     0.0000     0.0000     0.0000 </r>
        <r>    -1.3517     0.0000     0.0092     0.0003     0.0000 </r>
        <r>    -1.3116     0.0000     2.5431     0.0912     0.0092 </r>
        <r>    -1.2715     0.0000     0.0000     0.0000     0.0000 </r>
        <r>    -1.2314     0.0000     0.0000     0.0000     0.0000 </r>
        <r>    -1.1912     0.0000     0.0000     0.0000     0.0000 </r>
        <r>    -1.1511     0.0000     0.0000     0.0000     0.0000 </r>
        <r>    -1.1110     0.0000     0.0000     0.0000     0.0000 </r>
        <r>    -1.0709     0.0000     0.0000     0.0000     0.0000 </r>
        <r>    -1.0307     0.0000     0.0000     0.0000     0.0000 </r>
        <r>    -0.9906     0.0000     0.0000     0.0000     0.0000 </r>
        <r>    -0.9505     0.0000     0.0000     0.0000     0.0000 </r>
        <r>    -0.9104     0.0000     0.0000     0.0000     0.0000 </r>
        <r>    -0.8703     0.0000     0.0000     0.0000     0.0000 </r>
        <r>    -0.8301     0.0000     0.0000     0.0000     0.0000 </r>
        <r>    -0.7900     0.0000     0.0000     0.0000     0.0000 </r>
       </set>
       <set comment="spin 2">
        <r>   -12.8269     0.0000     0.0000     0.0000     0.0000 </r>
        <r>   -12.7868     0.0000     0.0000     0.0000     0.0000 </r>
        <r>   -12.7467     0.0000     0.0000     0.0000     0.0000 </r>
        <r>   -12.7066     0.0000     0.0000     0.0000     0.0000 </r>
        <r>   -12.6664     0.0000     0.0000     0.0000     0.0000 </r>
        <r>   -12.6263     0.0000     0.0000     0.0000     0.0000 </r>
        <r>   -12.5862     0.0000     0.0000     0.0000     0.0000 </r>
        <r>   -12.5461     0.0000     0.0000     0.0000     0.0000 </r>
        <r>   -12.5059     0.0000     0.0000     0.0000     0.0000 </r>
        <r>   -12.4658     0.0000     0.0000     0.0000     0.0000 </r>
        <r>   -12.4257     0.0000     0.0000     0.0000     0.0000 </r>
        <r>   -12.3856     0.0000     0.0000     0.0000     0.0000 </r>
        <r>   -12.3454     0.0000     0.0000     0.0000     0.0000 </r>
        <r>   -12.3053     0.0000     0.0000     0.0000     0.0000 </r>
        <r>   -12.2652     0.0452     0.0253     5.7804     0.0012 </r>
        <r>   -12.2251     0.0000     0.0000     0.0000     0.0000 </r>
        <r>   -12.1850     0.0000     0.0000     0.0000     0.0000 </r>
        <r>   -12.1448     0.0000     0.0000     0.0000     0.0000 </r>
        <r>   -12.1047     0.0002     0.0003     0.4089     0.0001 </r>
        <r>   -12.0646     0.0401     0.0239    19.6626     0.0026 </r>
        <r>   -12.0245     0.0001     0.0049     9.4907     0.0012 </r>
        <r>   -11.9843     0.0000     0.0000     0.0000     0.0000 </r>
        <r>   -11.9442     0.0000     0.0000     0.0000     0.0000 </r>
        <r>   -11.9041     0.0030     0.0006     5.9681     0.0003 </r>
        <r>   -11.8640     0.0069     0.0013    11.7335     0.0005 </r>
        <r>   -11.8238     0.0000     0.0000     0.0000     0.0000 </r>
        <r>   -11.7837     0.0000     0.0000     0.0000     0.0000 </r>
        <r>   -11.7436     0.0000     0.0007    29.3445     0.0005 </r>
        <r>   -11.7035     0.0125     0.0063    18.1303     0.0005 </r>
        <r>   -11.6634     0.0000     0.0000     0.0000     0.0000 </r>
        <r>   -11.6232     0.0000     0.0000     0.0000     0.0000 </r>
        <r>   -11.5831     0.0000     0.0095    18.3524     0.0016 </r>
        <r>   -11.5430     0.0000     0.0000     0.0000     0.0000 </r>
        <r>   -11.5029     0.0000     0.0000     0.0000     0.0000 </r>
        <r>   -11.4627     0.0000     0.0000     0.0000     0.0000 </r>
        <r>   -11.4226     0.0000     0.0000     0.0000     0.0000 </r>
        <r>   -11.3825     0.0000     0.0000     0.0000     0.0000 </r>
        <r>   -11.3424     0.0000     0.0000     0.0000     0.0000 </r>
        <r>   -11.3022     0.0000     0.0000     0.0000     0.0000 </r>
        <r>   -11.2621     0.0000     0.0000     0.0000     0.0000 </r>
        <r>   -11.2220     0.0000     0.0000     0.0000     0.0000 </r>
        <r>   -11.1819     0.0000     0.0000     0.0000     0.0000 </r>
        <r>   -11.1418     0.0000     0.0000     0.0000     0.0000 </r>
        <r>   -11.1016     0.0000     0.0000     0.0000     0.0000 </r>
        <r>   -11.0615     0.0000     0.0000     0.0000     0.0000 </r>
        <r>   -11.0214     0.0000     0.0000     0.0000     0.0000 </r>
        <r>   -10.9813     0.0000     0.0000     0.0000     0.0000 </r>
        <r>   -10.9411     0.0000     0.0000     0.0000     0.0000 </r>
        <r>   -10.9010     0.0000     0.0000     0.0000     0.0000 </r>
        <r>   -10.8609     0.0000     0.0000     0.0000     0.0000 </r>
        <r>   -10.8208     0.0000     0.0000     0.0000     0.0000 </r>
        <r>   -10.7806     0.0000     0.0000     0.0000     0.0000 </r>
        <r>   -10.7405     0.0000     0.0000     0.0000     0.0000 </r>
        <r>   -10.7004     0.0000     0.0000     0.0000     0.0000 </r>
        <r>   -10.6603     0.0000     0.0000     0.0000     0.0000 </r>
        <r>   -10.6202     0.0000     0.0000     0.0000     0.0000 </r>
        <r>   -10.5800     0.0000     0.0000     0.0000     0.0000 </r>
        <r>   -10.5399     0.0000     0.0000     0.0000     0.0000 </r>
        <r>   -10.4998     0.0000     0.0000     0.0000     0.0000 </r>
        <r>   -10.4597     0.0000     0.0000     0.0000     0.0000 </r>
        <r>   -10.4195     0.0000     0.0000     0.0000     0.0000 </r>
        <r>   -10.3794     0.0000     0.0000     0.0000     0.0000 </r>
        <r>   -10.3393     0.0000     0.0000     0.0000     0.0000 </r>
        <r>   -10.2992     0.0000     0.0000     0.0000     0.0000 </r>
        <r>   -10.2590     0.0000     0.0000     0.0000     0.0000 </r>
        <r>   -10.2189     0.0000     0.0000     0.0000     0.0000 </r>
        <r>   -10.1788     0.0000     0.0000     0.0000     0.0000 </r>
        <r>   -10.1387     0.0000     0.0000     0.0000     0.0000 </r>
        <r>   -10.0986     0.0000     0.0000     0.0000     0.0000 </r>
        <r>   -10.0584     0.0000     0.0000     0.0000     0.0000 </r>
        <r>   -10.0183     0.0000     0.0000     0.0000     0.0000 </r>
        <r>    -9.9782     0.0000     0.0000     0.0000     0.0000 </r>
        <r>    -9.9381     0.0000     0.0000     0.0000     0.0000 </r>
        <r>    -9.8979     0.0000     0.0000     0.0000     0.0000 </r>
        <r>    -9.8578     0.0000     0.0000     0.0000     0.0000 </r>
        <r>    -9.8177     0.0000     0.0000     0.0000     0.0000 </r>
        <r>    -9.7776     0.0000     0.0000     0.0000     0.0000 </r>
        <r>    -9.7374     0.0000     0.0000     0.0000     0.0000 </r>
        <r>    -9.6973     0.0000     0.0000     0.0000     0.0000 </r>
        <r>    -9.6572     0.0000     0.0000     0.0000     0.0000 </r>
        <r>    -9.6171     0.0000     0.0000     0.0000     0.0000 </r>
        <r>    -9.5770     0.0000     0.0000     0.0000     0.0000 </r>
        <r>    -9.5368     0.0000     0.0000     0.0000     0.0000 </r>
        <r>    -9.4967     0.0000     0.0000     0.0000     0.0000 </r>
        <r>    -9.4566     0.0000     0.0000     0.0000     0.0000 </r>
        <r>    -9.4165     0.0000     0.0000     0.0000     0.0000 </r>
        <r>    -9.3763     0.0000     0.0000     0.0000     0.0000 </r>
        <r>    -9.3362     0.0000     0.0000     0.0000     0.0000 </r>
        <r>    -9.2961     0.0000     0.0000     0.0000     0.0000 </r>
        <r>    -9.2560     0.0000     0.0000     0.0000     0.0000 </r>
        <r>    -9.2158     0.0000     0.0000     0.0000     0.0000 </r>
        <r>    -9.1757     0.0000     0.0000     0.0000     0.0000 </r>
        <r>    -9.1356     0.0000     0.0000     0.0000     0.0000 </r>
        <r>    -9.0955     0.0000     0.0000     0.0000     0.0000 </r>
        <r>    -9.0554     0.0000     0.0000     0.0000     0.0000 </r>
        <r>    -9.0152     0.0000     0.0000     0.0000     0.0000 </r>
        <r>    -8.9751     0.0000     0.0000     0.0000     0.0000 </r>
        <r>    -8.9350     0.0000     0.0000     0.0000     0.0000 </r>
        <r>    -8.8949     0.0000     0.0000     0.0000     0.0000 </r>
        <r>    -8.8547     0.0000     0.0000     0.0000     0.0000 </r>
        <r>    -8.8146     0.0000     0.0000     0.0000     0.0000 </r>
        <r>    -8.7745     0.0000     0.0000     0.0000     0.0000 </r>
        <r>    -8.7344     0.0000     0.0000     0.0000     0.0000 </r>
        <r>    -8.6942     0.0000     0.0000     0.0000     0.0000 </r>
        <r>    -8.6541     0.0000     0.0000     0.0000     0.0000 </r>
        <r>    -8.6140     0.0000     0.0000     0.0000     0.0000 </r>
        <r>    -8.5739     0.0000     0.0000     0.0000     0.0000 </r>
        <r>    -8.5338     0.0000     0.0000     0.0000     0.0000 </r>
        <r>    -8.4936     0.0000     0.0000     0.0000     0.0000 </r>
        <r>    -8.4535     0.0000     0.0000     0.0000     0.0000 </r>
        <r>    -8.4134     0.0000     0.0000     0.0000     0.0000 </r>
        <r>    -8.3733     0.0000     0.0000     0.0000     0.0000 </r>
        <r>    -8.3331     0.0000     0.0000     0.0000     0.0000 </r>
        <r>    -8.2930     0.0000     0.0000     0.0000     0.0000 </r>
        <r>    -8.2529     0.0000     0.0000     0.0000     0.0000 </r>
        <r>    -8.2128     0.0000     0.0000     0.0000     0.0000 </r>
        <r>    -8.1726     0.0000     0.0000     0.0000     0.0000 </r>
        <r>    -8.1325     0.0000     0.0000     0.0000     0.0000 </r>
        <r>    -8.0924     0.0000     0.0000     0.0000     0.0000 </r>
        <r>    -8.0523     2.5906     0.2412     0.1483     0.0004 </r>
        <r>    -8.0122     0.0000     0.0000     0.0000     0.0000 </r>
        <r>    -7.9720     0.0000     0.0000     0.0000     0.0000 </r>
        <r>    -7.9319     0.0000     0.0000     0.0000     0.0000 </r>
        <r>    -7.8918     0.0000     0.0000     0.0000     0.0000 </r>
        <r>    -7.8517     0.0000     0.0000     0.0000     0.0000 </r>
        <r>    -7.8115     0.0000     0.0000     0.0000     0.0000 </r>
        <r>    -7.7714     0.0000     0.0000     0.0000     0.0000 </r>
        <r>    -7.7313     0.0000     0.0000     0.0000     0.0000 </r>
        <r>    -7.6912     0.0000     0.0000     0.0000     0.0000 </r>
        <r>    -7.6511     0.0000     0.0000     0.0000     0.0000 </r>
        <r>    -7.6109     0.0000     0.0000     0.0000     0.0000 </r>
        <r>    -7.5708     0.0000     0.0000     0.0000     0.0000 </r>
        <r>    -7.5307     0.0000     0.0000     0.0000     0.0000 </r>
        <r>    -7.4906     0.0000     0.0000     0.0000     0.0000 </r>
        <r>    -7.4504     0.0000     0.0000     0.0000     0.0000 </r>
        <r>    -7.4103     0.0000     0.0000     0.0000     0.0000 </r>
        <r>    -7.3702     0.0000     0.0000     0.0000     0.0000 </r>
        <r>    -7.3301     0.0000     0.0000     0.0000     0.0000 </r>
        <r>    -7.2899     0.0000     0.0000     0.0000     0.0000 </r>
        <r>    -7.2498     0.0000     0.0000     0.0000     0.0000 </r>
        <r>    -7.2097     0.0000     0.0000     0.0000     0.0000 </r>
        <r>    -7.1696     0.0000     0.0000     0.0000     0.0000 </r>
        <r>    -7.1295     0.0000     0.0000     0.0000     0.0000 </r>
        <r>    -7.0893     0.0000     0.0000     0.0000     0.0000 </r>
        <r>    -7.0492     0.0000     0.0000     0.0000     0.0000 </r>
        <r>    -7.0091     0.0000     0.0000     0.0000     0.0000 </r>
        <r>    -6.9690     0.0000     0.0000     0.0000     0.0000 </r>
        <r>    -6.9288     0.0000     0.0000     0.0000     0.0000 </r>
        <r>    -6.8887     0.0000     0.0000     0.0000     0.0000 </r>
        <r>    -6.8486     0.0000     0.0000     0.0000     0.0000 </r>
        <r>    -6.8085     0.0000     0.0000     0.0000     0.0000 </r>
        <r>    -6.7683     0.0000     0.0000     0.0000     0.0000 </r>
        <r>    -6.7282     0.0000     0.0000     0.0000     0.0000 </r>
        <r>    -6.6881     0.0000     0.0000     0.0000     0.0000 </r>
        <r>    -6.6480     0.0000     0.0000     0.0000     0.0000 </r>
        <r>    -6.6079     0.0000     0.0000     0.0000     0.0000 </r>
        <r>    -6.5677     0.0000     0.0000     0.0000     0.0000 </r>
        <r>    -6.5276     0.0000     0.0000     0.0000     0.0000 </r>
        <r>    -6.4875     0.0000     0.0000     0.0000     0.0000 </r>
        <r>    -6.4474     0.0000     0.0000     0.0000     0.0000 </r>
        <r>    -6.4072     0.0000     0.0000     0.0000     0.0000 </r>
        <r>    -6.3671     0.0000     0.0000     0.0000     0.0000 </r>
        <r>    -6.3270     0.0000     0.0000     0.0000     0.0000 </r>
        <r>    -6.2869     0.0000     0.0000     0.0000     0.0000 </r>
        <r>    -6.2467     0.0000     0.0000     0.0000     0.0000 </r>
        <r>    -6.2066     0.0000     0.0000     0.0000     0.0000 </r>
        <r>    -6.1665     0.0000     0.0000     0.0000     0.0000 </r>
        <r>    -6.1264     0.0000     0.0000     0.0000     0.0000 </r>
        <r>    -6.0863     0.0000     0.0000     0.0000     0.0000 </r>
        <r>    -6.0461     0.0000     0.0000     0.0000     0.0000 </r>
        <r>    -6.0060     0.0000     0.0000     0.0000     0.0000 </r>
        <r>    -5.9659     0.0000     0.0000     0.0000     0.0000 </r>
        <r>    -5.9258     0.0000     0.0000     0.0000     0.0000 </r>
        <r>    -5.8856     0.0000     0.0000     0.0000     0.0000 </r>
        <r>    -5.8455     0.0000     0.0000     0.0000     0.0000 </r>
        <r>    -5.8054     0.0000     0.0000     0.0000     0.0000 </r>
        <r>    -5.7653     0.0000     0.0000     0.0000     0.0000 </r>
        <r>    -5.7251     0.0000     0.0000     0.0000     0.0000 </r>
        <r>    -5.6850     0.0000     0.0000     0.0000     0.0000 </r>
        <r>    -5.6449     0.0000     0.0000     0.0000     0.0000 </r>
        <r>    -5.6048     0.0000     0.0000     0.0000     0.0000 </r>
        <r>    -5.5647     0.0000     0.0000     0.0000     0.0000 </r>
        <r>    -5.5245     0.0000     0.0000     0.0000     0.0000 </r>
        <r>    -5.4844     0.0000     0.0000     0.0000     0.0000 </r>
        <r>    -5.4443     0.0000     0.0000     0.0000     0.0000 </r>
        <r>    -5.4042     0.0000     0.0000     0.0000     0.0000 </r>
        <r>    -5.3640     0.0000     0.0000     0.0000     0.0000 </r>
        <r>    -5.3239     0.0000     0.0000     0.0000     0.0000 </r>
        <r>    -5.2838     0.0000     0.0000     0.0000     0.0000 </r>
        <r>    -5.2437     0.0000     0.0000     0.0000     0.0000 </r>
        <r>    -5.2035     0.0000     0.0000     0.0000     0.0000 </r>
        <r>    -5.1634     0.7876     0.2777     0.1278     0.0046 </r>
        <r>    -5.1233     7.0917     0.3501     0.1426     0.0050 </r>
        <r>    -5.0832     0.0000     0.0000     0.0000     0.0000 </r>
        <r>    -5.0431     0.0000     0.0000     0.0000     0.0000 </r>
        <r>    -5.0029     0.0000     0.0000     0.0000     0.0000 </r>
        <r>    -4.9628     0.0000     0.0000     0.0000     0.0000 </r>
        <r>    -4.9227     0.0000     0.0000     0.0000     0.0000 </r>
        <r>    -4.8826     0.0000     0.0000     0.0000     0.0000 </r>
        <r>    -4.8424     0.0000     0.0000     0.0000     0.0000 </r>
        <r>    -4.8023     0.0000     0.0000     0.0000     0.0000 </r>
        <r>    -4.7622     0.0000     0.0000     0.0000     0.0000 </r>
        <r>    -4.7221     0.0000     0.0000     0.0000     0.0000 </r>
        <r>    -4.6819     0.0000     0.0000     0.0000     0.0000 </r>
        <r>    -4.6418     0.0000     0.0000     0.0000     0.0000 </r>
        <r>    -4.6017     0.0000     0.0000     0.0000     0.0000 </r>
        <r>    -4.5616     0.0000     0.0000     0.0000     0.0000 </r>
        <r>    -4.5215     0.0000     0.0000     0.0000     0.0000 </r>
        <r>    -4.4813     0.0000     0.0000     0.0000     0.0000 </r>
        <r>    -4.4412     0.0000     0.0000     0.0000     0.0000 </r>
        <r>    -4.4011     0.0000     0.0000     0.0000     0.0000 </r>
        <r>    -4.3610     0.0000     0.0000     0.0000     0.0000 </r>
        <r>    -4.3208     0.0000     0.0000     0.0000     0.0000 </r>
        <r>    -4.2807     0.0000     0.0000     0.0000     0.0000 </r>
        <r>    -4.2406     0.0000     0.0000     0.0000     0.0000 </r>
        <r>    -4.2005     0.0000     0.0000     0.0000     0.0000 </r>
        <r>    -4.1603     0.0000     0.0000     0.0000     0.0000 </r>
        <r>    -4.1202     0.0000     0.0000     0.0000     0.0000 </r>
        <r>    -4.0801     0.0000     0.0000     0.0000     0.0000 </r>
        <r>    -4.0400     0.0000     0.0000     0.0000     0.0000 </r>
        <r>    -3.9999     0.0000     0.0000     0.0000     0.0000 </r>
        <r>    -3.9597     0.0000     0.0000     0.0000     0.0000 </r>
        <r>    -3.9196     0.0000     0.0000     0.0000     0.0000 </r>
        <r>    -3.8795     0.0000     0.0000     0.0000     0.0000 </r>
        <r>    -3.8394     0.0000     0.0000     0.0000     0.0000 </r>
        <r>    -3.7992     0.0000     0.0000     0.0000     0.0000 </r>
        <r>    -3.7591     0.0000     0.0000     0.0000     0.0000 </r>
        <r>    -3.7190     0.0000     0.0000     0.0000     0.0000 </r>
        <r>    -3.6789     0.0000     0.0000     0.0000     0.0000 </r>
        <r>    -3.6387     0.0000     0.0000     0.0000     0.0000 </r>
        <r>    -3.5986     0.0000     0.0000     0.0000     0.0000 </r>
        <r>    -3.5585     0.0000     0.0000     0.0000     0.0000 </r>
        <r>    -3.5184     0.0000     0.0000     0.0000     0.0000 </r>
        <r>    -3.4783     0.0000     0.0000     0.0000     0.0000 </r>
        <r>    -3.4381     0.0000     0.0000     0.0000     0.0000 </r>
        <r>    -3.3980     0.0000     0.0000     0.0000     0.0000 </r>
        <r>    -3.3579     0.0000     0.0000     0.0000     0.0000 </r>
        <r>    -3.3178     0.0000     0.0000     0.0000     0.0000 </r>
        <r>    -3.2776     0.0000     0.0000     0.0000     0.0000 </r>
        <r>    -3.2375     0.0000     0.0000     0.0000     0.0000 </r>
        <r>    -3.1974     0.0000     0.0000     0.0000     0.0000 </r>
        <r>    -3.1573     0.0000     0.0000     0.0000     0.0000 </r>
        <r>    -3.1171     0.0000     0.0000     0.0000     0.0000 </r>
        <r>    -3.0770     0.0000     0.0000     0.0000     0.0000 </r>
        <r>    -3.0369     0.0000     0.0000     0.0000     0.0000 </r>
        <r>    -2.9968     0.0000     0.0000     0.0000     0.0000 </r>
        <r>    -2.9567     0.0000     0.0000     0.0000     0.0000 </r>
        <r>    -2.9165     0.0000     0.0000     0.0000     0.0000 </r>
        <r>    -2.8764     0.0000     0.0000     0.0000     0.0000 </r>
        <r>    -2.8363     0.0000     0.0000     0.0000     0.0000 </r>
        <r>    -2.7962     0.0000     0.0000     0.0000     0.0000 </r>
        <r>    -2.7560     0.0000     0.0000     0.0000     0.0000 </r>
        <r>    -2.7159     0.0000     0.0000     0.0000     0.0000 </r>
        <r>    -2.6758     0.0000     0.0000     0.0000     0.0000 </r>
        <r>    -2.6357     0.0000     0.0000     0.0000     0.0000 </r>
        <r>    -2.5955     0.0000     0.0000     0.0000     0.0000 </r>
        <r>    -2.5554     0.0000     0.0000     0.0000     0.0000 </r>
        <r>    -2.5153     0.0000     0.0000     0.0000     0.0000 </r>
        <r>    -2.4752     0.0000     0.0000     0.0000     0.0000 </r>
        <r>    -2.4351     0.0000     0.0000     0.0000     0.0000 </r>
        <r>    -2.3949     0.0000     0.0000     0.0000     0.0000 </r>
        <r>    -2.3548     0.0000     0.0000     0.0000     0.0000 </r>
        <r>    -2.3147     0.0000     0.0000     0.0000     0.0000 </r>
        <r>    -2.2746     0.0000     0.0000     0.0000     0.0000 </r>
        <r>    -2.2344     0.0000     0.0000     0.0000     0.0000 </r>
        <r>    -2.1943     0.0745     1.4995     0.0650     0.0033 </r>
        <r>    -2.1542     0.0000     0.0000     0.0000     0.0000 </r>
        <r>    -2.1141     0.0000     0.0000     0.0000     0.0000 </r>
        <r>    -2.0739     0.0000     0.0000     0.0000     0.0000 </r>
        <r>    -2.0338     0.0000     0.0000     0.0000     0.0000 </r>
        <r>    -1.9937     0.0000     0.0000     0.0000     0.0000 </r>
        <r>    -1.9536     0.0000     0.0000     0.0000     0.0000 </r>
        <r>    -1.9135     0.0000     0.0000     0.0000     0.0000 </r>
        <r>    -1.8733     0.0000     0.0000     0.0000     0.0000 </r>
        <r>    -1.8332     0.0000     0.0000     0.0000     0.0000 </r>
        <r>    -1.7931     0.0000     0.0000     0.0000     0.0000 </r>
        <r>    -1.7530     0.5483     3.9680     0.1024     0.0104 </r>
        <r>    -1.7128     0.0000     0.0000     0.0000     0.0000 </r>
        <r>    -1.6727     0.0000     0.0000     0.0000     0.0000 </r>
        <r>    -1.6326     0.0000     0.0000     0.0000     0.0000 </r>
        <r>    -1.5925     0.0000     0.0000     0.0000     0.0000 </r>
        <r>    -1.5523     0.0000     0.0000     0.0000     0.0000 </r>
        <r>    -1.5122     0.0000     0.0000     0.0000     0.0000 </r>
        <r>    -1.4721     0.0000     0.0000     0.0000     0.0000 </r>
        <r>    -1.4320     0.0000     0.0000     0.0000     0.0000 </r>
        <r>    -1.3919     0.0000     0.0000     0.0000     0.0000 </r>
        <r>    -1.3517     0.0000     0.0092     0.0003     0.0000 </r>
        <r>    -1.3116     0.0000     2.5431     0.0912     0.0092 </r>
        <r>    -1.2715     0.0000     0.0000     0.0000     0.0000 </r>
        <r>    -1.2314     0.0000     0.0000     0.0000     0.0000 </r>
        <r>    -1.1912     0.0000     0.0000     0.0000     0.0000 </r>
        <r>    -1.1511     0.0000     0.0000     0.0000     0.0000 </r>
        <r>    -1.1110     0.0000     0.0000     0.0000     0.0000 </r>
        <r>    -1.0709     0.0000     0.0000     0.0000     0.0000 </r>
        <r>    -1.0307     0.0000     0.0000     0.0000     0.0000 </r>
        <r>    -0.9906     0.0000     0.0000     0.0000     0.0000 </r>
        <r>    -0.9505     0.0000     0.0000     0.0000     0.0000 </r>
        <r>    -0.9104     0.0000     0.0000     0.0000     0.0000 </r>
        <r>    -0.8703     0.0000     0.0000     0.0000     0.0000 </r>
        <r>    -0.8301     0.0000     0.0000     0.0000     0.0000 </r>
        <r>    -0.7900     0.0000     0.0000     0.0000     0.0000 </r>
       </set>
      </set>
      <set comment="ion 2">
       <set comment="spin 1">
        <r>   -12.8269     0.0000     0.0000     0.0000     0.0000 </r>
        <r>   -12.7868     0.0000     0.0000     0.0000     0.0000 </r>
        <r>   -12.7467     0.0000     0.0000     0.0000     0.0000 </r>
        <r>   -12.7066     0.0000     0.0000     0.0000     0.0000 </r>
        <r>   -12.6664     0.0000     0.0000     0.0000     0.0000 </r>
        <r>   -12.6263     0.0000     0.0000     0.0000     0.0000 </r>
        <r>   -12.5862     0.0000     0.0000     0.0000     0.0000 </r>
        <r>   -12.5461     0.0000     0.0000     0.0000     0.0000 </r>
        <r>   -12.5059     0.0000     0.0000     0.0000     0.0000 </r>
        <r>   -12.4658     0.0000     0.0000     0.0000     0.0000 </r>
        <r>   -12.4257     0.0000     0.0000     0.0000     0.0000 </r>
        <r>   -12.3856     0.0000     0.0000     0.0000     0.0000 </r>
        <r>   -12.3454     0.0000     0.0000     0.0000     0.0000 </r>
        <r>   -12.3053     0.0000     0.0000     0.0000     0.0000 </r>
        <r>   -12.2652     0.0431     0.0243     5.6224     0.0012 </r>
        <r>   -12.2251     0.0000     0.0000     0.0000     0.0000 </r>
        <r>   -12.1850     0.0000     0.0000     0.0000     0.0000 </r>
        <r>   -12.1448     0.0000     0.0000     0.0000     0.0000 </r>
        <r>   -12.1047     0.0019     0.0006     0.1379     0.0000 </r>
        <r>   -12.0646     0.0383     0.0221    18.2019     0.0024 </r>
        <r>   -12.0245     0.0000     0.0059    11.0914     0.0013 </r>
        <r>   -11.9843     0.0000     0.0000     0.0000     0.0000 </r>
        <r>   -11.9442     0.0000     0.0000     0.0000     0.0000 </r>
        <r>   -11.9041     0.0041     0.0008     5.0017     0.0002 </r>
        <r>   -11.8640     0.0056     0.0010    13.0047     0.0005 </r>
        <r>   -11.8238     0.0000     0.0000     0.0000     0.0000 </r>
        <r>   -11.7837     0.0000     0.0000     0.0000     0.0000 </r>
        <r>   -11.7436     0.0000     0.0006    29.8117     0.0005 </r>
        <r>   -11.7035     0.0121     0.0061    18.1126     0.0005 </r>
        <r>   -11.6634     0.0000     0.0000     0.0000     0.0000 </r>
        <r>   -11.6232     0.0000     0.0000     0.0000     0.0000 </r>
        <r>   -11.5831     0.0000     0.0093    18.1028     0.0016 </r>
        <r>   -11.5430     0.0000     0.0000     0.0000     0.0000 </r>
        <r>   -11.5029     0.0000     0.0000     0.0000     0.0000 </r>
        <r>   -11.4627     0.0000     0.0000     0.0000     0.0000 </r>
        <r>   -11.4226     0.0000     0.0000     0.0000     0.0000 </r>
        <r>   -11.3825     0.0000     0.0000     0.0000     0.0000 </r>
        <r>   -11.3424     0.0000     0.0000     0.0000     0.0000 </r>
        <r>   -11.3022     0.0000     0.0000     0.0000     0.0000 </r>
        <r>   -11.2621     0.0000     0.0000     0.0000     0.0000 </r>
        <r>   -11.2220     0.0000     0.0000     0.0000     0.0000 </r>
        <r>   -11.1819     0.0000     0.0000     0.0000     0.0000 </r>
        <r>   -11.1418     0.0000     0.0000     0.0000     0.0000 </r>
        <r>   -11.1016     0.0000     0.0000     0.0000     0.0000 </r>
        <r>   -11.0615     0.0000     0.0000     0.0000     0.0000 </r>
        <r>   -11.0214     0.0000     0.0000     0.0000     0.0000 </r>
        <r>   -10.9813     0.0000     0.0000     0.0000     0.0000 </r>
        <r>   -10.9411     0.0000     0.0000     0.0000     0.0000 </r>
        <r>   -10.9010     0.0000     0.0000     0.0000     0.0000 </r>
        <r>   -10.8609     0.0000     0.0000     0.0000     0.0000 </r>
        <r>   -10.8208     0.0000     0.0000     0.0000     0.0000 </r>
        <r>   -10.7806     0.0000     0.0000     0.0000     0.0000 </r>
        <r>   -10.7405     0.0000     0.0000     0.0000     0.0000 </r>
        <r>   -10.7004     0.0000     0.0000     0.0000     0.0000 </r>
        <r>   -10.6603     0.0000     0.0000     0.0000     0.0000 </r>
        <r>   -10.6202     0.0000     0.0000     0.0000     0.0000 </r>
        <r>   -10.5800     0.0000     0.0000     0.0000     0.0000 </r>
        <r>   -10.5399     0.0000     0.0000     0.0000     0.0000 </r>
        <r>   -10.4998     0.0000     0.0000     0.0000     0.0000 </r>
        <r>   -10.4597     0.0000     0.0000     0.0000     0.0000 </r>
        <r>   -10.4195     0.0000     0.0000     0.0000     0.0000 </r>
        <r>   -10.3794     0.0000     0.0000     0.0000     0.0000 </r>
        <r>   -10.3393     0.0000     0.0000     0.0000     0.0000 </r>
        <r>   -10.2992     0.0000     0.0000     0.0000     0.0000 </r>
        <r>   -10.2590     0.0000     0.0000     0.0000     0.0000 </r>
        <r>   -10.2189     0.0000     0.0000     0.0000     0.0000 </r>
        <r>   -10.1788     0.0000     0.0000     0.0000     0.0000 </r>
        <r>   -10.1387     0.0000     0.0000     0.0000     0.0000 </r>
        <r>   -10.0986     0.0000     0.0000     0.0000     0.0000 </r>
        <r>   -10.0584     0.0000     0.0000     0.0000     0.0000 </r>
        <r>   -10.0183     0.0000     0.0000     0.0000     0.0000 </r>
        <r>    -9.9782     0.0000     0.0000     0.0000     0.0000 </r>
        <r>    -9.9381     0.0000     0.0000     0.0000     0.0000 </r>
        <r>    -9.8979     0.0000     0.0000     0.0000     0.0000 </r>
        <r>    -9.8578     0.0000     0.0000     0.0000     0.0000 </r>
        <r>    -9.8177     0.0000     0.0000     0.0000     0.0000 </r>
        <r>    -9.7776     0.0000     0.0000     0.0000     0.0000 </r>
        <r>    -9.7374     0.0000     0.0000     0.0000     0.0000 </r>
        <r>    -9.6973     0.0000     0.0000     0.0000     0.0000 </r>
        <r>    -9.6572     0.0000     0.0000     0.0000     0.0000 </r>
        <r>    -9.6171     0.0000     0.0000     0.0000     0.0000 </r>
        <r>    -9.5770     0.0000     0.0000     0.0000     0.0000 </r>
        <r>    -9.5368     0.0000     0.0000     0.0000     0.0000 </r>
        <r>    -9.4967     0.0000     0.0000     0.0000     0.0000 </r>
        <r>    -9.4566     0.0000     0.0000     0.0000     0.0000 </r>
        <r>    -9.4165     0.0000     0.0000     0.0000     0.0000 </r>
        <r>    -9.3763     0.0000     0.0000     0.0000     0.0000 </r>
        <r>    -9.3362     0.0000     0.0000     0.0000     0.0000 </r>
        <r>    -9.2961     0.0000     0.0000     0.0000     0.0000 </r>
        <r>    -9.2560     0.0000     0.0000     0.0000     0.0000 </r>
        <r>    -9.2158     0.0000     0.0000     0.0000     0.0000 </r>
        <r>    -9.1757     0.0000     0.0000     0.0000     0.0000 </r>
        <r>    -9.1356     0.0000     0.0000     0.0000     0.0000 </r>
        <r>    -9.0955     0.0000     0.0000     0.0000     0.0000 </r>
        <r>    -9.0554     0.0000     0.0000     0.0000     0.0000 </r>
        <r>    -9.0152     0.0000     0.0000     0.0000     0.0000 </r>
        <r>    -8.9751     0.0000     0.0000     0.0000     0.0000 </r>
        <r>    -8.9350     0.0000     0.0000     0.0000     0.0000 </r>
        <r>    -8.8949     0.0000     0.0000     0.0000     0.0000 </r>
        <r>    -8.8547     0.0000     0.0000     0.0000     0.0000 </r>
        <r>    -8.8146     0.0000     0.0000     0.0000     0.0000 </r>
        <r>    -8.7745     0.0000     0.0000     0.0000     0.0000 </r>
        <r>    -8.7344     0.0000     0.0000     0.0000     0.0000 </r>
        <r>    -8.6942     0.0000     0.0000     0.0000     0.0000 </r>
        <r>    -8.6541     0.0000     0.0000     0.0000     0.0000 </r>
        <r>    -8.6140     0.0000     0.0000     0.0000     0.0000 </r>
        <r>    -8.5739     0.0000     0.0000     0.0000     0.0000 </r>
        <r>    -8.5338     0.0000     0.0000     0.0000     0.0000 </r>
        <r>    -8.4936     0.0000     0.0000     0.0000     0.0000 </r>
        <r>    -8.4535     0.0000     0.0000     0.0000     0.0000 </r>
        <r>    -8.4134     0.0000     0.0000     0.0000     0.0000 </r>
        <r>    -8.3733     0.0000     0.0000     0.0000     0.0000 </r>
        <r>    -8.3331     0.0000     0.0000     0.0000     0.0000 </r>
        <r>    -8.2930     0.0000     0.0000     0.0000     0.0000 </r>
        <r>    -8.2529     0.0000     0.0000     0.0000     0.0000 </r>
        <r>    -8.2128     0.0000     0.0000     0.0000     0.0000 </r>
        <r>    -8.1726     0.0000     0.0000     0.0000     0.0000 </r>
        <r>    -8.1325     0.0000     0.0000     0.0000     0.0000 </r>
        <r>    -8.0924     0.0000     0.0000     0.0000     0.0000 </r>
        <r>    -8.0523     2.5548     0.2386     0.1484     0.0004 </r>
        <r>    -8.0122     0.0000     0.0000     0.0000     0.0000 </r>
        <r>    -7.9720     0.0000     0.0000     0.0000     0.0000 </r>
        <r>    -7.9319     0.0000     0.0000     0.0000     0.0000 </r>
        <r>    -7.8918     0.0000     0.0000     0.0000     0.0000 </r>
        <r>    -7.8517     0.0000     0.0000     0.0000     0.0000 </r>
        <r>    -7.8115     0.0000     0.0000     0.0000     0.0000 </r>
        <r>    -7.7714     0.0000     0.0000     0.0000     0.0000 </r>
        <r>    -7.7313     0.0000     0.0000     0.0000     0.0000 </r>
        <r>    -7.6912     0.0000     0.0000     0.0000     0.0000 </r>
        <r>    -7.6511     0.0000     0.0000     0.0000     0.0000 </r>
        <r>    -7.6109     0.0000     0.0000     0.0000     0.0000 </r>
        <r>    -7.5708     0.0000     0.0000     0.0000     0.0000 </r>
        <r>    -7.5307     0.0000     0.0000     0.0000     0.0000 </r>
        <r>    -7.4906     0.0000     0.0000     0.0000     0.0000 </r>
        <r>    -7.4504     0.0000     0.0000     0.0000     0.0000 </r>
        <r>    -7.4103     0.0000     0.0000     0.0000     0.0000 </r>
        <r>    -7.3702     0.0000     0.0000     0.0000     0.0000 </r>
        <r>    -7.3301     0.0000     0.0000     0.0000     0.0000 </r>
        <r>    -7.2899     0.0000     0.0000     0.0000     0.0000 </r>
        <r>    -7.2498     0.0000     0.0000     0.0000     0.0000 </r>
        <r>    -7.2097     0.0000     0.0000     0.0000     0.0000 </r>
        <r>    -7.1696     0.0000     0.0000     0.0000     0.0000 </r>
        <r>    -7.1295     0.0000     0.0000     0.0000     0.0000 </r>
        <r>    -7.0893     0.0000     0.0000     0.0000     0.0000 </r>
        <r>    -7.0492     0.0000     0.0000     0.0000     0.0000 </r>
        <r>    -7.0091     0.0000     0.0000     0.0000     0.0000 </r>
        <r>    -6.9690     0.0000     0.0000     0.0000     0.0000 </r>
        <r>    -6.9288     0.0000     0.0000     0.0000     0.0000 </r>
        <r>    -6.8887     0.0000     0.0000     0.0000     0.0000 </r>
        <r>    -6.8486     0.0000     0.0000     0.0000     0.0000 </r>
        <r>    -6.8085     0.0000     0.0000     0.0000     0.0000 </r>
        <r>    -6.7683     0.0000     0.0000     0.0000     0.0000 </r>
        <r>    -6.7282     0.0000     0.0000     0.0000     0.0000 </r>
        <r>    -6.6881     0.0000     0.0000     0.0000     0.0000 </r>
        <r>    -6.6480     0.0000     0.0000     0.0000     0.0000 </r>
        <r>    -6.6079     0.0000     0.0000     0.0000     0.0000 </r>
        <r>    -6.5677     0.0000     0.0000     0.0000     0.0000 </r>
        <r>    -6.5276     0.0000     0.0000     0.0000     0.0000 </r>
        <r>    -6.4875     0.0000     0.0000     0.0000     0.0000 </r>
        <r>    -6.4474     0.0000     0.0000     0.0000     0.0000 </r>
        <r>    -6.4072     0.0000     0.0000     0.0000     0.0000 </r>
        <r>    -6.3671     0.0000     0.0000     0.0000     0.0000 </r>
        <r>    -6.3270     0.0000     0.0000     0.0000     0.0000 </r>
        <r>    -6.2869     0.0000     0.0000     0.0000     0.0000 </r>
        <r>    -6.2467     0.0000     0.0000     0.0000     0.0000 </r>
        <r>    -6.2066     0.0000     0.0000     0.0000     0.0000 </r>
        <r>    -6.1665     0.0000     0.0000     0.0000     0.0000 </r>
        <r>    -6.1264     0.0000     0.0000     0.0000     0.0000 </r>
        <r>    -6.0863     0.0000     0.0000     0.0000     0.0000 </r>
        <r>    -6.0461     0.0000     0.0000     0.0000     0.0000 </r>
        <r>    -6.0060     0.0000     0.0000     0.0000     0.0000 </r>
        <r>    -5.9659     0.0000     0.0000     0.0000     0.0000 </r>
        <r>    -5.9258     0.0000     0.0000     0.0000     0.0000 </r>
        <r>    -5.8856     0.0000     0.0000     0.0000     0.0000 </r>
        <r>    -5.8455     0.0000     0.0000     0.0000     0.0000 </r>
        <r>    -5.8054     0.0000     0.0000     0.0000     0.0000 </r>
        <r>    -5.7653     0.0000     0.0000     0.0000     0.0000 </r>
        <r>    -5.7251     0.0000     0.0000     0.0000     0.0000 </r>
        <r>    -5.6850     0.0000     0.0000     0.0000     0.0000 </r>
        <r>    -5.6449     0.0000     0.0000     0.0000     0.0000 </r>
        <r>    -5.6048     0.0000     0.0000     0.0000     0.0000 </r>
        <r>    -5.5647     0.0000     0.0000     0.0000     0.0000 </r>
        <r>    -5.5245     0.0000     0.0000     0.0000     0.0000 </r>
        <r>    -5.4844     0.0000     0.0000     0.0000     0.0000 </r>
        <r>    -5.4443     0.0000     0.0000     0.0000     0.0000 </r>
        <r>    -5.4042     0.0000     0.0000     0.0000     0.0000 </r>
        <r>    -5.3640     0.0000     0.0000     0.0000     0.0000 </r>
        <r>    -5.3239     0.0000     0.0000     0.0000     0.0000 </r>
        <r>    -5.2838     0.0000     0.0000     0.0000     0.0000 </r>
        <r>    -5.2437     0.0000     0.0000     0.0000     0.0000 </r>
        <r>    -5.2035     0.0000     0.0000     0.0000     0.0000 </r>
        <r>    -5.1634     6.6052     0.1204     0.0383     0.0013 </r>
        <r>    -5.1233     1.2384     0.4971     0.2277     0.0082 </r>
        <r>    -5.0832     0.0000     0.0000     0.0000     0.0000 </r>
        <r>    -5.0431     0.0000     0.0000     0.0000     0.0000 </r>
        <r>    -5.0029     0.0000     0.0000     0.0000     0.0000 </r>
        <r>    -4.9628     0.0000     0.0000     0.0000     0.0000 </r>
        <r>    -4.9227     0.0000     0.0000     0.0000     0.0000 </r>
        <r>    -4.8826     0.0000     0.0000     0.0000     0.0000 </r>
        <r>    -4.8424     0.0000     0.0000     0.0000     0.0000 </r>
        <r>    -4.8023     0.0000     0.0000     0.0000     0.0000 </r>
        <r>    -4.7622     0.0000     0.0000     0.0000     0.0000 </r>
        <r>    -4.7221     0.0000     0.0000     0.0000     0.0000 </r>
        <r>    -4.6819     0.0000     0.0000     0.0000     0.0000 </r>
        <r>    -4.6418     0.0000     0.0000     0.0000     0.0000 </r>
        <r>    -4.6017     0.0000     0.0000     0.0000     0.0000 </r>
        <r>    -4.5616     0.0000     0.0000     0.0000     0.0000 </r>
        <r>    -4.5215     0.0000     0.0000     0.0000     0.0000 </r>
        <r>    -4.4813     0.0000     0.0000     0.0000     0.0000 </r>
        <r>    -4.4412     0.0000     0.0000     0.0000     0.0000 </r>
        <r>    -4.4011     0.0000     0.0000     0.0000     0.0000 </r>
        <r>    -4.3610     0.0000     0.0000     0.0000     0.0000 </r>
        <r>    -4.3208     0.0000     0.0000     0.0000     0.0000 </r>
        <r>    -4.2807     0.0000     0.0000     0.0000     0.0000 </r>
        <r>    -4.2406     0.0000     0.0000     0.0000     0.0000 </r>
        <r>    -4.2005     0.0000     0.0000     0.0000     0.0000 </r>
        <r>    -4.1603     0.0000     0.0000     0.0000     0.0000 </r>
        <r>    -4.1202     0.0000     0.0000     0.0000     0.0000 </r>
        <r>    -4.0801     0.0000     0.0000     0.0000     0.0000 </r>
        <r>    -4.0400     0.0000     0.0000     0.0000     0.0000 </r>
        <r>    -3.9999     0.0000     0.0000     0.0000     0.0000 </r>
        <r>    -3.9597     0.0000     0.0000     0.0000     0.0000 </r>
        <r>    -3.9196     0.0000     0.0000     0.0000     0.0000 </r>
        <r>    -3.8795     0.0000     0.0000     0.0000     0.0000 </r>
        <r>    -3.8394     0.0000     0.0000     0.0000     0.0000 </r>
        <r>    -3.7992     0.0000     0.0000     0.0000     0.0000 </r>
        <r>    -3.7591     0.0000     0.0000     0.0000     0.0000 </r>
        <r>    -3.7190     0.0000     0.0000     0.0000     0.0000 </r>
        <r>    -3.6789     0.0000     0.0000     0.0000     0.0000 </r>
        <r>    -3.6387     0.0000     0.0000     0.0000     0.0000 </r>
        <r>    -3.5986     0.0000     0.0000     0.0000     0.0000 </r>
        <r>    -3.5585     0.0000     0.0000     0.0000     0.0000 </r>
        <r>    -3.5184     0.0000     0.0000     0.0000     0.0000 </r>
        <r>    -3.4783     0.0000     0.0000     0.0000     0.0000 </r>
        <r>    -3.4381     0.0000     0.0000     0.0000     0.0000 </r>
        <r>    -3.3980     0.0000     0.0000     0.0000     0.0000 </r>
        <r>    -3.3579     0.0000     0.0000     0.0000     0.0000 </r>
        <r>    -3.3178     0.0000     0.0000     0.0000     0.0000 </r>
        <r>    -3.2776     0.0000     0.0000     0.0000     0.0000 </r>
        <r>    -3.2375     0.0000     0.0000     0.0000     0.0000 </r>
        <r>    -3.1974     0.0000     0.0000     0.0000     0.0000 </r>
        <r>    -3.1573     0.0000     0.0000     0.0000     0.0000 </r>
        <r>    -3.1171     0.0000     0.0000     0.0000     0.0000 </r>
        <r>    -3.0770     0.0000     0.0000     0.0000     0.0000 </r>
        <r>    -3.0369     0.0000     0.0000     0.0000     0.0000 </r>
        <r>    -2.9968     0.0000     0.0000     0.0000     0.0000 </r>
        <r>    -2.9567     0.0000     0.0000     0.0000     0.0000 </r>
        <r>    -2.9165     0.0000     0.0000     0.0000     0.0000 </r>
        <r>    -2.8764     0.0000     0.0000     0.0000     0.0000 </r>
        <r>    -2.8363     0.0000     0.0000     0.0000     0.0000 </r>
        <r>    -2.7962     0.0000     0.0000     0.0000     0.0000 </r>
        <r>    -2.7560     0.0000     0.0000     0.0000     0.0000 </r>
        <r>    -2.7159     0.0000     0.0000     0.0000     0.0000 </r>
        <r>    -2.6758     0.0000     0.0000     0.0000     0.0000 </r>
        <r>    -2.6357     0.0000     0.0000     0.0000     0.0000 </r>
        <r>    -2.5955     0.0000     0.0000     0.0000     0.0000 </r>
        <r>    -2.5554     0.0000     0.0000     0.0000     0.0000 </r>
        <r>    -2.5153     0.0000     0.0000     0.0000     0.0000 </r>
        <r>    -2.4752     0.0000     0.0000     0.0000     0.0000 </r>
        <r>    -2.4351     0.0000     0.0000     0.0000     0.0000 </r>
        <r>    -2.3949     0.0000     0.0000     0.0000     0.0000 </r>
        <r>    -2.3548     0.0000     0.0000     0.0000     0.0000 </r>
        <r>    -2.3147     0.0000     0.0000     0.0000     0.0000 </r>
        <r>    -2.2746     0.0000     0.0000     0.0000     0.0000 </r>
        <r>    -2.2344     0.0000     0.0000     0.0000     0.0000 </r>
        <r>    -2.1943     0.0811     1.5200     0.0638     0.0032 </r>
        <r>    -2.1542     0.0000     0.0000     0.0000     0.0000 </r>
        <r>    -2.1141     0.0000     0.0000     0.0000     0.0000 </r>
        <r>    -2.0739     0.0000     0.0000     0.0000     0.0000 </r>
        <r>    -2.0338     0.0000     0.0000     0.0000     0.0000 </r>
        <r>    -1.9937     0.0000     0.0000     0.0000     0.0000 </r>
        <r>    -1.9536     0.0000     0.0000     0.0000     0.0000 </r>
        <r>    -1.9135     0.0000     0.0000     0.0000     0.0000 </r>
        <r>    -1.8733     0.0000     0.0000     0.0000     0.0000 </r>
        <r>    -1.8332     0.0000     0.0000     0.0000     0.0000 </r>
        <r>    -1.7931     0.0000     0.0000     0.0000     0.0000 </r>
        <r>    -1.7530     0.5464     3.9291     0.1010     0.0103 </r>
        <r>    -1.7128     0.0000     0.0000     0.0000     0.0000 </r>
        <r>    -1.6727     0.0000     0.0000     0.0000     0.0000 </r>
        <r>    -1.6326     0.0000     0.0000     0.0000     0.0000 </r>
        <r>    -1.5925     0.0000     0.0000     0.0000     0.0000 </r>
        <r>    -1.5523     0.0000     0.0000     0.0000     0.0000 </r>
        <r>    -1.5122     0.0000     0.0000     0.0000     0.0000 </r>
        <r>    -1.4721     0.0000     0.0000     0.0000     0.0000 </r>
        <r>    -1.4320     0.0000     0.0000     0.0000     0.0000 </r>
        <r>    -1.3919     0.0000     0.0000     0.0000     0.0000 </r>
        <r>    -1.3517     0.0000     0.0093     0.0003     0.0000 </r>
        <r>    -1.3116     0.0000     2.5581     0.0893     0.0090 </r>
        <r>    -1.2715     0.0000     0.0000     0.0000     0.0000 </r>
        <r>    -1.2314     0.0000     0.0000     0.0000     0.0000 </r>
        <r>    -1.1912     0.0000     0.0000     0.0000     0.0000 </r>
        <r>    -1.1511     0.0000     0.0000     0.0000     0.0000 </r>
        <r>    -1.1110     0.0000     0.0000     0.0000     0.0000 </r>
        <r>    -1.0709     0.0000     0.0000     0.0000     0.0000 </r>
        <r>    -1.0307     0.0000     0.0000     0.0000     0.0000 </r>
        <r>    -0.9906     0.0000     0.0000     0.0000     0.0000 </r>
        <r>    -0.9505     0.0000     0.0000     0.0000     0.0000 </r>
        <r>    -0.9104     0.0000     0.0000     0.0000     0.0000 </r>
        <r>    -0.8703     0.0000     0.0000     0.0000     0.0000 </r>
        <r>    -0.8301     0.0000     0.0000     0.0000     0.0000 </r>
        <r>    -0.7900     0.0000     0.0000     0.0000     0.0000 </r>
       </set>
       <set comment="spin 2">
        <r>   -12.8269     0.0000     0.0000     0.0000     0.0000 </r>
        <r>   -12.7868     0.0000     0.0000     0.0000     0.0000 </r>
        <r>   -12.7467     0.0000     0.0000     0.0000     0.0000 </r>
        <r>   -12.7066     0.0000     0.0000     0.0000     0.0000 </r>
        <r>   -12.6664     0.0000     0.0000     0.0000     0.0000 </r>
        <r>   -12.6263     0.0000     0.0000     0.0000     0.0000 </r>
        <r>   -12.5862     0.0000     0.0000     0.0000     0.0000 </r>
        <r>   -12.5461     0.0000     0.0000     0.0000     0.0000 </r>
        <r>   -12.5059     0.0000     0.0000     0.0000     0.0000 </r>
        <r>   -12.4658     0.0000     0.0000     0.0000     0.0000 </r>
        <r>   -12.4257     0.0000     0.0000     0.0000     0.0000 </r>
        <r>   -12.3856     0.0000     0.0000     0.0000     0.0000 </r>
        <r>   -12.3454     0.0000     0.0000     0.0000     0.0000 </r>
        <r>   -12.3053     0.0000     0.0000     0.0000     0.0000 </r>
        <r>   -12.2652     0.0431     0.0243     5.6226     0.0012 </r>
        <r>   -12.2251     0.0000     0.0000     0.0000     0.0000 </r>
        <r>   -12.1850     0.0000     0.0000     0.0000     0.0000 </r>
        <r>   -12.1448     0.0000     0.0000     0.0000     0.0000 </r>
        <r>   -12.1047     0.0019     0.0006     0.1378     0.0000 </r>
        <r>   -12.0646     0.0383     0.0221    18.2018     0.0024 </r>
        <r>   -12.0245     0.0000     0.0059    11.0919     0.0013 </r>
        <r>   -11.9843     0.0000     0.0000     0.0000     0.0000 </r>
        <r>   -11.9442     0.0000     0.0000     0.0000     0.0000 </r>
        <r>   -11.9041     0.0041     0.0008     5.0003     0.0002 </r>
        <r>   -11.8640     0.0056     0.0010    13.0066     0.0005 </r>
        <r>   -11.8238     0.0000     0.0000     0.0000     0.0000 </r>
        <r>   -11.7837     0.0000     0.0000     0.0000     0.0000 </r>
        <r>   -11.7436     0.0000     0.0006    29.8108     0.0005 </r>
        <r>   -11.7035     0.0121     0.0061    18.1124     0.0005 </r>
        <r>   -11.6634     0.0000     0.0000     0.0000     0.0000 </r>
        <r>   -11.6232     0.0000     0.0000     0.0000     0.0000 </r>
        <r>   -11.5831     0.0000     0.0093    18.1027     0.0016 </r>
        <r>   -11.5430     0.0000     0.0000     0.0000     0.0000 </r>
        <r>   -11.5029     0.0000     0.0000     0.0000     0.0000 </r>
        <r>   -11.4627     0.0000     0.0000     0.0000     0.0000 </r>
        <r>   -11.4226     0.0000     0.0000     0.0000     0.0000 </r>
        <r>   -11.3825     0.0000     0.0000     0.0000     0.0000 </r>
        <r>   -11.3424     0.0000     0.0000     0.0000     0.0000 </r>
        <r>   -11.3022     0.0000     0.0000     0.0000     0.0000 </r>
        <r>   -11.2621     0.0000     0.0000     0.0000     0.0000 </r>
        <r>   -11.2220     0.0000     0.0000     0.0000     0.0000 </r>
        <r>   -11.1819     0.0000     0.0000     0.0000     0.0000 </r>
        <r>   -11.1418     0.0000     0.0000     0.0000     0.0000 </r>
        <r>   -11.1016     0.0000     0.0000     0.0000     0.0000 </r>
        <r>   -11.0615     0.0000     0.0000     0.0000     0.0000 </r>
        <r>   -11.0214     0.0000     0.0000     0.0000     0.0000 </r>
        <r>   -10.9813     0.0000     0.0000     0.0000     0.0000 </r>
        <r>   -10.9411     0.0000     0.0000     0.0000     0.0000 </r>
        <r>   -10.9010     0.0000     0.0000     0.0000     0.0000 </r>
        <r>   -10.8609     0.0000     0.0000     0.0000     0.0000 </r>
        <r>   -10.8208     0.0000     0.0000     0.0000     0.0000 </r>
        <r>   -10.7806     0.0000     0.0000     0.0000     0.0000 </r>
        <r>   -10.7405     0.0000     0.0000     0.0000     0.0000 </r>
        <r>   -10.7004     0.0000     0.0000     0.0000     0.0000 </r>
        <r>   -10.6603     0.0000     0.0000     0.0000     0.0000 </r>
        <r>   -10.6202     0.0000     0.0000     0.0000     0.0000 </r>
        <r>   -10.5800     0.0000     0.0000     0.0000     0.0000 </r>
        <r>   -10.5399     0.0000     0.0000     0.0000     0.0000 </r>
        <r>   -10.4998     0.0000     0.0000     0.0000     0.0000 </r>
        <r>   -10.4597     0.0000     0.0000     0.0000     0.0000 </r>
        <r>   -10.4195     0.0000     0.0000     0.0000     0.0000 </r>
        <r>   -10.3794     0.0000     0.0000     0.0000     0.0000 </r>
        <r>   -10.3393     0.0000     0.0000     0.0000     0.0000 </r>
        <r>   -10.2992     0.0000     0.0000     0.0000     0.0000 </r>
        <r>   -10.2590     0.0000     0.0000     0.0000     0.0000 </r>
        <r>   -10.2189     0.0000     0.0000     0.0000     0.0000 </r>
        <r>   -10.1788     0.0000     0.0000     0.0000     0.0000 </r>
        <r>   -10.1387     0.0000     0.0000     0.0000     0.0000 </r>
        <r>   -10.0986     0.0000     0.0000     0.0000     0.0000 </r>
        <r>   -10.0584     0.0000     0.0000     0.0000     0.0000 </r>
        <r>   -10.0183     0.0000     0.0000     0.0000     0.0000 </r>
        <r>    -9.9782     0.0000     0.0000     0.0000     0.0000 </r>
        <r>    -9.9381     0.0000     0.0000     0.0000     0.0000 </r>
        <r>    -9.8979     0.0000     0.0000     0.0000     0.0000 </r>
        <r>    -9.8578     0.0000     0.0000     0.0000     0.0000 </r>
        <r>    -9.8177     0.0000     0.0000     0.0000     0.0000 </r>
        <r>    -9.7776     0.0000     0.0000     0.0000     0.0000 </r>
        <r>    -9.7374     0.0000     0.0000     0.0000     0.0000 </r>
        <r>    -9.6973     0.0000     0.0000     0.0000     0.0000 </r>
        <r>    -9.6572     0.0000     0.0000     0.0000     0.0000 </r>
        <r>    -9.6171     0.0000     0.0000     0.0000     0.0000 </r>
        <r>    -9.5770     0.0000     0.0000     0.0000     0.0000 </r>
        <r>    -9.5368     0.0000     0.0000     0.0000     0.0000 </r>
        <r>    -9.4967     0.0000     0.0000     0.0000     0.0000 </r>
        <r>    -9.4566     0.0000     0.0000     0.0000     0.0000 </r>
        <r>    -9.4165     0.0000     0.0000     0.0000     0.0000 </r>
        <r>    -9.3763     0.0000     0.0000     0.0000     0.0000 </r>
        <r>    -9.3362     0.0000     0.0000     0.0000     0.0000 </r>
        <r>    -9.2961     0.0000     0.0000     0.0000     0.0000 </r>
        <r>    -9.2560     0.0000     0.0000     0.0000     0.0000 </r>
        <r>    -9.2158     0.0000     0.0000     0.0000     0.0000 </r>
        <r>    -9.1757     0.0000     0.0000     0.0000     0.0000 </r>
        <r>    -9.1356     0.0000     0.0000     0.0000     0.0000 </r>
        <r>    -9.0955     0.0000     0.0000     0.0000     0.0000 </r>
        <r>    -9.0554     0.0000     0.0000     0.0000     0.0000 </r>
        <r>    -9.0152     0.0000     0.0000     0.0000     0.0000 </r>
        <r>    -8.9751     0.0000     0.0000     0.0000     0.0000 </r>
        <r>    -8.9350     0.0000     0.0000     0.0000     0.0000 </r>
        <r>    -8.8949     0.0000     0.0000     0.0000     0.0000 </r>
        <r>    -8.8547     0.0000     0.0000     0.0000     0.0000 </r>
        <r>    -8.8146     0.0000     0.0000     0.0000     0.0000 </r>
        <r>    -8.7745     0.0000     0.0000     0.0000     0.0000 </r>
        <r>    -8.7344     0.0000     0.0000     0.0000     0.0000 </r>
        <r>    -8.6942     0.0000     0.0000     0.0000     0.0000 </r>
        <r>    -8.6541     0.0000     0.0000     0.0000     0.0000 </r>
        <r>    -8.6140     0.0000     0.0000     0.0000     0.0000 </r>
        <r>    -8.5739     0.0000     0.0000     0.0000     0.0000 </r>
        <r>    -8.5338     0.0000     0.0000     0.0000     0.0000 </r>
        <r>    -8.4936     0.0000     0.0000     0.0000     0.0000 </r>
        <r>    -8.4535     0.0000     0.0000     0.0000     0.0000 </r>
        <r>    -8.4134     0.0000     0.0000     0.0000     0.0000 </r>
        <r>    -8.3733     0.0000     0.0000     0.0000     0.0000 </r>
        <r>    -8.3331     0.0000     0.0000     0.0000     0.0000 </r>
        <r>    -8.2930     0.0000     0.0000     0.0000     0.0000 </r>
        <r>    -8.2529     0.0000     0.0000     0.0000     0.0000 </r>
        <r>    -8.2128     0.0000     0.0000     0.0000     0.0000 </r>
        <r>    -8.1726     0.0000     0.0000     0.0000     0.0000 </r>
        <r>    -8.1325     0.0000     0.0000     0.0000     0.0000 </r>
        <r>    -8.0924     0.0000     0.0000     0.0000     0.0000 </r>
        <r>    -8.0523     2.5548     0.2386     0.1484     0.0004 </r>
        <r>    -8.0122     0.0000     0.0000     0.0000     0.0000 </r>
        <r>    -7.9720     0.0000     0.0000     0.0000     0.0000 </r>
        <r>    -7.9319     0.0000     0.0000     0.0000     0.0000 </r>
        <r>    -7.8918     0.0000     0.0000     0.0000     0.0000 </r>
        <r>    -7.8517     0.0000     0.0000     0.0000     0.0000 </r>
        <r>    -7.8115     0.0000     0.0000     0.0000     0.0000 </r>
        <r>    -7.7714     0.0000     0.0000     0.0000     0.0000 </r>
        <r>    -7.7313     0.0000     0.0000     0.0000     0.0000 </r>
        <r>    -7.6912     0.0000     0.0000     0.0000     0.0000 </r>
        <r>    -7.6511     0.0000     0.0000     0.0000     0.0000 </r>
        <r>    -7.6109     0.0000     0.0000     0.0000     0.0000 </r>
        <r>    -7.5708     0.0000     0.0000     0.0000     0.0000 </r>
        <r>    -7.5307     0.0000     0.0000     0.0000     0.0000 </r>
        <r>    -7.4906     0.0000     0.0000     0.0000     0.0000 </r>
        <r>    -7.4504     0.0000     0.0000     0.0000     0.0000 </r>
        <r>    -7.4103     0.0000     0.0000     0.0000     0.0000 </r>
        <r>    -7.3702     0.0000     0.0000     0.0000     0.0000 </r>
        <r>    -7.3301     0.0000     0.0000     0.0000     0.0000 </r>
        <r>    -7.2899     0.0000     0.0000     0.0000     0.0000 </r>
        <r>    -7.2498     0.0000     0.0000     0.0000     0.0000 </r>
        <r>    -7.2097     0.0000     0.0000     0.0000     0.0000 </r>
        <r>    -7.1696     0.0000     0.0000     0.0000     0.0000 </r>
        <r>    -7.1295     0.0000     0.0000     0.0000     0.0000 </r>
        <r>    -7.0893     0.0000     0.0000     0.0000     0.0000 </r>
        <r>    -7.0492     0.0000     0.0000     0.0000     0.0000 </r>
        <r>    -7.0091     0.0000     0.0000     0.0000     0.0000 </r>
        <r>    -6.9690     0.0000     0.0000     0.0000     0.0000 </r>
        <r>    -6.9288     0.0000     0.0000     0.0000     0.0000 </r>
        <r>    -6.8887     0.0000     0.0000     0.0000     0.0000 </r>
        <r>    -6.8486     0.0000     0.0000     0.0000     0.0000 </r>
        <r>    -6.8085     0.0000     0.0000     0.0000     0.0000 </r>
        <r>    -6.7683     0.0000     0.0000     0.0000     0.0000 </r>
        <r>    -6.7282     0.0000     0.0000     0.0000     0.0000 </r>
        <r>    -6.6881     0.0000     0.0000     0.0000     0.0000 </r>
        <r>    -6.6480     0.0000     0.0000     0.0000     0.0000 </r>
        <r>    -6.6079     0.0000     0.0000     0.0000     0.0000 </r>
        <r>    -6.5677     0.0000     0.0000     0.0000     0.0000 </r>
        <r>    -6.5276     0.0000     0.0000     0.0000     0.0000 </r>
        <r>    -6.4875     0.0000     0.0000     0.0000     0.0000 </r>
        <r>    -6.4474     0.0000     0.0000     0.0000     0.0000 </r>
        <r>    -6.4072     0.0000     0.0000     0.0000     0.0000 </r>
        <r>    -6.3671     0.0000     0.0000     0.0000     0.0000 </r>
        <r>    -6.3270     0.0000     0.0000     0.0000     0.0000 </r>
        <r>    -6.2869     0.0000     0.0000     0.0000     0.0000 </r>
        <r>    -6.2467     0.0000     0.0000     0.0000     0.0000 </r>
        <r>    -6.2066     0.0000     0.0000     0.0000     0.0000 </r>
        <r>    -6.1665     0.0000     0.0000     0.0000     0.0000 </r>
        <r>    -6.1264     0.0000     0.0000     0.0000     0.0000 </r>
        <r>    -6.0863     0.0000     0.0000     0.0000     0.0000 </r>
        <r>    -6.0461     0.0000     0.0000     0.0000     0.0000 </r>
        <r>    -6.0060     0.0000     0.0000     0.0000     0.0000 </r>
        <r>    -5.9659     0.0000     0.0000     0.0000     0.0000 </r>
        <r>    -5.9258     0.0000     0.0000     0.0000     0.0000 </r>
        <r>    -5.8856     0.0000     0.0000     0.0000     0.0000 </r>
        <r>    -5.8455     0.0000     0.0000     0.0000     0.0000 </r>
        <r>    -5.8054     0.0000     0.0000     0.0000     0.0000 </r>
        <r>    -5.7653     0.0000     0.0000     0.0000     0.0000 </r>
        <r>    -5.7251     0.0000     0.0000     0.0000     0.0000 </r>
        <r>    -5.6850     0.0000     0.0000     0.0000     0.0000 </r>
        <r>    -5.6449     0.0000     0.0000     0.0000     0.0000 </r>
        <r>    -5.6048     0.0000     0.0000     0.0000     0.0000 </r>
        <r>    -5.5647     0.0000     0.0000     0.0000     0.0000 </r>
        <r>    -5.5245     0.0000     0.0000     0.0000     0.0000 </r>
        <r>    -5.4844     0.0000     0.0000     0.0000     0.0000 </r>
        <r>    -5.4443     0.0000     0.0000     0.0000     0.0000 </r>
        <r>    -5.4042     0.0000     0.0000     0.0000     0.0000 </r>
        <r>    -5.3640     0.0000     0.0000     0.0000     0.0000 </r>
        <r>    -5.3239     0.0000     0.0000     0.0000     0.0000 </r>
        <r>    -5.2838     0.0000     0.0000     0.0000     0.0000 </r>
        <r>    -5.2437     0.0000     0.0000     0.0000     0.0000 </r>
        <r>    -5.2035     0.0000     0.0000     0.0000     0.0000 </r>
        <r>    -5.1634     6.6053     0.1204     0.0383     0.0013 </r>
        <r>    -5.1233     1.2383     0.4971     0.2277     0.0082 </r>
        <r>    -5.0832     0.0000     0.0000     0.0000     0.0000 </r>
        <r>    -5.0431     0.0000     0.0000     0.0000     0.0000 </r>
        <r>    -5.0029     0.0000     0.0000     0.0000     0.0000 </r>
        <r>    -4.9628     0.0000     0.0000     0.0000     0.0000 </r>
        <r>    -4.9227     0.0000     0.0000     0.0000     0.0000 </r>
        <r>    -4.8826     0.0000     0.0000     0.0000     0.0000 </r>
        <r>    -4.8424     0.0000     0.0000     0.0000     0.0000 </r>
        <r>    -4.8023     0.0000     0.0000     0.0000     0.0000 </r>
        <r>    -4.7622     0.0000     0.0000     0.0000     0.0000 </r>
        <r>    -4.7221     0.0000     0.0000     0.0000     0.0000 </r>
        <r>    -4.6819     0.0000     0.0000     0.0000     0.0000 </r>
        <r>    -4.6418     0.0000     0.0000     0.0000     0.0000 </r>
        <r>    -4.6017     0.0000     0.0000     0.0000     0.0000 </r>
        <r>    -4.5616     0.0000     0.0000     0.0000     0.0000 </r>
        <r>    -4.5215     0.0000     0.0000     0.0000     0.0000 </r>
        <r>    -4.4813     0.0000     0.0000     0.0000     0.0000 </r>
        <r>    -4.4412     0.0000     0.0000     0.0000     0.0000 </r>
        <r>    -4.4011     0.0000     0.0000     0.0000     0.0000 </r>
        <r>    -4.3610     0.0000     0.0000     0.0000     0.0000 </r>
        <r>    -4.3208     0.0000     0.0000     0.0000     0.0000 </r>
        <r>    -4.2807     0.0000     0.0000     0.0000     0.0000 </r>
        <r>    -4.2406     0.0000     0.0000     0.0000     0.0000 </r>
        <r>    -4.2005     0.0000     0.0000     0.0000     0.0000 </r>
        <r>    -4.1603     0.0000     0.0000     0.0000     0.0000 </r>
        <r>    -4.1202     0.0000     0.0000     0.0000     0.0000 </r>
        <r>    -4.0801     0.0000     0.0000     0.0000     0.0000 </r>
        <r>    -4.0400     0.0000     0.0000     0.0000     0.0000 </r>
        <r>    -3.9999     0.0000     0.0000     0.0000     0.0000 </r>
        <r>    -3.9597     0.0000     0.0000     0.0000     0.0000 </r>
        <r>    -3.9196     0.0000     0.0000     0.0000     0.0000 </r>
        <r>    -3.8795     0.0000     0.0000     0.0000     0.0000 </r>
        <r>    -3.8394     0.0000     0.0000     0.0000     0.0000 </r>
        <r>    -3.7992     0.0000     0.0000     0.0000     0.0000 </r>
        <r>    -3.7591     0.0000     0.0000     0.0000     0.0000 </r>
        <r>    -3.7190     0.0000     0.0000     0.0000     0.0000 </r>
        <r>    -3.6789     0.0000     0.0000     0.0000     0.0000 </r>
        <r>    -3.6387     0.0000     0.0000     0.0000     0.0000 </r>
        <r>    -3.5986     0.0000     0.0000     0.0000     0.0000 </r>
        <r>    -3.5585     0.0000     0.0000     0.0000     0.0000 </r>
        <r>    -3.5184     0.0000     0.0000     0.0000     0.0000 </r>
        <r>    -3.4783     0.0000     0.0000     0.0000     0.0000 </r>
        <r>    -3.4381     0.0000     0.0000     0.0000     0.0000 </r>
        <r>    -3.3980     0.0000     0.0000     0.0000     0.0000 </r>
        <r>    -3.3579     0.0000     0.0000     0.0000     0.0000 </r>
        <r>    -3.3178     0.0000     0.0000     0.0000     0.0000 </r>
        <r>    -3.2776     0.0000     0.0000     0.0000     0.0000 </r>
        <r>    -3.2375     0.0000     0.0000     0.0000     0.0000 </r>
        <r>    -3.1974     0.0000     0.0000     0.0000     0.0000 </r>
        <r>    -3.1573     0.0000     0.0000     0.0000     0.0000 </r>
        <r>    -3.1171     0.0000     0.0000     0.0000     0.0000 </r>
        <r>    -3.0770     0.0000     0.0000     0.0000     0.0000 </r>
        <r>    -3.0369     0.0000     0.0000     0.0000     0.0000 </r>
        <r>    -2.9968     0.0000     0.0000     0.0000     0.0000 </r>
        <r>    -2.9567     0.0000     0.0000     0.0000     0.0000 </r>
        <r>    -2.9165     0.0000     0.0000     0.0000     0.0000 </r>
        <r>    -2.8764     0.0000     0.0000     0.0000     0.0000 </r>
        <r>    -2.8363     0.0000     0.0000     0.0000     0.0000 </r>
        <r>    -2.7962     0.0000     0.0000     0.0000     0.0000 </r>
        <r>    -2.7560     0.0000     0.0000     0.0000     0.0000 </r>
        <r>    -2.7159     0.0000     0.0000     0.0000     0.0000 </r>
        <r>    -2.6758     0.0000     0.0000     0.0000     0.0000 </r>
        <r>    -2.6357     0.0000     0.0000     0.0000     0.0000 </r>
        <r>    -2.5955     0.0000     0.0000     0.0000     0.0000 </r>
        <r>    -2.5554     0.0000     0.0000     0.0000     0.0000 </r>
        <r>    -2.5153     0.0000     0.0000     0.0000     0.0000 </r>
        <r>    -2.4752     0.0000     0.0000     0.0000     0.0000 </r>
        <r>    -2.4351     0.0000     0.0000     0.0000     0.0000 </r>
        <r>    -2.3949     0.0000     0.0000     0.0000     0.0000 </r>
        <r>    -2.3548     0.0000     0.0000     0.0000     0.0000 </r>
        <r>    -2.3147     0.0000     0.0000     0.0000     0.0000 </r>
        <r>    -2.2746     0.0000     0.0000     0.0000     0.0000 </r>
        <r>    -2.2344     0.0000     0.0000     0.0000     0.0000 </r>
        <r>    -2.1943     0.0811     1.5200     0.0638     0.0032 </r>
        <r>    -2.1542     0.0000     0.0000     0.0000     0.0000 </r>
        <r>    -2.1141     0.0000     0.0000     0.0000     0.0000 </r>
        <r>    -2.0739     0.0000     0.0000     0.0000     0.0000 </r>
        <r>    -2.0338     0.0000     0.0000     0.0000     0.0000 </r>
        <r>    -1.9937     0.0000     0.0000     0.0000     0.0000 </r>
        <r>    -1.9536     0.0000     0.0000     0.0000     0.0000 </r>
        <r>    -1.9135     0.0000     0.0000     0.0000     0.0000 </r>
        <r>    -1.8733     0.0000     0.0000     0.0000     0.0000 </r>
        <r>    -1.8332     0.0000     0.0000     0.0000     0.0000 </r>
        <r>    -1.7931     0.0000     0.0000     0.0000     0.0000 </r>
        <r>    -1.7530     0.5464     3.9291     0.1010     0.0103 </r>
        <r>    -1.7128     0.0000     0.0000     0.0000     0.0000 </r>
        <r>    -1.6727     0.0000     0.0000     0.0000     0.0000 </r>
        <r>    -1.6326     0.0000     0.0000     0.0000     0.0000 </r>
        <r>    -1.5925     0.0000     0.0000     0.0000     0.0000 </r>
        <r>    -1.5523     0.0000     0.0000     0.0000     0.0000 </r>
        <r>    -1.5122     0.0000     0.0000     0.0000     0.0000 </r>
        <r>    -1.4721     0.0000     0.0000     0.0000     0.0000 </r>
        <r>    -1.4320     0.0000     0.0000     0.0000     0.0000 </r>
        <r>    -1.3919     0.0000     0.0000     0.0000     0.0000 </r>
        <r>    -1.3517     0.0000     0.0093     0.0003     0.0000 </r>
        <r>    -1.3116     0.0000     2.5581     0.0893     0.0090 </r>
        <r>    -1.2715     0.0000     0.0000     0.0000     0.0000 </r>
        <r>    -1.2314     0.0000     0.0000     0.0000     0.0000 </r>
        <r>    -1.1912     0.0000     0.0000     0.0000     0.0000 </r>
        <r>    -1.1511     0.0000     0.0000     0.0000     0.0000 </r>
        <r>    -1.1110     0.0000     0.0000     0.0000     0.0000 </r>
        <r>    -1.0709     0.0000     0.0000     0.0000     0.0000 </r>
        <r>    -1.0307     0.0000     0.0000     0.0000     0.0000 </r>
        <r>    -0.9906     0.0000     0.0000     0.0000     0.0000 </r>
        <r>    -0.9505     0.0000     0.0000     0.0000     0.0000 </r>
        <r>    -0.9104     0.0000     0.0000     0.0000     0.0000 </r>
        <r>    -0.8703     0.0000     0.0000     0.0000     0.0000 </r>
        <r>    -0.8301     0.0000     0.0000     0.0000     0.0000 </r>
        <r>    -0.7900     0.0000     0.0000     0.0000     0.0000 </r>
       </set>
      </set>
      <set comment="ion 3">
       <set comment="spin 1">
        <r>   -12.8269     0.0000     0.0000     0.0000     0.0000 </r>
        <r>   -12.7868     0.0000     0.0000     0.0000     0.0000 </r>
        <r>   -12.7467     0.0000     0.0000     0.0000     0.0000 </r>
        <r>   -12.7066     0.0000     0.0000     0.0000     0.0000 </r>
        <r>   -12.6664     0.0000     0.0000     0.0000     0.0000 </r>
        <r>   -12.6263     0.0000     0.0000     0.0000     0.0000 </r>
        <r>   -12.5862     0.0000     0.0000     0.0000     0.0000 </r>
        <r>   -12.5461     0.0000     0.0000     0.0000     0.0000 </r>
        <r>   -12.5059     0.0000     0.0000     0.0000     0.0000 </r>
        <r>   -12.4658     0.0000     0.0000     0.0000     0.0000 </r>
        <r>   -12.4257     0.0000     0.0000     0.0000     0.0000 </r>
        <r>   -12.3856     0.0000     0.0000     0.0000     0.0000 </r>
        <r>   -12.3454     0.0000     0.0000     0.0000     0.0000 </r>
        <r>   -12.3053     0.0000     0.0000     0.0000     0.0000 </r>
        <r>   -12.2652     0.0442     0.0248     5.7357     0.0012 </r>
        <r>   -12.2251     0.0000     0.0000     0.0000     0.0000 </r>
        <r>   -12.1850     0.0000     0.0000     0.0000     0.0000 </r>
        <r>   -12.1448     0.0000     0.0000     0.0000     0.0000 </r>
        <r>   -12.1047     0.0008     0.0004     0.3204     0.0000 </r>
        <r>   -12.0646     0.0393     0.0231    19.2313     0.0026 </r>
        <r>   -12.0245     0.0001     0.0052    10.0877     0.0012 </r>
        <r>   -11.9843     0.0000     0.0000     0.0000     0.0000 </r>
        <r>   -11.9442     0.0000     0.0000     0.0000     0.0000 </r>
        <r>   -11.9041     0.0031     0.0006     5.9750     0.0002 </r>
        <r>   -11.8640     0.0067     0.0012    12.0701     0.0005 </r>
        <r>   -11.8238     0.0000     0.0000     0.0000     0.0000 </r>
        <r>   -11.7837     0.0000     0.0000     0.0000     0.0000 </r>
        <r>   -11.7436     0.0000     0.0006    29.4510     0.0005 </r>
        <r>   -11.7035     0.0124     0.0062    18.0503     0.0005 </r>
        <r>   -11.6634     0.0000     0.0000     0.0000     0.0000 </r>
        <r>   -11.6232     0.0000     0.0000     0.0000     0.0000 </r>
        <r>   -11.5831     0.0000     0.0095    18.1265     0.0016 </r>
        <r>   -11.5430     0.0000     0.0000     0.0000     0.0000 </r>
        <r>   -11.5029     0.0000     0.0000     0.0000     0.0000 </r>
        <r>   -11.4627     0.0000     0.0000     0.0000     0.0000 </r>
        <r>   -11.4226     0.0000     0.0000     0.0000     0.0000 </r>
        <r>   -11.3825     0.0000     0.0000     0.0000     0.0000 </r>
        <r>   -11.3424     0.0000     0.0000     0.0000     0.0000 </r>
        <r>   -11.3022     0.0000     0.0000     0.0000     0.0000 </r>
        <r>   -11.2621     0.0000     0.0000     0.0000     0.0000 </r>
        <r>   -11.2220     0.0000     0.0000     0.0000     0.0000 </r>
        <r>   -11.1819     0.0000     0.0000     0.0000     0.0000 </r>
        <r>   -11.1418     0.0000     0.0000     0.0000     0.0000 </r>
        <r>   -11.1016     0.0000     0.0000     0.0000     0.0000 </r>
        <r>   -11.0615     0.0000     0.0000     0.0000     0.0000 </r>
        <r>   -11.0214     0.0000     0.0000     0.0000     0.0000 </r>
        <r>   -10.9813     0.0000     0.0000     0.0000     0.0000 </r>
        <r>   -10.9411     0.0000     0.0000     0.0000     0.0000 </r>
        <r>   -10.9010     0.0000     0.0000     0.0000     0.0000 </r>
        <r>   -10.8609     0.0000     0.0000     0.0000     0.0000 </r>
        <r>   -10.8208     0.0000     0.0000     0.0000     0.0000 </r>
        <r>   -10.7806     0.0000     0.0000     0.0000     0.0000 </r>
        <r>   -10.7405     0.0000     0.0000     0.0000     0.0000 </r>
        <r>   -10.7004     0.0000     0.0000     0.0000     0.0000 </r>
        <r>   -10.6603     0.0000     0.0000     0.0000     0.0000 </r>
        <r>   -10.6202     0.0000     0.0000     0.0000     0.0000 </r>
        <r>   -10.5800     0.0000     0.0000     0.0000     0.0000 </r>
        <r>   -10.5399     0.0000     0.0000     0.0000     0.0000 </r>
        <r>   -10.4998     0.0000     0.0000     0.0000     0.0000 </r>
        <r>   -10.4597     0.0000     0.0000     0.0000     0.0000 </r>
        <r>   -10.4195     0.0000     0.0000     0.0000     0.0000 </r>
        <r>   -10.3794     0.0000     0.0000     0.0000     0.0000 </r>
        <r>   -10.3393     0.0000     0.0000     0.0000     0.0000 </r>
        <r>   -10.2992     0.0000     0.0000     0.0000     0.0000 </r>
        <r>   -10.2590     0.0000     0.0000     0.0000     0.0000 </r>
        <r>   -10.2189     0.0000     0.0000     0.0000     0.0000 </r>
        <r>   -10.1788     0.0000     0.0000     0.0000     0.0000 </r>
        <r>   -10.1387     0.0000     0.0000     0.0000     0.0000 </r>
        <r>   -10.0986     0.0000     0.0000     0.0000     0.0000 </r>
        <r>   -10.0584     0.0000     0.0000     0.0000     0.0000 </r>
        <r>   -10.0183     0.0000     0.0000     0.0000     0.0000 </r>
        <r>    -9.9782     0.0000     0.0000     0.0000     0.0000 </r>
        <r>    -9.9381     0.0000     0.0000     0.0000     0.0000 </r>
        <r>    -9.8979     0.0000     0.0000     0.0000     0.0000 </r>
        <r>    -9.8578     0.0000     0.0000     0.0000     0.0000 </r>
        <r>    -9.8177     0.0000     0.0000     0.0000     0.0000 </r>
        <r>    -9.7776     0.0000     0.0000     0.0000     0.0000 </r>
        <r>    -9.7374     0.0000     0.0000     0.0000     0.0000 </r>
        <r>    -9.6973     0.0000     0.0000     0.0000     0.0000 </r>
        <r>    -9.6572     0.0000     0.0000     0.0000     0.0000 </r>
        <r>    -9.6171     0.0000     0.0000     0.0000     0.0000 </r>
        <r>    -9.5770     0.0000     0.0000     0.0000     0.0000 </r>
        <r>    -9.5368     0.0000     0.0000     0.0000     0.0000 </r>
        <r>    -9.4967     0.0000     0.0000     0.0000     0.0000 </r>
        <r>    -9.4566     0.0000     0.0000     0.0000     0.0000 </r>
        <r>    -9.4165     0.0000     0.0000     0.0000     0.0000 </r>
        <r>    -9.3763     0.0000     0.0000     0.0000     0.0000 </r>
        <r>    -9.3362     0.0000     0.0000     0.0000     0.0000 </r>
        <r>    -9.2961     0.0000     0.0000     0.0000     0.0000 </r>
        <r>    -9.2560     0.0000     0.0000     0.0000     0.0000 </r>
        <r>    -9.2158     0.0000     0.0000     0.0000     0.0000 </r>
        <r>    -9.1757     0.0000     0.0000     0.0000     0.0000 </r>
        <r>    -9.1356     0.0000     0.0000     0.0000     0.0000 </r>
        <r>    -9.0955     0.0000     0.0000     0.0000     0.0000 </r>
        <r>    -9.0554     0.0000     0.0000     0.0000     0.0000 </r>
        <r>    -9.0152     0.0000     0.0000     0.0000     0.0000 </r>
        <r>    -8.9751     0.0000     0.0000     0.0000     0.0000 </r>
        <r>    -8.9350     0.0000     0.0000     0.0000     0.0000 </r>
        <r>    -8.8949     0.0000     0.0000     0.0000     0.0000 </r>
        <r>    -8.8547     0.0000     0.0000     0.0000     0.0000 </r>
        <r>    -8.8146     0.0000     0.0000     0.0000     0.0000 </r>
        <r>    -8.7745     0.0000     0.0000     0.0000     0.0000 </r>
        <r>    -8.7344     0.0000     0.0000     0.0000     0.0000 </r>
        <r>    -8.6942     0.0000     0.0000     0.0000     0.0000 </r>
        <r>    -8.6541     0.0000     0.0000     0.0000     0.0000 </r>
        <r>    -8.6140     0.0000     0.0000     0.0000     0.0000 </r>
        <r>    -8.5739     0.0000     0.0000     0.0000     0.0000 </r>
        <r>    -8.5338     0.0000     0.0000     0.0000     0.0000 </r>
        <r>    -8.4936     0.0000     0.0000     0.0000     0.0000 </r>
        <r>    -8.4535     0.0000     0.0000     0.0000     0.0000 </r>
        <r>    -8.4134     0.0000     0.0000     0.0000     0.0000 </r>
        <r>    -8.3733     0.0000     0.0000     0.0000     0.0000 </r>
        <r>    -8.3331     0.0000     0.0000     0.0000     0.0000 </r>
        <r>    -8.2930     0.0000     0.0000     0.0000     0.0000 </r>
        <r>    -8.2529     0.0000     0.0000     0.0000     0.0000 </r>
        <r>    -8.2128     0.0000     0.0000     0.0000     0.0000 </r>
        <r>    -8.1726     0.0000     0.0000     0.0000     0.0000 </r>
        <r>    -8.1325     0.0000     0.0000     0.0000     0.0000 </r>
        <r>    -8.0924     0.0000     0.0000     0.0000     0.0000 </r>
        <r>    -8.0523     2.5741     0.2399     0.1483     0.0004 </r>
        <r>    -8.0122     0.0000     0.0000     0.0000     0.0000 </r>
        <r>    -7.9720     0.0000     0.0000     0.0000     0.0000 </r>
        <r>    -7.9319     0.0000     0.0000     0.0000     0.0000 </r>
        <r>    -7.8918     0.0000     0.0000     0.0000     0.0000 </r>
        <r>    -7.8517     0.0000     0.0000     0.0000     0.0000 </r>
        <r>    -7.8115     0.0000     0.0000     0.0000     0.0000 </r>
        <r>    -7.7714     0.0000     0.0000     0.0000     0.0000 </r>
        <r>    -7.7313     0.0000     0.0000     0.0000     0.0000 </r>
        <r>    -7.6912     0.0000     0.0000     0.0000     0.0000 </r>
        <r>    -7.6511     0.0000     0.0000     0.0000     0.0000 </r>
        <r>    -7.6109     0.0000     0.0000     0.0000     0.0000 </r>
        <r>    -7.5708     0.0000     0.0000     0.0000     0.0000 </r>
        <r>    -7.5307     0.0000     0.0000     0.0000     0.0000 </r>
        <r>    -7.4906     0.0000     0.0000     0.0000     0.0000 </r>
        <r>    -7.4504     0.0000     0.0000     0.0000     0.0000 </r>
        <r>    -7.4103     0.0000     0.0000     0.0000     0.0000 </r>
        <r>    -7.3702     0.0000     0.0000     0.0000     0.0000 </r>
        <r>    -7.3301     0.0000     0.0000     0.0000     0.0000 </r>
        <r>    -7.2899     0.0000     0.0000     0.0000     0.0000 </r>
        <r>    -7.2498     0.0000     0.0000     0.0000     0.0000 </r>
        <r>    -7.2097     0.0000     0.0000     0.0000     0.0000 </r>
        <r>    -7.1696     0.0000     0.0000     0.0000     0.0000 </r>
        <r>    -7.1295     0.0000     0.0000     0.0000     0.0000 </r>
        <r>    -7.0893     0.0000     0.0000     0.0000     0.0000 </r>
        <r>    -7.0492     0.0000     0.0000     0.0000     0.0000 </r>
        <r>    -7.0091     0.0000     0.0000     0.0000     0.0000 </r>
        <r>    -6.9690     0.0000     0.0000     0.0000     0.0000 </r>
        <r>    -6.9288     0.0000     0.0000     0.0000     0.0000 </r>
        <r>    -6.8887     0.0000     0.0000     0.0000     0.0000 </r>
        <r>    -6.8486     0.0000     0.0000     0.0000     0.0000 </r>
        <r>    -6.8085     0.0000     0.0000     0.0000     0.0000 </r>
        <r>    -6.7683     0.0000     0.0000     0.0000     0.0000 </r>
        <r>    -6.7282     0.0000     0.0000     0.0000     0.0000 </r>
        <r>    -6.6881     0.0000     0.0000     0.0000     0.0000 </r>
        <r>    -6.6480     0.0000     0.0000     0.0000     0.0000 </r>
        <r>    -6.6079     0.0000     0.0000     0.0000     0.0000 </r>
        <r>    -6.5677     0.0000     0.0000     0.0000     0.0000 </r>
        <r>    -6.5276     0.0000     0.0000     0.0000     0.0000 </r>
        <r>    -6.4875     0.0000     0.0000     0.0000     0.0000 </r>
        <r>    -6.4474     0.0000     0.0000     0.0000     0.0000 </r>
        <r>    -6.4072     0.0000     0.0000     0.0000     0.0000 </r>
        <r>    -6.3671     0.0000     0.0000     0.0000     0.0000 </r>
        <r>    -6.3270     0.0000     0.0000     0.0000     0.0000 </r>
        <r>    -6.2869     0.0000     0.0000     0.0000     0.0000 </r>
        <r>    -6.2467     0.0000     0.0000     0.0000     0.0000 </r>
        <r>    -6.2066     0.0000     0.0000     0.0000     0.0000 </r>
        <r>    -6.1665     0.0000     0.0000     0.0000     0.0000 </r>
        <r>    -6.1264     0.0000     0.0000     0.0000     0.0000 </r>
        <r>    -6.0863     0.0000     0.0000     0.0000     0.0000 </r>
        <r>    -6.0461     0.0000     0.0000     0.0000     0.0000 </r>
        <r>    -6.0060     0.0000     0.0000     0.0000     0.0000 </r>
        <r>    -5.9659     0.0000     0.0000     0.0000     0.0000 </r>
        <r>    -5.9258     0.0000     0.0000     0.0000     0.0000 </r>
        <r>    -5.8856     0.0000     0.0000     0.0000     0.0000 </r>
        <r>    -5.8455     0.0000     0.0000     0.0000     0.0000 </r>
        <r>    -5.8054     0.0000     0.0000     0.0000     0.0000 </r>
        <r>    -5.7653     0.0000     0.0000     0.0000     0.0000 </r>
        <r>    -5.7251     0.0000     0.0000     0.0000     0.0000 </r>
        <r>    -5.6850     0.0000     0.0000     0.0000     0.0000 </r>
        <r>    -5.6449     0.0000     0.0000     0.0000     0.0000 </r>
        <r>    -5.6048     0.0000     0.0000     0.0000     0.0000 </r>
        <r>    -5.5647     0.0000     0.0000     0.0000     0.0000 </r>
        <r>    -5.5245     0.0000     0.0000     0.0000     0.0000 </r>
        <r>    -5.4844     0.0000     0.0000     0.0000     0.0000 </r>
        <r>    -5.4443     0.0000     0.0000     0.0000     0.0000 </r>
        <r>    -5.4042     0.0000     0.0000     0.0000     0.0000 </r>
        <r>    -5.3640     0.0000     0.0000     0.0000     0.0000 </r>
        <r>    -5.3239     0.0000     0.0000     0.0000     0.0000 </r>
        <r>    -5.2838     0.0000     0.0000     0.0000     0.0000 </r>
        <r>    -5.2437     0.0000     0.0000     0.0000     0.0000 </r>
        <r>    -5.2035     0.0000     0.0000     0.0000     0.0000 </r>
        <r>    -5.1634     3.5979     0.1999     0.0836     0.0030 </r>
        <r>    -5.1233     4.2667     0.4232     0.1845     0.0066 </r>
        <r>    -5.0832     0.0000     0.0000     0.0000     0.0000 </r>
        <r>    -5.0431     0.0000     0.0000     0.0000     0.0000 </r>
        <r>    -5.0029     0.0000     0.0000     0.0000     0.0000 </r>
        <r>    -4.9628     0.0000     0.0000     0.0000     0.0000 </r>
        <r>    -4.9227     0.0000     0.0000     0.0000     0.0000 </r>
        <r>    -4.8826     0.0000     0.0000     0.0000     0.0000 </r>
        <r>    -4.8424     0.0000     0.0000     0.0000     0.0000 </r>
        <r>    -4.8023     0.0000     0.0000     0.0000     0.0000 </r>
        <r>    -4.7622     0.0000     0.0000     0.0000     0.0000 </r>
        <r>    -4.7221     0.0000     0.0000     0.0000     0.0000 </r>
        <r>    -4.6819     0.0000     0.0000     0.0000     0.0000 </r>
        <r>    -4.6418     0.0000     0.0000     0.0000     0.0000 </r>
        <r>    -4.6017     0.0000     0.0000     0.0000     0.0000 </r>
        <r>    -4.5616     0.0000     0.0000     0.0000     0.0000 </r>
        <r>    -4.5215     0.0000     0.0000     0.0000     0.0000 </r>
        <r>    -4.4813     0.0000     0.0000     0.0000     0.0000 </r>
        <r>    -4.4412     0.0000     0.0000     0.0000     0.0000 </r>
        <r>    -4.4011     0.0000     0.0000     0.0000     0.0000 </r>
        <r>    -4.3610     0.0000     0.0000     0.0000     0.0000 </r>
        <r>    -4.3208     0.0000     0.0000     0.0000     0.0000 </r>
        <r>    -4.2807     0.0000     0.0000     0.0000     0.0000 </r>
        <r>    -4.2406     0.0000     0.0000     0.0000     0.0000 </r>
        <r>    -4.2005     0.0000     0.0000     0.0000     0.0000 </r>
        <r>    -4.1603     0.0000     0.0000     0.0000     0.0000 </r>
        <r>    -4.1202     0.0000     0.0000     0.0000     0.0000 </r>
        <r>    -4.0801     0.0000     0.0000     0.0000     0.0000 </r>
        <r>    -4.0400     0.0000     0.0000     0.0000     0.0000 </r>
        <r>    -3.9999     0.0000     0.0000     0.0000     0.0000 </r>
        <r>    -3.9597     0.0000     0.0000     0.0000     0.0000 </r>
        <r>    -3.9196     0.0000     0.0000     0.0000     0.0000 </r>
        <r>    -3.8795     0.0000     0.0000     0.0000     0.0000 </r>
        <r>    -3.8394     0.0000     0.0000     0.0000     0.0000 </r>
        <r>    -3.7992     0.0000     0.0000     0.0000     0.0000 </r>
        <r>    -3.7591     0.0000     0.0000     0.0000     0.0000 </r>
        <r>    -3.7190     0.0000     0.0000     0.0000     0.0000 </r>
        <r>    -3.6789     0.0000     0.0000     0.0000     0.0000 </r>
        <r>    -3.6387     0.0000     0.0000     0.0000     0.0000 </r>
        <r>    -3.5986     0.0000     0.0000     0.0000     0.0000 </r>
        <r>    -3.5585     0.0000     0.0000     0.0000     0.0000 </r>
        <r>    -3.5184     0.0000     0.0000     0.0000     0.0000 </r>
        <r>    -3.4783     0.0000     0.0000     0.0000     0.0000 </r>
        <r>    -3.4381     0.0000     0.0000     0.0000     0.0000 </r>
        <r>    -3.3980     0.0000     0.0000     0.0000     0.0000 </r>
        <r>    -3.3579     0.0000     0.0000     0.0000     0.0000 </r>
        <r>    -3.3178     0.0000     0.0000     0.0000     0.0000 </r>
        <r>    -3.2776     0.0000     0.0000     0.0000     0.0000 </r>
        <r>    -3.2375     0.0000     0.0000     0.0000     0.0000 </r>
        <r>    -3.1974     0.0000     0.0000     0.0000     0.0000 </r>
        <r>    -3.1573     0.0000     0.0000     0.0000     0.0000 </r>
        <r>    -3.1171     0.0000     0.0000     0.0000     0.0000 </r>
        <r>    -3.0770     0.0000     0.0000     0.0000     0.0000 </r>
        <r>    -3.0369     0.0000     0.0000     0.0000     0.0000 </r>
        <r>    -2.9968     0.0000     0.0000     0.0000     0.0000 </r>
        <r>    -2.9567     0.0000     0.0000     0.0000     0.0000 </r>
        <r>    -2.9165     0.0000     0.0000     0.0000     0.0000 </r>
        <r>    -2.8764     0.0000     0.0000     0.0000     0.0000 </r>
        <r>    -2.8363     0.0000     0.0000     0.0000     0.0000 </r>
        <r>    -2.7962     0.0000     0.0000     0.0000     0.0000 </r>
        <r>    -2.7560     0.0000     0.0000     0.0000     0.0000 </r>
        <r>    -2.7159     0.0000     0.0000     0.0000     0.0000 </r>
        <r>    -2.6758     0.0000     0.0000     0.0000     0.0000 </r>
        <r>    -2.6357     0.0000     0.0000     0.0000     0.0000 </r>
        <r>    -2.5955     0.0000     0.0000     0.0000     0.0000 </r>
        <r>    -2.5554     0.0000     0.0000     0.0000     0.0000 </r>
        <r>    -2.5153     0.0000     0.0000     0.0000     0.0000 </r>
        <r>    -2.4752     0.0000     0.0000     0.0000     0.0000 </r>
        <r>    -2.4351     0.0000     0.0000     0.0000     0.0000 </r>
        <r>    -2.3949     0.0000     0.0000     0.0000     0.0000 </r>
        <r>    -2.3548     0.0000     0.0000     0.0000     0.0000 </r>
        <r>    -2.3147     0.0000     0.0000     0.0000     0.0000 </r>
        <r>    -2.2746     0.0000     0.0000     0.0000     0.0000 </r>
        <r>    -2.2344     0.0000     0.0000     0.0000     0.0000 </r>
        <r>    -2.1943     0.0777     1.5112     0.0643     0.0032 </r>
        <r>    -2.1542     0.0000     0.0000     0.0000     0.0000 </r>
        <r>    -2.1141     0.0000     0.0000     0.0000     0.0000 </r>
        <r>    -2.0739     0.0000     0.0000     0.0000     0.0000 </r>
        <r>    -2.0338     0.0000     0.0000     0.0000     0.0000 </r>
        <r>    -1.9937     0.0000     0.0000     0.0000     0.0000 </r>
        <r>    -1.9536     0.0000     0.0000     0.0000     0.0000 </r>
        <r>    -1.9135     0.0000     0.0000     0.0000     0.0000 </r>
        <r>    -1.8733     0.0000     0.0000     0.0000     0.0000 </r>
        <r>    -1.8332     0.0000     0.0000     0.0000     0.0000 </r>
        <r>    -1.7931     0.0000     0.0000     0.0000     0.0000 </r>
        <r>    -1.7530     0.5474     3.9511     0.1016     0.0103 </r>
        <r>    -1.7128     0.0000     0.0000     0.0000     0.0000 </r>
        <r>    -1.6727     0.0000     0.0000     0.0000     0.0000 </r>
        <r>    -1.6326     0.0000     0.0000     0.0000     0.0000 </r>
        <r>    -1.5925     0.0000     0.0000     0.0000     0.0000 </r>
        <r>    -1.5523     0.0000     0.0000     0.0000     0.0000 </r>
        <r>    -1.5122     0.0000     0.0000     0.0000     0.0000 </r>
        <r>    -1.4721     0.0000     0.0000     0.0000     0.0000 </r>
        <r>    -1.4320     0.0000     0.0000     0.0000     0.0000 </r>
        <r>    -1.3919     0.0000     0.0000     0.0000     0.0000 </r>
        <r>    -1.3517     0.0000     0.0092     0.0003     0.0000 </r>
        <r>    -1.3116     0.0000     2.5471     0.0903     0.0091 </r>
        <r>    -1.2715     0.0000     0.0000     0.0000     0.0000 </r>
        <r>    -1.2314     0.0000     0.0000     0.0000     0.0000 </r>
        <r>    -1.1912     0.0000     0.0000     0.0000     0.0000 </r>
        <r>    -1.1511     0.0000     0.0000     0.0000     0.0000 </r>
        <r>    -1.1110     0.0000     0.0000     0.0000     0.0000 </r>
        <r>    -1.0709     0.0000     0.0000     0.0000     0.0000 </r>
        <r>    -1.0307     0.0000     0.0000     0.0000     0.0000 </r>
        <r>    -0.9906     0.0000     0.0000     0.0000     0.0000 </r>
        <r>    -0.9505     0.0000     0.0000     0.0000     0.0000 </r>
        <r>    -0.9104     0.0000     0.0000     0.0000     0.0000 </r>
        <r>    -0.8703     0.0000     0.0000     0.0000     0.0000 </r>
        <r>    -0.8301     0.0000     0.0000     0.0000     0.0000 </r>
        <r>    -0.7900     0.0000     0.0000     0.0000     0.0000 </r>
       </set>
       <set comment="spin 2">
        <r>   -12.8269     0.0000     0.0000     0.0000     0.0000 </r>
        <r>   -12.7868     0.0000     0.0000     0.0000     0.0000 </r>
        <r>   -12.7467     0.0000     0.0000     0.0000     0.0000 </r>
        <r>   -12.7066     0.0000     0.0000     0.0000     0.0000 </r>
        <r>   -12.6664     0.0000     0.0000     0.0000     0.0000 </r>
        <r>   -12.6263     0.0000     0.0000     0.0000     0.0000 </r>
        <r>   -12.5862     0.0000     0.0000     0.0000     0.0000 </r>
        <r>   -12.5461     0.0000     0.0000     0.0000     0.0000 </r>
        <r>   -12.5059     0.0000     0.0000     0.0000     0.0000 </r>
        <r>   -12.4658     0.0000     0.0000     0.0000     0.0000 </r>
        <r>   -12.4257     0.0000     0.0000     0.0000     0.0000 </r>
        <r>   -12.3856     0.0000     0.0000     0.0000     0.0000 </r>
        <r>   -12.3454     0.0000     0.0000     0.0000     0.0000 </r>
        <r>   -12.3053     0.0000     0.0000     0.0000     0.0000 </r>
        <r>   -12.2652     0.0442     0.0248     5.7356     0.0012 </r>
        <r>   -12.2251     0.0000     0.0000     0.0000     0.0000 </r>
        <r>   -12.1850     0.0000     0.0000     0.0000     0.0000 </r>
        <r>   -12.1448     0.0000     0.0000     0.0000     0.0000 </r>
        <r>   -12.1047     0.0008     0.0004     0.3202     0.0000 </r>
        <r>   -12.0646     0.0393     0.0231    19.2305     0.0026 </r>
        <r>   -12.0245     0.0001     0.0052    10.0888     0.0012 </r>
        <r>   -11.9843     0.0000     0.0000     0.0000     0.0000 </r>
        <r>   -11.9442     0.0000     0.0000     0.0000     0.0000 </r>
        <r>   -11.9041     0.0031     0.0006     5.9723     0.0002 </r>
        <r>   -11.8640     0.0067     0.0012    12.0728     0.0005 </r>
        <r>   -11.8238     0.0000     0.0000     0.0000     0.0000 </r>
        <r>   -11.7837     0.0000     0.0000     0.0000     0.0000 </r>
        <r>   -11.7436     0.0000     0.0006    29.4504     0.0005 </r>
        <r>   -11.7035     0.0124     0.0062    18.0503     0.0005 </r>
        <r>   -11.6634     0.0000     0.0000     0.0000     0.0000 </r>
        <r>   -11.6232     0.0000     0.0000     0.0000     0.0000 </r>
        <r>   -11.5831     0.0000     0.0095    18.1265     0.0016 </r>
        <r>   -11.5430     0.0000     0.0000     0.0000     0.0000 </r>
        <r>   -11.5029     0.0000     0.0000     0.0000     0.0000 </r>
        <r>   -11.4627     0.0000     0.0000     0.0000     0.0000 </r>
        <r>   -11.4226     0.0000     0.0000     0.0000     0.0000 </r>
        <r>   -11.3825     0.0000     0.0000     0.0000     0.0000 </r>
        <r>   -11.3424     0.0000     0.0000     0.0000     0.0000 </r>
        <r>   -11.3022     0.0000     0.0000     0.0000     0.0000 </r>
        <r>   -11.2621     0.0000     0.0000     0.0000     0.0000 </r>
        <r>   -11.2220     0.0000     0.0000     0.0000     0.0000 </r>
        <r>   -11.1819     0.0000     0.0000     0.0000     0.0000 </r>
        <r>   -11.1418     0.0000     0.0000     0.0000     0.0000 </r>
        <r>   -11.1016     0.0000     0.0000     0.0000     0.0000 </r>
        <r>   -11.0615     0.0000     0.0000     0.0000     0.0000 </r>
        <r>   -11.0214     0.0000     0.0000     0.0000     0.0000 </r>
        <r>   -10.9813     0.0000     0.0000     0.0000     0.0000 </r>
        <r>   -10.9411     0.0000     0.0000     0.0000     0.0000 </r>
        <r>   -10.9010     0.0000     0.0000     0.0000     0.0000 </r>
        <r>   -10.8609     0.0000     0.0000     0.0000     0.0000 </r>
        <r>   -10.8208     0.0000     0.0000     0.0000     0.0000 </r>
        <r>   -10.7806     0.0000     0.0000     0.0000     0.0000 </r>
        <r>   -10.7405     0.0000     0.0000     0.0000     0.0000 </r>
        <r>   -10.7004     0.0000     0.0000     0.0000     0.0000 </r>
        <r>   -10.6603     0.0000     0.0000     0.0000     0.0000 </r>
        <r>   -10.6202     0.0000     0.0000     0.0000     0.0000 </r>
        <r>   -10.5800     0.0000     0.0000     0.0000     0.0000 </r>
        <r>   -10.5399     0.0000     0.0000     0.0000     0.0000 </r>
        <r>   -10.4998     0.0000     0.0000     0.0000     0.0000 </r>
        <r>   -10.4597     0.0000     0.0000     0.0000     0.0000 </r>
        <r>   -10.4195     0.0000     0.0000     0.0000     0.0000 </r>
        <r>   -10.3794     0.0000     0.0000     0.0000     0.0000 </r>
        <r>   -10.3393     0.0000     0.0000     0.0000     0.0000 </r>
        <r>   -10.2992     0.0000     0.0000     0.0000     0.0000 </r>
        <r>   -10.2590     0.0000     0.0000     0.0000     0.0000 </r>
        <r>   -10.2189     0.0000     0.0000     0.0000     0.0000 </r>
        <r>   -10.1788     0.0000     0.0000     0.0000     0.0000 </r>
        <r>   -10.1387     0.0000     0.0000     0.0000     0.0000 </r>
        <r>   -10.0986     0.0000     0.0000     0.0000     0.0000 </r>
        <r>   -10.0584     0.0000     0.0000     0.0000     0.0000 </r>
        <r>   -10.0183     0.0000     0.0000     0.0000     0.0000 </r>
        <r>    -9.9782     0.0000     0.0000     0.0000     0.0000 </r>
        <r>    -9.9381     0.0000     0.0000     0.0000     0.0000 </r>
        <r>    -9.8979     0.0000     0.0000     0.0000     0.0000 </r>
        <r>    -9.8578     0.0000     0.0000     0.0000     0.0000 </r>
        <r>    -9.8177     0.0000     0.0000     0.0000     0.0000 </r>
        <r>    -9.7776     0.0000     0.0000     0.0000     0.0000 </r>
        <r>    -9.7374     0.0000     0.0000     0.0000     0.0000 </r>
        <r>    -9.6973     0.0000     0.0000     0.0000     0.0000 </r>
        <r>    -9.6572     0.0000     0.0000     0.0000     0.0000 </r>
        <r>    -9.6171     0.0000     0.0000     0.0000     0.0000 </r>
        <r>    -9.5770     0.0000     0.0000     0.0000     0.0000 </r>
        <r>    -9.5368     0.0000     0.0000     0.0000     0.0000 </r>
        <r>    -9.4967     0.0000     0.0000     0.0000     0.0000 </r>
        <r>    -9.4566     0.0000     0.0000     0.0000     0.0000 </r>
        <r>    -9.4165     0.0000     0.0000     0.0000     0.0000 </r>
        <r>    -9.3763     0.0000     0.0000     0.0000     0.0000 </r>
        <r>    -9.3362     0.0000     0.0000     0.0000     0.0000 </r>
        <r>    -9.2961     0.0000     0.0000     0.0000     0.0000 </r>
        <r>    -9.2560     0.0000     0.0000     0.0000     0.0000 </r>
        <r>    -9.2158     0.0000     0.0000     0.0000     0.0000 </r>
        <r>    -9.1757     0.0000     0.0000     0.0000     0.0000 </r>
        <r>    -9.1356     0.0000     0.0000     0.0000     0.0000 </r>
        <r>    -9.0955     0.0000     0.0000     0.0000     0.0000 </r>
        <r>    -9.0554     0.0000     0.0000     0.0000     0.0000 </r>
        <r>    -9.0152     0.0000     0.0000     0.0000     0.0000 </r>
        <r>    -8.9751     0.0000     0.0000     0.0000     0.0000 </r>
        <r>    -8.9350     0.0000     0.0000     0.0000     0.0000 </r>
        <r>    -8.8949     0.0000     0.0000     0.0000     0.0000 </r>
        <r>    -8.8547     0.0000     0.0000     0.0000     0.0000 </r>
        <r>    -8.8146     0.0000     0.0000     0.0000     0.0000 </r>
        <r>    -8.7745     0.0000     0.0000     0.0000     0.0000 </r>
        <r>    -8.7344     0.0000     0.0000     0.0000     0.0000 </r>
        <r>    -8.6942     0.0000     0.0000     0.0000     0.0000 </r>
        <r>    -8.6541     0.0000     0.0000     0.0000     0.0000 </r>
        <r>    -8.6140     0.0000     0.0000     0.0000     0.0000 </r>
        <r>    -8.5739     0.0000     0.0000     0.0000     0.0000 </r>
        <r>    -8.5338     0.0000     0.0000     0.0000     0.0000 </r>
        <r>    -8.4936     0.0000     0.0000     0.0000     0.0000 </r>
        <r>    -8.4535     0.0000     0.0000     0.0000     0.0000 </r>
        <r>    -8.4134     0.0000     0.0000     0.0000     0.0000 </r>
        <r>    -8.3733     0.0000     0.0000     0.0000     0.0000 </r>
        <r>    -8.3331     0.0000     0.0000     0.0000     0.0000 </r>
        <r>    -8.2930     0.0000     0.0000     0.0000     0.0000 </r>
        <r>    -8.2529     0.0000     0.0000     0.0000     0.0000 </r>
        <r>    -8.2128     0.0000     0.0000     0.0000     0.0000 </r>
        <r>    -8.1726     0.0000     0.0000     0.0000     0.0000 </r>
        <r>    -8.1325     0.0000     0.0000     0.0000     0.0000 </r>
        <r>    -8.0924     0.0000     0.0000     0.0000     0.0000 </r>
        <r>    -8.0523     2.5741     0.2399     0.1483     0.0004 </r>
        <r>    -8.0122     0.0000     0.0000     0.0000     0.0000 </r>
        <r>    -7.9720     0.0000     0.0000     0.0000     0.0000 </r>
        <r>    -7.9319     0.0000     0.0000     0.0000     0.0000 </r>
        <r>    -7.8918     0.0000     0.0000     0.0000     0.0000 </r>
        <r>    -7.8517     0.0000     0.0000     0.0000     0.0000 </r>
        <r>    -7.8115     0.0000     0.0000     0.0000     0.0000 </r>
        <r>    -7.7714     0.0000     0.0000     0.0000     0.0000 </r>
        <r>    -7.7313     0.0000     0.0000     0.0000     0.0000 </r>
        <r>    -7.6912     0.0000     0.0000     0.0000     0.0000 </r>
        <r>    -7.6511     0.0000     0.0000     0.0000     0.0000 </r>
        <r>    -7.6109     0.0000     0.0000     0.0000     0.0000 </r>
        <r>    -7.5708     0.0000     0.0000     0.0000     0.0000 </r>
        <r>    -7.5307     0.0000     0.0000     0.0000     0.0000 </r>
        <r>    -7.4906     0.0000     0.0000     0.0000     0.0000 </r>
        <r>    -7.4504     0.0000     0.0000     0.0000     0.0000 </r>
        <r>    -7.4103     0.0000     0.0000     0.0000     0.0000 </r>
        <r>    -7.3702     0.0000     0.0000     0.0000     0.0000 </r>
        <r>    -7.3301     0.0000     0.0000     0.0000     0.0000 </r>
        <r>    -7.2899     0.0000     0.0000     0.0000     0.0000 </r>
        <r>    -7.2498     0.0000     0.0000     0.0000     0.0000 </r>
        <r>    -7.2097     0.0000     0.0000     0.0000     0.0000 </r>
        <r>    -7.1696     0.0000     0.0000     0.0000     0.0000 </r>
        <r>    -7.1295     0.0000     0.0000     0.0000     0.0000 </r>
        <r>    -7.0893     0.0000     0.0000     0.0000     0.0000 </r>
        <r>    -7.0492     0.0000     0.0000     0.0000     0.0000 </r>
        <r>    -7.0091     0.0000     0.0000     0.0000     0.0000 </r>
        <r>    -6.9690     0.0000     0.0000     0.0000     0.0000 </r>
        <r>    -6.9288     0.0000     0.0000     0.0000     0.0000 </r>
        <r>    -6.8887     0.0000     0.0000     0.0000     0.0000 </r>
        <r>    -6.8486     0.0000     0.0000     0.0000     0.0000 </r>
        <r>    -6.8085     0.0000     0.0000     0.0000     0.0000 </r>
        <r>    -6.7683     0.0000     0.0000     0.0000     0.0000 </r>
        <r>    -6.7282     0.0000     0.0000     0.0000     0.0000 </r>
        <r>    -6.6881     0.0000     0.0000     0.0000     0.0000 </r>
        <r>    -6.6480     0.0000     0.0000     0.0000     0.0000 </r>
        <r>    -6.6079     0.0000     0.0000     0.0000     0.0000 </r>
        <r>    -6.5677     0.0000     0.0000     0.0000     0.0000 </r>
        <r>    -6.5276     0.0000     0.0000     0.0000     0.0000 </r>
        <r>    -6.4875     0.0000     0.0000     0.0000     0.0000 </r>
        <r>    -6.4474     0.0000     0.0000     0.0000     0.0000 </r>
        <r>    -6.4072     0.0000     0.0000     0.0000     0.0000 </r>
        <r>    -6.3671     0.0000     0.0000     0.0000     0.0000 </r>
        <r>    -6.3270     0.0000     0.0000     0.0000     0.0000 </r>
        <r>    -6.2869     0.0000     0.0000     0.0000     0.0000 </r>
        <r>    -6.2467     0.0000     0.0000     0.0000     0.0000 </r>
        <r>    -6.2066     0.0000     0.0000     0.0000     0.0000 </r>
        <r>    -6.1665     0.0000     0.0000     0.0000     0.0000 </r>
        <r>    -6.1264     0.0000     0.0000     0.0000     0.0000 </r>
        <r>    -6.0863     0.0000     0.0000     0.0000     0.0000 </r>
        <r>    -6.0461     0.0000     0.0000     0.0000     0.0000 </r>
        <r>    -6.0060     0.0000     0.0000     0.0000     0.0000 </r>
        <r>    -5.9659     0.0000     0.0000     0.0000     0.0000 </r>
        <r>    -5.9258     0.0000     0.0000     0.0000     0.0000 </r>
        <r>    -5.8856     0.0000     0.0000     0.0000     0.0000 </r>
        <r>    -5.8455     0.0000     0.0000     0.0000     0.0000 </r>
        <r>    -5.8054     0.0000     0.0000     0.0000     0.0000 </r>
        <r>    -5.7653     0.0000     0.0000     0.0000     0.0000 </r>
        <r>    -5.7251     0.0000     0.0000     0.0000     0.0000 </r>
        <r>    -5.6850     0.0000     0.0000     0.0000     0.0000 </r>
        <r>    -5.6449     0.0000     0.0000     0.0000     0.0000 </r>
        <r>    -5.6048     0.0000     0.0000     0.0000     0.0000 </r>
        <r>    -5.5647     0.0000     0.0000     0.0000     0.0000 </r>
        <r>    -5.5245     0.0000     0.0000     0.0000     0.0000 </r>
        <r>    -5.4844     0.0000     0.0000     0.0000     0.0000 </r>
        <r>    -5.4443     0.0000     0.0000     0.0000     0.0000 </r>
        <r>    -5.4042     0.0000     0.0000     0.0000     0.0000 </r>
        <r>    -5.3640     0.0000     0.0000     0.0000     0.0000 </r>
        <r>    -5.3239     0.0000     0.0000     0.0000     0.0000 </r>
        <r>    -5.2838     0.0000     0.0000     0.0000     0.0000 </r>
        <r>    -5.2437     0.0000     0.0000     0.0000     0.0000 </r>
        <r>    -5.2035     0.0000     0.0000     0.0000     0.0000 </r>
        <r>    -5.1634     3.5978     0.1999     0.0836     0.0030 </r>
        <r>    -5.1233     4.2668     0.4232     0.1845     0.0066 </r>
        <r>    -5.0832     0.0000     0.0000     0.0000     0.0000 </r>
        <r>    -5.0431     0.0000     0.0000     0.0000     0.0000 </r>
        <r>    -5.0029     0.0000     0.0000     0.0000     0.0000 </r>
        <r>    -4.9628     0.0000     0.0000     0.0000     0.0000 </r>
        <r>    -4.9227     0.0000     0.0000     0.0000     0.0000 </r>
        <r>    -4.8826     0.0000     0.0000     0.0000     0.0000 </r>
        <r>    -4.8424     0.0000     0.0000     0.0000     0.0000 </r>
        <r>    -4.8023     0.0000     0.0000     0.0000     0.0000 </r>
        <r>    -4.7622     0.0000     0.0000     0.0000     0.0000 </r>
        <r>    -4.7221     0.0000     0.0000     0.0000     0.0000 </r>
        <r>    -4.6819     0.0000     0.0000     0.0000     0.0000 </r>
        <r>    -4.6418     0.0000     0.0000     0.0000     0.0000 </r>
        <r>    -4.6017     0.0000     0.0000     0.0000     0.0000 </r>
        <r>    -4.5616     0.0000     0.0000     0.0000     0.0000 </r>
        <r>    -4.5215     0.0000     0.0000     0.0000     0.0000 </r>
        <r>    -4.4813     0.0000     0.0000     0.0000     0.0000 </r>
        <r>    -4.4412     0.0000     0.0000     0.0000     0.0000 </r>
        <r>    -4.4011     0.0000     0.0000     0.0000     0.0000 </r>
        <r>    -4.3610     0.0000     0.0000     0.0000     0.0000 </r>
        <r>    -4.3208     0.0000     0.0000     0.0000     0.0000 </r>
        <r>    -4.2807     0.0000     0.0000     0.0000     0.0000 </r>
        <r>    -4.2406     0.0000     0.0000     0.0000     0.0000 </r>
        <r>    -4.2005     0.0000     0.0000     0.0000     0.0000 </r>
        <r>    -4.1603     0.0000     0.0000     0.0000     0.0000 </r>
        <r>    -4.1202     0.0000     0.0000     0.0000     0.0000 </r>
        <r>    -4.0801     0.0000     0.0000     0.0000     0.0000 </r>
        <r>    -4.0400     0.0000     0.0000     0.0000     0.0000 </r>
        <r>    -3.9999     0.0000     0.0000     0.0000     0.0000 </r>
        <r>    -3.9597     0.0000     0.0000     0.0000     0.0000 </r>
        <r>    -3.9196     0.0000     0.0000     0.0000     0.0000 </r>
        <r>    -3.8795     0.0000     0.0000     0.0000     0.0000 </r>
        <r>    -3.8394     0.0000     0.0000     0.0000     0.0000 </r>
        <r>    -3.7992     0.0000     0.0000     0.0000     0.0000 </r>
        <r>    -3.7591     0.0000     0.0000     0.0000     0.0000 </r>
        <r>    -3.7190     0.0000     0.0000     0.0000     0.0000 </r>
        <r>    -3.6789     0.0000     0.0000     0.0000     0.0000 </r>
        <r>    -3.6387     0.0000     0.0000     0.0000     0.0000 </r>
        <r>    -3.5986     0.0000     0.0000     0.0000     0.0000 </r>
        <r>    -3.5585     0.0000     0.0000     0.0000     0.0000 </r>
        <r>    -3.5184     0.0000     0.0000     0.0000     0.0000 </r>
        <r>    -3.4783     0.0000     0.0000     0.0000     0.0000 </r>
        <r>    -3.4381     0.0000     0.0000     0.0000     0.0000 </r>
        <r>    -3.3980     0.0000     0.0000     0.0000     0.0000 </r>
        <r>    -3.3579     0.0000     0.0000     0.0000     0.0000 </r>
        <r>    -3.3178     0.0000     0.0000     0.0000     0.0000 </r>
        <r>    -3.2776     0.0000     0.0000     0.0000     0.0000 </r>
        <r>    -3.2375     0.0000     0.0000     0.0000     0.0000 </r>
        <r>    -3.1974     0.0000     0.0000     0.0000     0.0000 </r>
        <r>    -3.1573     0.0000     0.0000     0.0000     0.0000 </r>
        <r>    -3.1171     0.0000     0.0000     0.0000     0.0000 </r>
        <r>    -3.0770     0.0000     0.0000     0.0000     0.0000 </r>
        <r>    -3.0369     0.0000     0.0000     0.0000     0.0000 </r>
        <r>    -2.9968     0.0000     0.0000     0.0000     0.0000 </r>
        <r>    -2.9567     0.0000     0.0000     0.0000     0.0000 </r>
        <r>    -2.9165     0.0000     0.0000     0.0000     0.0000 </r>
        <r>    -2.8764     0.0000     0.0000     0.0000     0.0000 </r>
        <r>    -2.8363     0.0000     0.0000     0.0000     0.0000 </r>
        <r>    -2.7962     0.0000     0.0000     0.0000     0.0000 </r>
        <r>    -2.7560     0.0000     0.0000     0.0000     0.0000 </r>
        <r>    -2.7159     0.0000     0.0000     0.0000     0.0000 </r>
        <r>    -2.6758     0.0000     0.0000     0.0000     0.0000 </r>
        <r>    -2.6357     0.0000     0.0000     0.0000     0.0000 </r>
        <r>    -2.5955     0.0000     0.0000     0.0000     0.0000 </r>
        <r>    -2.5554     0.0000     0.0000     0.0000     0.0000 </r>
        <r>    -2.5153     0.0000     0.0000     0.0000     0.0000 </r>
        <r>    -2.4752     0.0000     0.0000     0.0000     0.0000 </r>
        <r>    -2.4351     0.0000     0.0000     0.0000     0.0000 </r>
        <r>    -2.3949     0.0000     0.0000     0.0000     0.0000 </r>
        <r>    -2.3548     0.0000     0.0000     0.0000     0.0000 </r>
        <r>    -2.3147     0.0000     0.0000     0.0000     0.0000 </r>
        <r>    -2.2746     0.0000     0.0000     0.0000     0.0000 </r>
        <r>    -2.2344     0.0000     0.0000     0.0000     0.0000 </r>
        <r>    -2.1943     0.0777     1.5112     0.0643     0.0032 </r>
        <r>    -2.1542     0.0000     0.0000     0.0000     0.0000 </r>
        <r>    -2.1141     0.0000     0.0000     0.0000     0.0000 </r>
        <r>    -2.0739     0.0000     0.0000     0.0000     0.0000 </r>
        <r>    -2.0338     0.0000     0.0000     0.0000     0.0000 </r>
        <r>    -1.9937     0.0000     0.0000     0.0000     0.0000 </r>
        <r>    -1.9536     0.0000     0.0000     0.0000     0.0000 </r>
        <r>    -1.9135     0.0000     0.0000     0.0000     0.0000 </r>
        <r>    -1.8733     0.0000     0.0000     0.0000     0.0000 </r>
        <r>    -1.8332     0.0000     0.0000     0.0000     0.0000 </r>
        <r>    -1.7931     0.0000     0.0000     0.0000     0.0000 </r>
        <r>    -1.7530     0.5474     3.9511     0.1016     0.0103 </r>
        <r>    -1.7128     0.0000     0.0000     0.0000     0.0000 </r>
        <r>    -1.6727     0.0000     0.0000     0.0000     0.0000 </r>
        <r>    -1.6326     0.0000     0.0000     0.0000     0.0000 </r>
        <r>    -1.5925     0.0000     0.0000     0.0000     0.0000 </r>
        <r>    -1.5523     0.0000     0.0000     0.0000     0.0000 </r>
        <r>    -1.5122     0.0000     0.0000     0.0000     0.0000 </r>
        <r>    -1.4721     0.0000     0.0000     0.0000     0.0000 </r>
        <r>    -1.4320     0.0000     0.0000     0.0000     0.0000 </r>
        <r>    -1.3919     0.0000     0.0000     0.0000     0.0000 </r>
        <r>    -1.3517     0.0000     0.0093     0.0003     0.0000 </r>
        <r>    -1.3116     0.0000     2.5470     0.0903     0.0091 </r>
        <r>    -1.2715     0.0000     0.0000     0.0000     0.0000 </r>
        <r>    -1.2314     0.0000     0.0000     0.0000     0.0000 </r>
        <r>    -1.1912     0.0000     0.0000     0.0000     0.0000 </r>
        <r>    -1.1511     0.0000     0.0000     0.0000     0.0000 </r>
        <r>    -1.1110     0.0000     0.0000     0.0000     0.0000 </r>
        <r>    -1.0709     0.0000     0.0000     0.0000     0.0000 </r>
        <r>    -1.0307     0.0000     0.0000     0.0000     0.0000 </r>
        <r>    -0.9906     0.0000     0.0000     0.0000     0.0000 </r>
        <r>    -0.9505     0.0000     0.0000     0.0000     0.0000 </r>
        <r>    -0.9104     0.0000     0.0000     0.0000     0.0000 </r>
        <r>    -0.8703     0.0000     0.0000     0.0000     0.0000 </r>
        <r>    -0.8301     0.0000     0.0000     0.0000     0.0000 </r>
        <r>    -0.7900     0.0000     0.0000     0.0000     0.0000 </r>
       </set>
      </set>
      <set comment="ion 4">
       <set comment="spin 1">
        <r>   -12.8269     0.0000     0.0000     0.0000     0.0000 </r>
        <r>   -12.7868     0.0000     0.0000     0.0000     0.0000 </r>
        <r>   -12.7467     0.0000     0.0000     0.0000     0.0000 </r>
        <r>   -12.7066     0.0000     0.0000     0.0000     0.0000 </r>
        <r>   -12.6664     0.0000     0.0000     0.0000     0.0000 </r>
        <r>   -12.6263     0.0000     0.0000     0.0000     0.0000 </r>
        <r>   -12.5862     0.0000     0.0000     0.0000     0.0000 </r>
        <r>   -12.5461     0.0000     0.0000     0.0000     0.0000 </r>
        <r>   -12.5059     0.0000     0.0000     0.0000     0.0000 </r>
        <r>   -12.4658     0.0000     0.0000     0.0000     0.0000 </r>
        <r>   -12.4257     0.0000     0.0000     0.0000     0.0000 </r>
        <r>   -12.3856     0.0000     0.0000     0.0000     0.0000 </r>
        <r>   -12.3454     0.0000     0.0000     0.0000     0.0000 </r>
        <r>   -12.3053     0.0000     0.0000     0.0000     0.0000 </r>
        <r>   -12.2652     0.0454     0.0254     5.8187     0.0012 </r>
        <r>   -12.2251     0.0000     0.0000     0.0000     0.0000 </r>
        <r>   -12.1850     0.0000     0.0000     0.0000     0.0000 </r>
        <r>   -12.1448     0.0000     0.0000     0.0000     0.0000 </r>
        <r>   -12.1047     0.0001     0.0003     0.4443     0.0001 </r>
        <r>   -12.0646     0.0402     0.0241    20.0148     0.0027 </r>
        <r>   -12.0245     0.0001     0.0047     9.2341     0.0012 </r>
        <r>   -11.9843     0.0000     0.0000     0.0000     0.0000 </r>
        <r>   -11.9442     0.0000     0.0000     0.0000     0.0000 </r>
        <r>   -11.9041     0.0026     0.0005     6.4054     0.0003 </r>
        <r>   -11.8640     0.0074     0.0013    11.4178     0.0005 </r>
        <r>   -11.8238     0.0000     0.0000     0.0000     0.0000 </r>
        <r>   -11.7837     0.0000     0.0000     0.0000     0.0000 </r>
        <r>   -11.7436     0.0000     0.0007    29.2265     0.0005 </r>
        <r>   -11.7035     0.0126     0.0063    18.0777     0.0005 </r>
        <r>   -11.6634     0.0000     0.0000     0.0000     0.0000 </r>
        <r>   -11.6232     0.0000     0.0000     0.0000     0.0000 </r>
        <r>   -11.5831     0.0000     0.0096    18.2901     0.0016 </r>
        <r>   -11.5430     0.0000     0.0000     0.0000     0.0000 </r>
        <r>   -11.5029     0.0000     0.0000     0.0000     0.0000 </r>
        <r>   -11.4627     0.0000     0.0000     0.0000     0.0000 </r>
        <r>   -11.4226     0.0000     0.0000     0.0000     0.0000 </r>
        <r>   -11.3825     0.0000     0.0000     0.0000     0.0000 </r>
        <r>   -11.3424     0.0000     0.0000     0.0000     0.0000 </r>
        <r>   -11.3022     0.0000     0.0000     0.0000     0.0000 </r>
        <r>   -11.2621     0.0000     0.0000     0.0000     0.0000 </r>
        <r>   -11.2220     0.0000     0.0000     0.0000     0.0000 </r>
        <r>   -11.1819     0.0000     0.0000     0.0000     0.0000 </r>
        <r>   -11.1418     0.0000     0.0000     0.0000     0.0000 </r>
        <r>   -11.1016     0.0000     0.0000     0.0000     0.0000 </r>
        <r>   -11.0615     0.0000     0.0000     0.0000     0.0000 </r>
        <r>   -11.0214     0.0000     0.0000     0.0000     0.0000 </r>
        <r>   -10.9813     0.0000     0.0000     0.0000     0.0000 </r>
        <r>   -10.9411     0.0000     0.0000     0.0000     0.0000 </r>
        <r>   -10.9010     0.0000     0.0000     0.0000     0.0000 </r>
        <r>   -10.8609     0.0000     0.0000     0.0000     0.0000 </r>
        <r>   -10.8208     0.0000     0.0000     0.0000     0.0000 </r>
        <r>   -10.7806     0.0000     0.0000     0.0000     0.0000 </r>
        <r>   -10.7405     0.0000     0.0000     0.0000     0.0000 </r>
        <r>   -10.7004     0.0000     0.0000     0.0000     0.0000 </r>
        <r>   -10.6603     0.0000     0.0000     0.0000     0.0000 </r>
        <r>   -10.6202     0.0000     0.0000     0.0000     0.0000 </r>
        <r>   -10.5800     0.0000     0.0000     0.0000     0.0000 </r>
        <r>   -10.5399     0.0000     0.0000     0.0000     0.0000 </r>
        <r>   -10.4998     0.0000     0.0000     0.0000     0.0000 </r>
        <r>   -10.4597     0.0000     0.0000     0.0000     0.0000 </r>
        <r>   -10.4195     0.0000     0.0000     0.0000     0.0000 </r>
        <r>   -10.3794     0.0000     0.0000     0.0000     0.0000 </r>
        <r>   -10.3393     0.0000     0.0000     0.0000     0.0000 </r>
        <r>   -10.2992     0.0000     0.0000     0.0000     0.0000 </r>
        <r>   -10.2590     0.0000     0.0000     0.0000     0.0000 </r>
        <r>   -10.2189     0.0000     0.0000     0.0000     0.0000 </r>
        <r>   -10.1788     0.0000     0.0000     0.0000     0.0000 </r>
        <r>   -10.1387     0.0000     0.0000     0.0000     0.0000 </r>
        <r>   -10.0986     0.0000     0.0000     0.0000     0.0000 </r>
        <r>   -10.0584     0.0000     0.0000     0.0000     0.0000 </r>
        <r>   -10.0183     0.0000     0.0000     0.0000     0.0000 </r>
        <r>    -9.9782     0.0000     0.0000     0.0000     0.0000 </r>
        <r>    -9.9381     0.0000     0.0000     0.0000     0.0000 </r>
        <r>    -9.8979     0.0000     0.0000     0.0000     0.0000 </r>
        <r>    -9.8578     0.0000     0.0000     0.0000     0.0000 </r>
        <r>    -9.8177     0.0000     0.0000     0.0000     0.0000 </r>
        <r>    -9.7776     0.0000     0.0000     0.0000     0.0000 </r>
        <r>    -9.7374     0.0000     0.0000     0.0000     0.0000 </r>
        <r>    -9.6973     0.0000     0.0000     0.0000     0.0000 </r>
        <r>    -9.6572     0.0000     0.0000     0.0000     0.0000 </r>
        <r>    -9.6171     0.0000     0.0000     0.0000     0.0000 </r>
        <r>    -9.5770     0.0000     0.0000     0.0000     0.0000 </r>
        <r>    -9.5368     0.0000     0.0000     0.0000     0.0000 </r>
        <r>    -9.4967     0.0000     0.0000     0.0000     0.0000 </r>
        <r>    -9.4566     0.0000     0.0000     0.0000     0.0000 </r>
        <r>    -9.4165     0.0000     0.0000     0.0000     0.0000 </r>
        <r>    -9.3763     0.0000     0.0000     0.0000     0.0000 </r>
        <r>    -9.3362     0.0000     0.0000     0.0000     0.0000 </r>
        <r>    -9.2961     0.0000     0.0000     0.0000     0.0000 </r>
        <r>    -9.2560     0.0000     0.0000     0.0000     0.0000 </r>
        <r>    -9.2158     0.0000     0.0000     0.0000     0.0000 </r>
        <r>    -9.1757     0.0000     0.0000     0.0000     0.0000 </r>
        <r>    -9.1356     0.0000     0.0000     0.0000     0.0000 </r>
        <r>    -9.0955     0.0000     0.0000     0.0000     0.0000 </r>
        <r>    -9.0554     0.0000     0.0000     0.0000     0.0000 </r>
        <r>    -9.0152     0.0000     0.0000     0.0000     0.0000 </r>
        <r>    -8.9751     0.0000     0.0000     0.0000     0.0000 </r>
        <r>    -8.9350     0.0000     0.0000     0.0000     0.0000 </r>
        <r>    -8.8949     0.0000     0.0000     0.0000     0.0000 </r>
        <r>    -8.8547     0.0000     0.0000     0.0000     0.0000 </r>
        <r>    -8.8146     0.0000     0.0000     0.0000     0.0000 </r>
        <r>    -8.7745     0.0000     0.0000     0.0000     0.0000 </r>
        <r>    -8.7344     0.0000     0.0000     0.0000     0.0000 </r>
        <r>    -8.6942     0.0000     0.0000     0.0000     0.0000 </r>
        <r>    -8.6541     0.0000     0.0000     0.0000     0.0000 </r>
        <r>    -8.6140     0.0000     0.0000     0.0000     0.0000 </r>
        <r>    -8.5739     0.0000     0.0000     0.0000     0.0000 </r>
        <r>    -8.5338     0.0000     0.0000     0.0000     0.0000 </r>
        <r>    -8.4936     0.0000     0.0000     0.0000     0.0000 </r>
        <r>    -8.4535     0.0000     0.0000     0.0000     0.0000 </r>
        <r>    -8.4134     0.0000     0.0000     0.0000     0.0000 </r>
        <r>    -8.3733     0.0000     0.0000     0.0000     0.0000 </r>
        <r>    -8.3331     0.0000     0.0000     0.0000     0.0000 </r>
        <r>    -8.2930     0.0000     0.0000     0.0000     0.0000 </r>
        <r>    -8.2529     0.0000     0.0000     0.0000     0.0000 </r>
        <r>    -8.2128     0.0000     0.0000     0.0000     0.0000 </r>
        <r>    -8.1726     0.0000     0.0000     0.0000     0.0000 </r>
        <r>    -8.1325     0.0000     0.0000     0.0000     0.0000 </r>
        <r>    -8.0924     0.0000     0.0000     0.0000     0.0000 </r>
        <r>    -8.0523     2.5946     0.2414     0.1482     0.0004 </r>
        <r>    -8.0122     0.0000     0.0000     0.0000     0.0000 </r>
        <r>    -7.9720     0.0000     0.0000     0.0000     0.0000 </r>
        <r>    -7.9319     0.0000     0.0000     0.0000     0.0000 </r>
        <r>    -7.8918     0.0000     0.0000     0.0000     0.0000 </r>
        <r>    -7.8517     0.0000     0.0000     0.0000     0.0000 </r>
        <r>    -7.8115     0.0000     0.0000     0.0000     0.0000 </r>
        <r>    -7.7714     0.0000     0.0000     0.0000     0.0000 </r>
        <r>    -7.7313     0.0000     0.0000     0.0000     0.0000 </r>
        <r>    -7.6912     0.0000     0.0000     0.0000     0.0000 </r>
        <r>    -7.6511     0.0000     0.0000     0.0000     0.0000 </r>
        <r>    -7.6109     0.0000     0.0000     0.0000     0.0000 </r>
        <r>    -7.5708     0.0000     0.0000     0.0000     0.0000 </r>
        <r>    -7.5307     0.0000     0.0000     0.0000     0.0000 </r>
        <r>    -7.4906     0.0000     0.0000     0.0000     0.0000 </r>
        <r>    -7.4504     0.0000     0.0000     0.0000     0.0000 </r>
        <r>    -7.4103     0.0000     0.0000     0.0000     0.0000 </r>
        <r>    -7.3702     0.0000     0.0000     0.0000     0.0000 </r>
        <r>    -7.3301     0.0000     0.0000     0.0000     0.0000 </r>
        <r>    -7.2899     0.0000     0.0000     0.0000     0.0000 </r>
        <r>    -7.2498     0.0000     0.0000     0.0000     0.0000 </r>
        <r>    -7.2097     0.0000     0.0000     0.0000     0.0000 </r>
        <r>    -7.1696     0.0000     0.0000     0.0000     0.0000 </r>
        <r>    -7.1295     0.0000     0.0000     0.0000     0.0000 </r>
        <r>    -7.0893     0.0000     0.0000     0.0000     0.0000 </r>
        <r>    -7.0492     0.0000     0.0000     0.0000     0.0000 </r>
        <r>    -7.0091     0.0000     0.0000     0.0000     0.0000 </r>
        <r>    -6.9690     0.0000     0.0000     0.0000     0.0000 </r>
        <r>    -6.9288     0.0000     0.0000     0.0000     0.0000 </r>
        <r>    -6.8887     0.0000     0.0000     0.0000     0.0000 </r>
        <r>    -6.8486     0.0000     0.0000     0.0000     0.0000 </r>
        <r>    -6.8085     0.0000     0.0000     0.0000     0.0000 </r>
        <r>    -6.7683     0.0000     0.0000     0.0000     0.0000 </r>
        <r>    -6.7282     0.0000     0.0000     0.0000     0.0000 </r>
        <r>    -6.6881     0.0000     0.0000     0.0000     0.0000 </r>
        <r>    -6.6480     0.0000     0.0000     0.0000     0.0000 </r>
        <r>    -6.6079     0.0000     0.0000     0.0000     0.0000 </r>
        <r>    -6.5677     0.0000     0.0000     0.0000     0.0000 </r>
        <r>    -6.5276     0.0000     0.0000     0.0000     0.0000 </r>
        <r>    -6.4875     0.0000     0.0000     0.0000     0.0000 </r>
        <r>    -6.4474     0.0000     0.0000     0.0000     0.0000 </r>
        <r>    -6.4072     0.0000     0.0000     0.0000     0.0000 </r>
        <r>    -6.3671     0.0000     0.0000     0.0000     0.0000 </r>
        <r>    -6.3270     0.0000     0.0000     0.0000     0.0000 </r>
        <r>    -6.2869     0.0000     0.0000     0.0000     0.0000 </r>
        <r>    -6.2467     0.0000     0.0000     0.0000     0.0000 </r>
        <r>    -6.2066     0.0000     0.0000     0.0000     0.0000 </r>
        <r>    -6.1665     0.0000     0.0000     0.0000     0.0000 </r>
        <r>    -6.1264     0.0000     0.0000     0.0000     0.0000 </r>
        <r>    -6.0863     0.0000     0.0000     0.0000     0.0000 </r>
        <r>    -6.0461     0.0000     0.0000     0.0000     0.0000 </r>
        <r>    -6.0060     0.0000     0.0000     0.0000     0.0000 </r>
        <r>    -5.9659     0.0000     0.0000     0.0000     0.0000 </r>
        <r>    -5.9258     0.0000     0.0000     0.0000     0.0000 </r>
        <r>    -5.8856     0.0000     0.0000     0.0000     0.0000 </r>
        <r>    -5.8455     0.0000     0.0000     0.0000     0.0000 </r>
        <r>    -5.8054     0.0000     0.0000     0.0000     0.0000 </r>
        <r>    -5.7653     0.0000     0.0000     0.0000     0.0000 </r>
        <r>    -5.7251     0.0000     0.0000     0.0000     0.0000 </r>
        <r>    -5.6850     0.0000     0.0000     0.0000     0.0000 </r>
        <r>    -5.6449     0.0000     0.0000     0.0000     0.0000 </r>
        <r>    -5.6048     0.0000     0.0000     0.0000     0.0000 </r>
        <r>    -5.5647     0.0000     0.0000     0.0000     0.0000 </r>
        <r>    -5.5245     0.0000     0.0000     0.0000     0.0000 </r>
        <r>    -5.4844     0.0000     0.0000     0.0000     0.0000 </r>
        <r>    -5.4443     0.0000     0.0000     0.0000     0.0000 </r>
        <r>    -5.4042     0.0000     0.0000     0.0000     0.0000 </r>
        <r>    -5.3640     0.0000     0.0000     0.0000     0.0000 </r>
        <r>    -5.3239     0.0000     0.0000     0.0000     0.0000 </r>
        <r>    -5.2838     0.0000     0.0000     0.0000     0.0000 </r>
        <r>    -5.2437     0.0000     0.0000     0.0000     0.0000 </r>
        <r>    -5.2035     0.0000     0.0000     0.0000     0.0000 </r>
        <r>    -5.1634     0.2966     0.2920     0.1357     0.0049 </r>
        <r>    -5.1233     7.5869     0.3370     0.1349     0.0048 </r>
        <r>    -5.0832     0.0000     0.0000     0.0000     0.0000 </r>
        <r>    -5.0431     0.0000     0.0000     0.0000     0.0000 </r>
        <r>    -5.0029     0.0000     0.0000     0.0000     0.0000 </r>
        <r>    -4.9628     0.0000     0.0000     0.0000     0.0000 </r>
        <r>    -4.9227     0.0000     0.0000     0.0000     0.0000 </r>
        <r>    -4.8826     0.0000     0.0000     0.0000     0.0000 </r>
        <r>    -4.8424     0.0000     0.0000     0.0000     0.0000 </r>
        <r>    -4.8023     0.0000     0.0000     0.0000     0.0000 </r>
        <r>    -4.7622     0.0000     0.0000     0.0000     0.0000 </r>
        <r>    -4.7221     0.0000     0.0000     0.0000     0.0000 </r>
        <r>    -4.6819     0.0000     0.0000     0.0000     0.0000 </r>
        <r>    -4.6418     0.0000     0.0000     0.0000     0.0000 </r>
        <r>    -4.6017     0.0000     0.0000     0.0000     0.0000 </r>
        <r>    -4.5616     0.0000     0.0000     0.0000     0.0000 </r>
        <r>    -4.5215     0.0000     0.0000     0.0000     0.0000 </r>
        <r>    -4.4813     0.0000     0.0000     0.0000     0.0000 </r>
        <r>    -4.4412     0.0000     0.0000     0.0000     0.0000 </r>
        <r>    -4.4011     0.0000     0.0000     0.0000     0.0000 </r>
        <r>    -4.3610     0.0000     0.0000     0.0000     0.0000 </r>
        <r>    -4.3208     0.0000     0.0000     0.0000     0.0000 </r>
        <r>    -4.2807     0.0000     0.0000     0.0000     0.0000 </r>
        <r>    -4.2406     0.0000     0.0000     0.0000     0.0000 </r>
        <r>    -4.2005     0.0000     0.0000     0.0000     0.0000 </r>
        <r>    -4.1603     0.0000     0.0000     0.0000     0.0000 </r>
        <r>    -4.1202     0.0000     0.0000     0.0000     0.0000 </r>
        <r>    -4.0801     0.0000     0.0000     0.0000     0.0000 </r>
        <r>    -4.0400     0.0000     0.0000     0.0000     0.0000 </r>
        <r>    -3.9999     0.0000     0.0000     0.0000     0.0000 </r>
        <r>    -3.9597     0.0000     0.0000     0.0000     0.0000 </r>
        <r>    -3.9196     0.0000     0.0000     0.0000     0.0000 </r>
        <r>    -3.8795     0.0000     0.0000     0.0000     0.0000 </r>
        <r>    -3.8394     0.0000     0.0000     0.0000     0.0000 </r>
        <r>    -3.7992     0.0000     0.0000     0.0000     0.0000 </r>
        <r>    -3.7591     0.0000     0.0000     0.0000     0.0000 </r>
        <r>    -3.7190     0.0000     0.0000     0.0000     0.0000 </r>
        <r>    -3.6789     0.0000     0.0000     0.0000     0.0000 </r>
        <r>    -3.6387     0.0000     0.0000     0.0000     0.0000 </r>
        <r>    -3.5986     0.0000     0.0000     0.0000     0.0000 </r>
        <r>    -3.5585     0.0000     0.0000     0.0000     0.0000 </r>
        <r>    -3.5184     0.0000     0.0000     0.0000     0.0000 </r>
        <r>    -3.4783     0.0000     0.0000     0.0000     0.0000 </r>
        <r>    -3.4381     0.0000     0.0000     0.0000     0.0000 </r>
        <r>    -3.3980     0.0000     0.0000     0.0000     0.0000 </r>
        <r>    -3.3579     0.0000     0.0000     0.0000     0.0000 </r>
        <r>    -3.3178     0.0000     0.0000     0.0000     0.0000 </r>
        <r>    -3.2776     0.0000     0.0000     0.0000     0.0000 </r>
        <r>    -3.2375     0.0000     0.0000     0.0000     0.0000 </r>
        <r>    -3.1974     0.0000     0.0000     0.0000     0.0000 </r>
        <r>    -3.1573     0.0000     0.0000     0.0000     0.0000 </r>
        <r>    -3.1171     0.0000     0.0000     0.0000     0.0000 </r>
        <r>    -3.0770     0.0000     0.0000     0.0000     0.0000 </r>
        <r>    -3.0369     0.0000     0.0000     0.0000     0.0000 </r>
        <r>    -2.9968     0.0000     0.0000     0.0000     0.0000 </r>
        <r>    -2.9567     0.0000     0.0000     0.0000     0.0000 </r>
        <r>    -2.9165     0.0000     0.0000     0.0000     0.0000 </r>
        <r>    -2.8764     0.0000     0.0000     0.0000     0.0000 </r>
        <r>    -2.8363     0.0000     0.0000     0.0000     0.0000 </r>
        <r>    -2.7962     0.0000     0.0000     0.0000     0.0000 </r>
        <r>    -2.7560     0.0000     0.0000     0.0000     0.0000 </r>
        <r>    -2.7159     0.0000     0.0000     0.0000     0.0000 </r>
        <r>    -2.6758     0.0000     0.0000     0.0000     0.0000 </r>
        <r>    -2.6357     0.0000     0.0000     0.0000     0.0000 </r>
        <r>    -2.5955     0.0000     0.0000     0.0000     0.0000 </r>
        <r>    -2.5554     0.0000     0.0000     0.0000     0.0000 </r>
        <r>    -2.5153     0.0000     0.0000     0.0000     0.0000 </r>
        <r>    -2.4752     0.0000     0.0000     0.0000     0.0000 </r>
        <r>    -2.4351     0.0000     0.0000     0.0000     0.0000 </r>
        <r>    -2.3949     0.0000     0.0000     0.0000     0.0000 </r>
        <r>    -2.3548     0.0000     0.0000     0.0000     0.0000 </r>
        <r>    -2.3147     0.0000     0.0000     0.0000     0.0000 </r>
        <r>    -2.2746     0.0000     0.0000     0.0000     0.0000 </r>
        <r>    -2.2344     0.0000     0.0000     0.0000     0.0000 </r>
        <r>    -2.1943     0.0740     1.4990     0.0650     0.0033 </r>
        <r>    -2.1542     0.0000     0.0000     0.0000     0.0000 </r>
        <r>    -2.1141     0.0000     0.0000     0.0000     0.0000 </r>
        <r>    -2.0739     0.0000     0.0000     0.0000     0.0000 </r>
        <r>    -2.0338     0.0000     0.0000     0.0000     0.0000 </r>
        <r>    -1.9937     0.0000     0.0000     0.0000     0.0000 </r>
        <r>    -1.9536     0.0000     0.0000     0.0000     0.0000 </r>
        <r>    -1.9135     0.0000     0.0000     0.0000     0.0000 </r>
        <r>    -1.8733     0.0000     0.0000     0.0000     0.0000 </r>
        <r>    -1.8332     0.0000     0.0000     0.0000     0.0000 </r>
        <r>    -1.7931     0.0000     0.0000     0.0000     0.0000 </r>
        <r>    -1.7530     0.5477     3.9734     0.1025     0.0104 </r>
        <r>    -1.7128     0.0000     0.0000     0.0000     0.0000 </r>
        <r>    -1.6727     0.0000     0.0000     0.0000     0.0000 </r>
        <r>    -1.6326     0.0000     0.0000     0.0000     0.0000 </r>
        <r>    -1.5925     0.0000     0.0000     0.0000     0.0000 </r>
        <r>    -1.5523     0.0000     0.0000     0.0000     0.0000 </r>
        <r>    -1.5122     0.0000     0.0000     0.0000     0.0000 </r>
        <r>    -1.4721     0.0000     0.0000     0.0000     0.0000 </r>
        <r>    -1.4320     0.0000     0.0000     0.0000     0.0000 </r>
        <r>    -1.3919     0.0000     0.0000     0.0000     0.0000 </r>
        <r>    -1.3517     0.0000     0.0092     0.0003     0.0000 </r>
        <r>    -1.3116     0.0000     2.5401     0.0914     0.0092 </r>
        <r>    -1.2715     0.0000     0.0000     0.0000     0.0000 </r>
        <r>    -1.2314     0.0000     0.0000     0.0000     0.0000 </r>
        <r>    -1.1912     0.0000     0.0000     0.0000     0.0000 </r>
        <r>    -1.1511     0.0000     0.0000     0.0000     0.0000 </r>
        <r>    -1.1110     0.0000     0.0000     0.0000     0.0000 </r>
        <r>    -1.0709     0.0000     0.0000     0.0000     0.0000 </r>
        <r>    -1.0307     0.0000     0.0000     0.0000     0.0000 </r>
        <r>    -0.9906     0.0000     0.0000     0.0000     0.0000 </r>
        <r>    -0.9505     0.0000     0.0000     0.0000     0.0000 </r>
        <r>    -0.9104     0.0000     0.0000     0.0000     0.0000 </r>
        <r>    -0.8703     0.0000     0.0000     0.0000     0.0000 </r>
        <r>    -0.8301     0.0000     0.0000     0.0000     0.0000 </r>
        <r>    -0.7900     0.0000     0.0000     0.0000     0.0000 </r>
       </set>
       <set comment="spin 2">
        <r>   -12.8269     0.0000     0.0000     0.0000     0.0000 </r>
        <r>   -12.7868     0.0000     0.0000     0.0000     0.0000 </r>
        <r>   -12.7467     0.0000     0.0000     0.0000     0.0000 </r>
        <r>   -12.7066     0.0000     0.0000     0.0000     0.0000 </r>
        <r>   -12.6664     0.0000     0.0000     0.0000     0.0000 </r>
        <r>   -12.6263     0.0000     0.0000     0.0000     0.0000 </r>
        <r>   -12.5862     0.0000     0.0000     0.0000     0.0000 </r>
        <r>   -12.5461     0.0000     0.0000     0.0000     0.0000 </r>
        <r>   -12.5059     0.0000     0.0000     0.0000     0.0000 </r>
        <r>   -12.4658     0.0000     0.0000     0.0000     0.0000 </r>
        <r>   -12.4257     0.0000     0.0000     0.0000     0.0000 </r>
        <r>   -12.3856     0.0000     0.0000     0.0000     0.0000 </r>
        <r>   -12.3454     0.0000     0.0000     0.0000     0.0000 </r>
        <r>   -12.3053     0.0000     0.0000     0.0000     0.0000 </r>
        <r>   -12.2652     0.0454     0.0254     5.8187     0.0012 </r>
        <r>   -12.2251     0.0000     0.0000     0.0000     0.0000 </r>
        <r>   -12.1850     0.0000     0.0000     0.0000     0.0000 </r>
        <r>   -12.1448     0.0000     0.0000     0.0000     0.0000 </r>
        <r>   -12.1047     0.0001     0.0003     0.4439     0.0001 </r>
        <r>   -12.0646     0.0402     0.0241    20.0139     0.0027 </r>
        <r>   -12.0245     0.0001     0.0047     9.2352     0.0012 </r>
        <r>   -11.9843     0.0000     0.0000     0.0000     0.0000 </r>
        <r>   -11.9442     0.0000     0.0000     0.0000     0.0000 </r>
        <r>   -11.9041     0.0026     0.0005     6.4019     0.0003 </r>
        <r>   -11.8640     0.0074     0.0013    11.4208     0.0005 </r>
        <r>   -11.8238     0.0000     0.0000     0.0000     0.0000 </r>
        <r>   -11.7837     0.0000     0.0000     0.0000     0.0000 </r>
        <r>   -11.7436     0.0000     0.0007    29.2261     0.0005 </r>
        <r>   -11.7035     0.0126     0.0063    18.0779     0.0005 </r>
        <r>   -11.6634     0.0000     0.0000     0.0000     0.0000 </r>
        <r>   -11.6232     0.0000     0.0000     0.0000     0.0000 </r>
        <r>   -11.5831     0.0000     0.0096    18.2903     0.0016 </r>
        <r>   -11.5430     0.0000     0.0000     0.0000     0.0000 </r>
        <r>   -11.5029     0.0000     0.0000     0.0000     0.0000 </r>
        <r>   -11.4627     0.0000     0.0000     0.0000     0.0000 </r>
        <r>   -11.4226     0.0000     0.0000     0.0000     0.0000 </r>
        <r>   -11.3825     0.0000     0.0000     0.0000     0.0000 </r>
        <r>   -11.3424     0.0000     0.0000     0.0000     0.0000 </r>
        <r>   -11.3022     0.0000     0.0000     0.0000     0.0000 </r>
        <r>   -11.2621     0.0000     0.0000     0.0000     0.0000 </r>
        <r>   -11.2220     0.0000     0.0000     0.0000     0.0000 </r>
        <r>   -11.1819     0.0000     0.0000     0.0000     0.0000 </r>
        <r>   -11.1418     0.0000     0.0000     0.0000     0.0000 </r>
        <r>   -11.1016     0.0000     0.0000     0.0000     0.0000 </r>
        <r>   -11.0615     0.0000     0.0000     0.0000     0.0000 </r>
        <r>   -11.0214     0.0000     0.0000     0.0000     0.0000 </r>
        <r>   -10.9813     0.0000     0.0000     0.0000     0.0000 </r>
        <r>   -10.9411     0.0000     0.0000     0.0000     0.0000 </r>
        <r>   -10.9010     0.0000     0.0000     0.0000     0.0000 </r>
        <r>   -10.8609     0.0000     0.0000     0.0000     0.0000 </r>
        <r>   -10.8208     0.0000     0.0000     0.0000     0.0000 </r>
        <r>   -10.7806     0.0000     0.0000     0.0000     0.0000 </r>
        <r>   -10.7405     0.0000     0.0000     0.0000     0.0000 </r>
        <r>   -10.7004     0.0000     0.0000     0.0000     0.0000 </r>
        <r>   -10.6603     0.0000     0.0000     0.0000     0.0000 </r>
        <r>   -10.6202     0.0000     0.0000     0.0000     0.0000 </r>
        <r>   -10.5800     0.0000     0.0000     0.0000     0.0000 </r>
        <r>   -10.5399     0.0000     0.0000     0.0000     0.0000 </r>
        <r>   -10.4998     0.0000     0.0000     0.0000     0.0000 </r>
        <r>   -10.4597     0.0000     0.0000     0.0000     0.0000 </r>
        <r>   -10.4195     0.0000     0.0000     0.0000     0.0000 </r>
        <r>   -10.3794     0.0000     0.0000     0.0000     0.0000 </r>
        <r>   -10.3393     0.0000     0.0000     0.0000     0.0000 </r>
        <r>   -10.2992     0.0000     0.0000     0.0000     0.0000 </r>
        <r>   -10.2590     0.0000     0.0000     0.0000     0.0000 </r>
        <r>   -10.2189     0.0000     0.0000     0.0000     0.0000 </r>
        <r>   -10.1788     0.0000     0.0000     0.0000     0.0000 </r>
        <r>   -10.1387     0.0000     0.0000     0.0000     0.0000 </r>
        <r>   -10.0986     0.0000     0.0000     0.0000     0.0000 </r>
        <r>   -10.0584     0.0000     0.0000     0.0000     0.0000 </r>
        <r>   -10.0183     0.0000     0.0000     0.0000     0.0000 </r>
        <r>    -9.9782     0.0000     0.0000     0.0000     0.0000 </r>
        <r>    -9.9381     0.0000     0.0000     0.0000     0.0000 </r>
        <r>    -9.8979     0.0000     0.0000     0.0000     0.0000 </r>
        <r>    -9.8578     0.0000     0.0000     0.0000     0.0000 </r>
        <r>    -9.8177     0.0000     0.0000     0.0000     0.0000 </r>
        <r>    -9.7776     0.0000     0.0000     0.0000     0.0000 </r>
        <r>    -9.7374     0.0000     0.0000     0.0000     0.0000 </r>
        <r>    -9.6973     0.0000     0.0000     0.0000     0.0000 </r>
        <r>    -9.6572     0.0000     0.0000     0.0000     0.0000 </r>
        <r>    -9.6171     0.0000     0.0000     0.0000     0.0000 </r>
        <r>    -9.5770     0.0000     0.0000     0.0000     0.0000 </r>
        <r>    -9.5368     0.0000     0.0000     0.0000     0.0000 </r>
        <r>    -9.4967     0.0000     0.0000     0.0000     0.0000 </r>
        <r>    -9.4566     0.0000     0.0000     0.0000     0.0000 </r>
        <r>    -9.4165     0.0000     0.0000     0.0000     0.0000 </r>
        <r>    -9.3763     0.0000     0.0000     0.0000     0.0000 </r>
        <r>    -9.3362     0.0000     0.0000     0.0000     0.0000 </r>
        <r>    -9.2961     0.0000     0.0000     0.0000     0.0000 </r>
        <r>    -9.2560     0.0000     0.0000     0.0000     0.0000 </r>
        <r>    -9.2158     0.0000     0.0000     0.0000     0.0000 </r>
        <r>    -9.1757     0.0000     0.0000     0.0000     0.0000 </r>
        <r>    -9.1356     0.0000     0.0000     0.0000     0.0000 </r>
        <r>    -9.0955     0.0000     0.0000     0.0000     0.0000 </r>
        <r>    -9.0554     0.0000     0.0000     0.0000     0.0000 </r>
        <r>    -9.0152     0.0000     0.0000     0.0000     0.0000 </r>
        <r>    -8.9751     0.0000     0.0000     0.0000     0.0000 </r>
        <r>    -8.9350     0.0000     0.0000     0.0000     0.0000 </r>
        <r>    -8.8949     0.0000     0.0000     0.0000     0.0000 </r>
        <r>    -8.8547     0.0000     0.0000     0.0000     0.0000 </r>
        <r>    -8.8146     0.0000     0.0000     0.0000     0.0000 </r>
        <r>    -8.7745     0.0000     0.0000     0.0000     0.0000 </r>
        <r>    -8.7344     0.0000     0.0000     0.0000     0.0000 </r>
        <r>    -8.6942     0.0000     0.0000     0.0000     0.0000 </r>
        <r>    -8.6541     0.0000     0.0000     0.0000     0.0000 </r>
        <r>    -8.6140     0.0000     0.0000     0.0000     0.0000 </r>
        <r>    -8.5739     0.0000     0.0000     0.0000     0.0000 </r>
        <r>    -8.5338     0.0000     0.0000     0.0000     0.0000 </r>
        <r>    -8.4936     0.0000     0.0000     0.0000     0.0000 </r>
        <r>    -8.4535     0.0000     0.0000     0.0000     0.0000 </r>
        <r>    -8.4134     0.0000     0.0000     0.0000     0.0000 </r>
        <r>    -8.3733     0.0000     0.0000     0.0000     0.0000 </r>
        <r>    -8.3331     0.0000     0.0000     0.0000     0.0000 </r>
        <r>    -8.2930     0.0000     0.0000     0.0000     0.0000 </r>
        <r>    -8.2529     0.0000     0.0000     0.0000     0.0000 </r>
        <r>    -8.2128     0.0000     0.0000     0.0000     0.0000 </r>
        <r>    -8.1726     0.0000     0.0000     0.0000     0.0000 </r>
        <r>    -8.1325     0.0000     0.0000     0.0000     0.0000 </r>
        <r>    -8.0924     0.0000     0.0000     0.0000     0.0000 </r>
        <r>    -8.0523     2.5946     0.2414     0.1482     0.0004 </r>
        <r>    -8.0122     0.0000     0.0000     0.0000     0.0000 </r>
        <r>    -7.9720     0.0000     0.0000     0.0000     0.0000 </r>
        <r>    -7.9319     0.0000     0.0000     0.0000     0.0000 </r>
        <r>    -7.8918     0.0000     0.0000     0.0000     0.0000 </r>
        <r>    -7.8517     0.0000     0.0000     0.0000     0.0000 </r>
        <r>    -7.8115     0.0000     0.0000     0.0000     0.0000 </r>
        <r>    -7.7714     0.0000     0.0000     0.0000     0.0000 </r>
        <r>    -7.7313     0.0000     0.0000     0.0000     0.0000 </r>
        <r>    -7.6912     0.0000     0.0000     0.0000     0.0000 </r>
        <r>    -7.6511     0.0000     0.0000     0.0000     0.0000 </r>
        <r>    -7.6109     0.0000     0.0000     0.0000     0.0000 </r>
        <r>    -7.5708     0.0000     0.0000     0.0000     0.0000 </r>
        <r>    -7.5307     0.0000     0.0000     0.0000     0.0000 </r>
        <r>    -7.4906     0.0000     0.0000     0.0000     0.0000 </r>
        <r>    -7.4504     0.0000     0.0000     0.0000     0.0000 </r>
        <r>    -7.4103     0.0000     0.0000     0.0000     0.0000 </r>
        <r>    -7.3702     0.0000     0.0000     0.0000     0.0000 </r>
        <r>    -7.3301     0.0000     0.0000     0.0000     0.0000 </r>
        <r>    -7.2899     0.0000     0.0000     0.0000     0.0000 </r>
        <r>    -7.2498     0.0000     0.0000     0.0000     0.0000 </r>
        <r>    -7.2097     0.0000     0.0000     0.0000     0.0000 </r>
        <r>    -7.1696     0.0000     0.0000     0.0000     0.0000 </r>
        <r>    -7.1295     0.0000     0.0000     0.0000     0.0000 </r>
        <r>    -7.0893     0.0000     0.0000     0.0000     0.0000 </r>
        <r>    -7.0492     0.0000     0.0000     0.0000     0.0000 </r>
        <r>    -7.0091     0.0000     0.0000     0.0000     0.0000 </r>
        <r>    -6.9690     0.0000     0.0000     0.0000     0.0000 </r>
        <r>    -6.9288     0.0000     0.0000     0.0000     0.0000 </r>
        <r>    -6.8887     0.0000     0.0000     0.0000     0.0000 </r>
        <r>    -6.8486     0.0000     0.0000     0.0000     0.0000 </r>
        <r>    -6.8085     0.0000     0.0000     0.0000     0.0000 </r>
        <r>    -6.7683     0.0000     0.0000     0.0000     0.0000 </r>
        <r>    -6.7282     0.0000     0.0000     0.0000     0.0000 </r>
        <r>    -6.6881     0.0000     0.0000     0.0000     0.0000 </r>
        <r>    -6.6480     0.0000     0.0000     0.0000     0.0000 </r>
        <r>    -6.6079     0.0000     0.0000     0.0000     0.0000 </r>
        <r>    -6.5677     0.0000     0.0000     0.0000     0.0000 </r>
        <r>    -6.5276     0.0000     0.0000     0.0000     0.0000 </r>
        <r>    -6.4875     0.0000     0.0000     0.0000     0.0000 </r>
        <r>    -6.4474     0.0000     0.0000     0.0000     0.0000 </r>
        <r>    -6.4072     0.0000     0.0000     0.0000     0.0000 </r>
        <r>    -6.3671     0.0000     0.0000     0.0000     0.0000 </r>
        <r>    -6.3270     0.0000     0.0000     0.0000     0.0000 </r>
        <r>    -6.2869     0.0000     0.0000     0.0000     0.0000 </r>
        <r>    -6.2467     0.0000     0.0000     0.0000     0.0000 </r>
        <r>    -6.2066     0.0000     0.0000     0.0000     0.0000 </r>
        <r>    -6.1665     0.0000     0.0000     0.0000     0.0000 </r>
        <r>    -6.1264     0.0000     0.0000     0.0000     0.0000 </r>
        <r>    -6.0863     0.0000     0.0000     0.0000     0.0000 </r>
        <r>    -6.0461     0.0000     0.0000     0.0000     0.0000 </r>
        <r>    -6.0060     0.0000     0.0000     0.0000     0.0000 </r>
        <r>    -5.9659     0.0000     0.0000     0.0000     0.0000 </r>
        <r>    -5.9258     0.0000     0.0000     0.0000     0.0000 </r>
        <r>    -5.8856     0.0000     0.0000     0.0000     0.0000 </r>
        <r>    -5.8455     0.0000     0.0000     0.0000     0.0000 </r>
        <r>    -5.8054     0.0000     0.0000     0.0000     0.0000 </r>
        <r>    -5.7653     0.0000     0.0000     0.0000     0.0000 </r>
        <r>    -5.7251     0.0000     0.0000     0.0000     0.0000 </r>
        <r>    -5.6850     0.0000     0.0000     0.0000     0.0000 </r>
        <r>    -5.6449     0.0000     0.0000     0.0000     0.0000 </r>
        <r>    -5.6048     0.0000     0.0000     0.0000     0.0000 </r>
        <r>    -5.5647     0.0000     0.0000     0.0000     0.0000 </r>
        <r>    -5.5245     0.0000     0.0000     0.0000     0.0000 </r>
        <r>    -5.4844     0.0000     0.0000     0.0000     0.0000 </r>
        <r>    -5.4443     0.0000     0.0000     0.0000     0.0000 </r>
        <r>    -5.4042     0.0000     0.0000     0.0000     0.0000 </r>
        <r>    -5.3640     0.0000     0.0000     0.0000     0.0000 </r>
        <r>    -5.3239     0.0000     0.0000     0.0000     0.0000 </r>
        <r>    -5.2838     0.0000     0.0000     0.0000     0.0000 </r>
        <r>    -5.2437     0.0000     0.0000     0.0000     0.0000 </r>
        <r>    -5.2035     0.0000     0.0000     0.0000     0.0000 </r>
        <r>    -5.1634     0.2965     0.2920     0.1357     0.0049 </r>
        <r>    -5.1233     7.5870     0.3370     0.1349     0.0048 </r>
        <r>    -5.0832     0.0000     0.0000     0.0000     0.0000 </r>
        <r>    -5.0431     0.0000     0.0000     0.0000     0.0000 </r>
        <r>    -5.0029     0.0000     0.0000     0.0000     0.0000 </r>
        <r>    -4.9628     0.0000     0.0000     0.0000     0.0000 </r>
        <r>    -4.9227     0.0000     0.0000     0.0000     0.0000 </r>
        <r>    -4.8826     0.0000     0.0000     0.0000     0.0000 </r>
        <r>    -4.8424     0.0000     0.0000     0.0000     0.0000 </r>
        <r>    -4.8023     0.0000     0.0000     0.0000     0.0000 </r>
        <r>    -4.7622     0.0000     0.0000     0.0000     0.0000 </r>
        <r>    -4.7221     0.0000     0.0000     0.0000     0.0000 </r>
        <r>    -4.6819     0.0000     0.0000     0.0000     0.0000 </r>
        <r>    -4.6418     0.0000     0.0000     0.0000     0.0000 </r>
        <r>    -4.6017     0.0000     0.0000     0.0000     0.0000 </r>
        <r>    -4.5616     0.0000     0.0000     0.0000     0.0000 </r>
        <r>    -4.5215     0.0000     0.0000     0.0000     0.0000 </r>
        <r>    -4.4813     0.0000     0.0000     0.0000     0.0000 </r>
        <r>    -4.4412     0.0000     0.0000     0.0000     0.0000 </r>
        <r>    -4.4011     0.0000     0.0000     0.0000     0.0000 </r>
        <r>    -4.3610     0.0000     0.0000     0.0000     0.0000 </r>
        <r>    -4.3208     0.0000     0.0000     0.0000     0.0000 </r>
        <r>    -4.2807     0.0000     0.0000     0.0000     0.0000 </r>
        <r>    -4.2406     0.0000     0.0000     0.0000     0.0000 </r>
        <r>    -4.2005     0.0000     0.0000     0.0000     0.0000 </r>
        <r>    -4.1603     0.0000     0.0000     0.0000     0.0000 </r>
        <r>    -4.1202     0.0000     0.0000     0.0000     0.0000 </r>
        <r>    -4.0801     0.0000     0.0000     0.0000     0.0000 </r>
        <r>    -4.0400     0.0000     0.0000     0.0000     0.0000 </r>
        <r>    -3.9999     0.0000     0.0000     0.0000     0.0000 </r>
        <r>    -3.9597     0.0000     0.0000     0.0000     0.0000 </r>
        <r>    -3.9196     0.0000     0.0000     0.0000     0.0000 </r>
        <r>    -3.8795     0.0000     0.0000     0.0000     0.0000 </r>
        <r>    -3.8394     0.0000     0.0000     0.0000     0.0000 </r>
        <r>    -3.7992     0.0000     0.0000     0.0000     0.0000 </r>
        <r>    -3.7591     0.0000     0.0000     0.0000     0.0000 </r>
        <r>    -3.7190     0.0000     0.0000     0.0000     0.0000 </r>
        <r>    -3.6789     0.0000     0.0000     0.0000     0.0000 </r>
        <r>    -3.6387     0.0000     0.0000     0.0000     0.0000 </r>
        <r>    -3.5986     0.0000     0.0000     0.0000     0.0000 </r>
        <r>    -3.5585     0.0000     0.0000     0.0000     0.0000 </r>
        <r>    -3.5184     0.0000     0.0000     0.0000     0.0000 </r>
        <r>    -3.4783     0.0000     0.0000     0.0000     0.0000 </r>
        <r>    -3.4381     0.0000     0.0000     0.0000     0.0000 </r>
        <r>    -3.3980     0.0000     0.0000     0.0000     0.0000 </r>
        <r>    -3.3579     0.0000     0.0000     0.0000     0.0000 </r>
        <r>    -3.3178     0.0000     0.0000     0.0000     0.0000 </r>
        <r>    -3.2776     0.0000     0.0000     0.0000     0.0000 </r>
        <r>    -3.2375     0.0000     0.0000     0.0000     0.0000 </r>
        <r>    -3.1974     0.0000     0.0000     0.0000     0.0000 </r>
        <r>    -3.1573     0.0000     0.0000     0.0000     0.0000 </r>
        <r>    -3.1171     0.0000     0.0000     0.0000     0.0000 </r>
        <r>    -3.0770     0.0000     0.0000     0.0000     0.0000 </r>
        <r>    -3.0369     0.0000     0.0000     0.0000     0.0000 </r>
        <r>    -2.9968     0.0000     0.0000     0.0000     0.0000 </r>
        <r>    -2.9567     0.0000     0.0000     0.0000     0.0000 </r>
        <r>    -2.9165     0.0000     0.0000     0.0000     0.0000 </r>
        <r>    -2.8764     0.0000     0.0000     0.0000     0.0000 </r>
        <r>    -2.8363     0.0000     0.0000     0.0000     0.0000 </r>
        <r>    -2.7962     0.0000     0.0000     0.0000     0.0000 </r>
        <r>    -2.7560     0.0000     0.0000     0.0000     0.0000 </r>
        <r>    -2.7159     0.0000     0.0000     0.0000     0.0000 </r>
        <r>    -2.6758     0.0000     0.0000     0.0000     0.0000 </r>
        <r>    -2.6357     0.0000     0.0000     0.0000     0.0000 </r>
        <r>    -2.5955     0.0000     0.0000     0.0000     0.0000 </r>
        <r>    -2.5554     0.0000     0.0000     0.0000     0.0000 </r>
        <r>    -2.5153     0.0000     0.0000     0.0000     0.0000 </r>
        <r>    -2.4752     0.0000     0.0000     0.0000     0.0000 </r>
        <r>    -2.4351     0.0000     0.0000     0.0000     0.0000 </r>
        <r>    -2.3949     0.0000     0.0000     0.0000     0.0000 </r>
        <r>    -2.3548     0.0000     0.0000     0.0000     0.0000 </r>
        <r>    -2.3147     0.0000     0.0000     0.0000     0.0000 </r>
        <r>    -2.2746     0.0000     0.0000     0.0000     0.0000 </r>
        <r>    -2.2344     0.0000     0.0000     0.0000     0.0000 </r>
        <r>    -2.1943     0.0740     1.4990     0.0650     0.0033 </r>
        <r>    -2.1542     0.0000     0.0000     0.0000     0.0000 </r>
        <r>    -2.1141     0.0000     0.0000     0.0000     0.0000 </r>
        <r>    -2.0739     0.0000     0.0000     0.0000     0.0000 </r>
        <r>    -2.0338     0.0000     0.0000     0.0000     0.0000 </r>
        <r>    -1.9937     0.0000     0.0000     0.0000     0.0000 </r>
        <r>    -1.9536     0.0000     0.0000     0.0000     0.0000 </r>
        <r>    -1.9135     0.0000     0.0000     0.0000     0.0000 </r>
        <r>    -1.8733     0.0000     0.0000     0.0000     0.0000 </r>
        <r>    -1.8332     0.0000     0.0000     0.0000     0.0000 </r>
        <r>    -1.7931     0.0000     0.0000     0.0000     0.0000 </r>
        <r>    -1.7530     0.5477     3.9734     0.1025     0.0104 </r>
        <r>    -1.7128     0.0000     0.0000     0.0000     0.0000 </r>
        <r>    -1.6727     0.0000     0.0000     0.0000     0.0000 </r>
        <r>    -1.6326     0.0000     0.0000     0.0000     0.0000 </r>
        <r>    -1.5925     0.0000     0.0000     0.0000     0.0000 </r>
        <r>    -1.5523     0.0000     0.0000     0.0000     0.0000 </r>
        <r>    -1.5122     0.0000     0.0000     0.0000     0.0000 </r>
        <r>    -1.4721     0.0000     0.0000     0.0000     0.0000 </r>
        <r>    -1.4320     0.0000     0.0000     0.0000     0.0000 </r>
        <r>    -1.3919     0.0000     0.0000     0.0000     0.0000 </r>
        <r>    -1.3517     0.0000     0.0092     0.0003     0.0000 </r>
        <r>    -1.3116     0.0000     2.5401     0.0914     0.0092 </r>
        <r>    -1.2715     0.0000     0.0000     0.0000     0.0000 </r>
        <r>    -1.2314     0.0000     0.0000     0.0000     0.0000 </r>
        <r>    -1.1912     0.0000     0.0000     0.0000     0.0000 </r>
        <r>    -1.1511     0.0000     0.0000     0.0000     0.0000 </r>
        <r>    -1.1110     0.0000     0.0000     0.0000     0.0000 </r>
        <r>    -1.0709     0.0000     0.0000     0.0000     0.0000 </r>
        <r>    -1.0307     0.0000     0.0000     0.0000     0.0000 </r>
        <r>    -0.9906     0.0000     0.0000     0.0000     0.0000 </r>
        <r>    -0.9505     0.0000     0.0000     0.0000     0.0000 </r>
        <r>    -0.9104     0.0000     0.0000     0.0000     0.0000 </r>
        <r>    -0.8703     0.0000     0.0000     0.0000     0.0000 </r>
        <r>    -0.8301     0.0000     0.0000     0.0000     0.0000 </r>
        <r>    -0.7900     0.0000     0.0000     0.0000     0.0000 </r>
       </set>
      </set>
     </set>
    </array>
   </partial>
  </dos>
  <projected>
   <eigenvalues>
    <array>
     <dimension dim="1">band</dimension>
     <dimension dim="2">kpoint</dimension>
     <dimension dim="3">spin</dimension>
     <field>eigene</field>
     <field>occ</field>
     <set>
      <set comment="spin 1">
       <set comment="kpoint 1">
        <r>  -12.2798    1.0000 </r>
        <r>  -12.0989    1.0000 </r>
        <r>  -12.0953    1.0000 </r>
        <r>  -12.0937    1.0000 </r>
        <r>  -12.0620    1.0000 </r>
        <r>  -12.0599    1.0000 </r>
        <r>  -11.9036    1.0000 </r>
        <r>  -11.9020    1.0000 </r>
        <r>  -11.9018    1.0000 </r>
        <r>  -11.7632    1.0000 </r>
        <r>  -11.7629    1.0000 </r>
        <r>  -11.7614    1.0000 </r>
        <r>  -11.7494    1.0000 </r>
        <r>  -11.7488    1.0000 </r>
        <r>  -11.7288    1.0000 </r>
        <r>  -11.7267    1.0000 </r>
        <r>  -11.7256    1.0000 </r>
        <r>  -11.6038    1.0000 </r>
        <r>  -11.6012    1.0000 </r>
        <r>  -11.5988    1.0000 </r>
        <r>   -8.0759    1.0000 </r>
        <r>   -5.1713    1.0000 </r>
        <r>   -5.1582    1.0000 </r>
        <r>   -5.1554    1.0000 </r>
        <r>   -2.2129    0.0000 </r>
        <r>   -1.7742    0.0000 </r>
        <r>   -1.7681    0.0000 </r>
        <r>   -1.7625    0.0000 </r>
        <r>   -1.3431    0.0000 </r>
        <r>   -1.3371    0.0000 </r>
       </set>
      </set>
      <set comment="spin 2">
       <set comment="kpoint 1">
        <r>  -12.2798    1.0000 </r>
        <r>  -12.0989    1.0000 </r>
        <r>  -12.0953    1.0000 </r>
        <r>  -12.0937    1.0000 </r>
        <r>  -12.0620    1.0000 </r>
        <r>  -12.0599    1.0000 </r>
        <r>  -11.9036    1.0000 </r>
        <r>  -11.9020    1.0000 </r>
        <r>  -11.9018    1.0000 </r>
        <r>  -11.7632    1.0000 </r>
        <r>  -11.7629    1.0000 </r>
        <r>  -11.7614    1.0000 </r>
        <r>  -11.7494    1.0000 </r>
        <r>  -11.7488    1.0000 </r>
        <r>  -11.7288    1.0000 </r>
        <r>  -11.7267    1.0000 </r>
        <r>  -11.7256    1.0000 </r>
        <r>  -11.6038    1.0000 </r>
        <r>  -11.6012    1.0000 </r>
        <r>  -11.5988    1.0000 </r>
        <r>   -8.0759    1.0000 </r>
        <r>   -5.1713    1.0000 </r>
        <r>   -5.1582    1.0000 </r>
        <r>   -5.1554    1.0000 </r>
        <r>   -2.2129    0.0000 </r>
        <r>   -1.7742    0.0000 </r>
        <r>   -1.7681    0.0000 </r>
        <r>   -1.7625    0.0000 </r>
        <r>   -1.3431    0.0000 </r>
        <r>   -1.3371    0.0000 </r>
       </set>
      </set>
     </set>
    </array>
   </eigenvalues>
   <array>
    <dimension dim="1">ion</dimension>
    <dimension dim="2">band</dimension>
    <dimension dim="3">kpoint</dimension>
    <dimension dim="4">spin</dimension>
    <field>  s  </field>
    <field>  p  </field>
    <field>  d  </field>
    <field>  f  </field>
    <set>
     <set comment="spin1">
      <set comment="kpoint 1">
       <set comment="band 1">
        <r>  0.0018  0.0010  0.2319  0.0000 </r>
        <r>  0.0017  0.0010  0.2256  0.0000 </r>
        <r>  0.0018  0.0010  0.2301  0.0000 </r>
        <r>  0.0018  0.0010  0.2335  0.0000 </r>
       </set>
       <set comment="band 2">
        <r>  0.0001  0.0002  0.3006  0.0000 </r>
        <r>  0.0015  0.0005  0.0833  0.0000 </r>
        <r>  0.0005  0.0003  0.2368  0.0000 </r>
        <r>  0.0000  0.0002  0.3250  0.0000 </r>
       </set>
       <set comment="band 3">
        <r>  0.0006  0.0003  0.2463  0.0000 </r>
        <r>  0.0001  0.0002  0.2687  0.0000 </r>
        <r>  0.0011  0.0004  0.1248  0.0000 </r>
        <r>  0.0003  0.0003  0.3060  0.0000 </r>
       </set>
       <set comment="band 4">
        <r>  0.0009  0.0004  0.1844  0.0000 </r>
        <r>  0.0000  0.0002  0.2990  0.0000 </r>
        <r>  0.0000  0.0002  0.3465  0.0000 </r>
        <r>  0.0013  0.0004  0.1159  0.0000 </r>
       </set>
       <set comment="band 5">
        <r>  0.0000  0.0001  0.2304  0.0000 </r>
        <r>  0.0000  0.0001  0.2584  0.0000 </r>
        <r>  0.0000  0.0001  0.2293  0.0000 </r>
        <r>  0.0000  0.0001  0.2370  0.0000 </r>
       </set>
       <set comment="band 6">
        <r>  0.0000  0.0001  0.2244  0.0000 </r>
        <r>  0.0000  0.0001  0.2715  0.0000 </r>
        <r>  0.0000  0.0001  0.2518  0.0000 </r>
        <r>  0.0000  0.0001  0.2074  0.0000 </r>
       </set>
       <set comment="band 7">
        <r>  0.0001  0.0000  0.2947  0.0000 </r>
        <r>  0.0003  0.0001  0.0392  0.0000 </r>
        <r>  0.0001  0.0000  0.2649  0.0000 </r>
        <r>  0.0000  0.0000  0.3584  0.0000 </r>
       </set>
       <set comment="band 8">
        <r>  0.0003  0.0001  0.0673  0.0000 </r>
        <r>  0.0000  0.0000  0.3621  0.0000 </r>
        <r>  0.0002  0.0000  0.1916  0.0000 </r>
        <r>  0.0000  0.0000  0.3363  0.0000 </r>
       </set>
       <set comment="band 9">
        <r>  0.0000  0.0000  0.3483  0.0000 </r>
        <r>  0.0000  0.0000  0.3211  0.0000 </r>
        <r>  0.0001  0.0000  0.2675  0.0000 </r>
        <r>  0.0004  0.0001  0.0204  0.0000 </r>
       </set>
       <set comment="band 10">
        <r>  0.0000  0.0000  0.0240  0.0000 </r>
        <r>  0.0000  0.0000  0.3817  0.0000 </r>
        <r>  0.0000  0.0000  0.3000  0.0000 </r>
        <r>  0.0000  0.0000  0.2635  0.0000 </r>
       </set>
       <set comment="band 11">
        <r>  0.0000  0.0000  0.2905  0.0000 </r>
        <r>  0.0000  0.0000  0.3087  0.0000 </r>
        <r>  0.0000  0.0000  0.3223  0.0000 </r>
        <r>  0.0000  0.0000  0.0476  0.0000 </r>
       </set>
       <set comment="band 12">
        <r>  0.0000  0.0000  0.3387  0.0000 </r>
        <r>  0.0000  0.0000  0.1130  0.0000 </r>
        <r>  0.0000  0.0000  0.1492  0.0000 </r>
        <r>  0.0000  0.0000  0.3683  0.0000 </r>
       </set>
       <set comment="band 13">
        <r>  0.0000  0.0000  0.2848  0.0000 </r>
        <r>  0.0000  0.0000  0.2032  0.0000 </r>
        <r>  0.0000  0.0000  0.1997  0.0000 </r>
        <r>  0.0000  0.0000  0.2818  0.0000 </r>
       </set>
       <set comment="band 14">
        <r>  0.0000  0.0000  0.2735  0.0000 </r>
        <r>  0.0000  0.0000  0.2152  0.0000 </r>
        <r>  0.0000  0.0000  0.2376  0.0000 </r>
        <r>  0.0000  0.0000  0.2432  0.0000 </r>
       </set>
       <set comment="band 15">
        <r>  0.0000  0.0000  0.0424  0.0000 </r>
        <r>  0.0004  0.0002  0.5008  0.0000 </r>
        <r>  0.0003  0.0001  0.3945  0.0000 </r>
        <r>  0.0000  0.0000  0.0302  0.0000 </r>
       </set>
       <set comment="band 16">
        <r>  0.0001  0.0000  0.1083  0.0000 </r>
        <r>  0.0001  0.0001  0.1965  0.0000 </r>
        <r>  0.0002  0.0001  0.2609  0.0000 </r>
        <r>  0.0003  0.0001  0.4023  0.0000 </r>
       </set>
       <set comment="band 17">
        <r>  0.0004  0.0002  0.5767  0.0000 </r>
        <r>  0.0000  0.0000  0.0295  0.0000 </r>
        <r>  0.0000  0.0000  0.0689  0.0000 </r>
        <r>  0.0002  0.0001  0.2929  0.0000 </r>
       </set>
       <set comment="band 18">
        <r>  0.0000  0.0001  0.1276  0.0000 </r>
        <r>  0.0000  0.0002  0.3617  0.0000 </r>
        <r>  0.0000  0.0002  0.3617  0.0000 </r>
        <r>  0.0000  0.0001  0.1235  0.0000 </r>
       </set>
       <set comment="band 19">
        <r>  0.0000  0.0001  0.2477  0.0000 </r>
        <r>  0.0000  0.0002  0.3386  0.0000 </r>
        <r>  0.0000  0.0001  0.1183  0.0000 </r>
        <r>  0.0000  0.0001  0.2701  0.0000 </r>
       </set>
       <set comment="band 20">
        <r>  0.0000  0.0002  0.3610  0.0000 </r>
        <r>  0.0000  0.0000  0.0260  0.0000 </r>
        <r>  0.0000  0.0001  0.2473  0.0000 </r>
        <r>  0.0000  0.0002  0.3403  0.0000 </r>
       </set>
       <set comment="band 21">
        <r>  0.1039  0.0097  0.0060  0.0000 </r>
        <r>  0.1025  0.0096  0.0060  0.0000 </r>
        <r>  0.1033  0.0096  0.0059  0.0000 </r>
        <r>  0.1041  0.0097  0.0059  0.0000 </r>
       </set>
       <set comment="band 22">
        <r>  0.0245  0.0105  0.0049  0.0002 </r>
        <r>  0.2649  0.0041  0.0012  0.0000 </r>
        <r>  0.1338  0.0075  0.0032  0.0001 </r>
        <r>  0.0001  0.0112  0.0053  0.0002 </r>
       </set>
       <set comment="band 23">
        <r>  0.0678  0.0095  0.0042  0.0002 </r>
        <r>  0.0485  0.0098  0.0044  0.0002 </r>
        <r>  0.1696  0.0067  0.0026  0.0001 </r>
        <r>  0.1366  0.0076  0.0032  0.0001 </r>
       </set>
       <set comment="band 24">
        <r>  0.2242  0.0053  0.0018  0.0001 </r>
        <r>  0.0047  0.0110  0.0051  0.0002 </r>
        <r>  0.0138  0.0109  0.0050  0.0002 </r>
        <r>  0.1796  0.0065  0.0025  0.0001 </r>
       </set>
       <set comment="band 25">
        <r>  0.0030  0.0602  0.0026  0.0001 </r>
        <r>  0.0033  0.0610  0.0026  0.0001 </r>
        <r>  0.0031  0.0606  0.0026  0.0001 </r>
        <r>  0.0030  0.0601  0.0026  0.0001 </r>
       </set>
       <set comment="band 26">
        <r>  0.0009  0.0575  0.0017  0.0001 </r>
        <r>  0.0211  0.0428  0.0006  0.0002 </r>
        <r>  0.0055  0.0549  0.0015  0.0001 </r>
        <r>  0.0018  0.0570  0.0017  0.0001 </r>
       </set>
       <set comment="band 27">
        <r>  0.0086  0.0526  0.0013  0.0001 </r>
        <r>  0.0008  0.0572  0.0017  0.0001 </r>
        <r>  0.0161  0.0462  0.0009  0.0002 </r>
        <r>  0.0039  0.0557  0.0016  0.0001 </r>
       </set>
       <set comment="band 28">
        <r>  0.0126  0.0493  0.0011  0.0001 </r>
        <r>  0.0000  0.0578  0.0017  0.0001 </r>
        <r>  0.0004  0.0577  0.0017  0.0001 </r>
        <r>  0.0164  0.0468  0.0009  0.0002 </r>
       </set>
       <set comment="band 29">
        <r>  0.0000  0.0512  0.0018  0.0002 </r>
        <r>  0.0000  0.0517  0.0018  0.0002 </r>
        <r>  0.0000  0.0515  0.0018  0.0002 </r>
        <r>  0.0000  0.0510  0.0018  0.0002 </r>
       </set>
       <set comment="band 30">
        <r>  0.0000  0.0512  0.0018  0.0002 </r>
        <r>  0.0000  0.0514  0.0018  0.0002 </r>
        <r>  0.0000  0.0511  0.0018  0.0002 </r>
        <r>  0.0000  0.0513  0.0018  0.0002 </r>
       </set>
      </set>
     </set>
     <set comment="spin2">
      <set comment="kpoint 1">
       <set comment="band 1">
        <r>  0.0018  0.0010  0.2319  0.0000 </r>
        <r>  0.0017  0.0010  0.2256  0.0000 </r>
        <r>  0.0018  0.0010  0.2301  0.0000 </r>
        <r>  0.0018  0.0010  0.2335  0.0000 </r>
       </set>
       <set comment="band 2">
        <r>  0.0001  0.0002  0.3006  0.0000 </r>
        <r>  0.0015  0.0005  0.0833  0.0000 </r>
        <r>  0.0005  0.0003  0.2367  0.0000 </r>
        <r>  0.0000  0.0002  0.3250  0.0000 </r>
       </set>
       <set comment="band 3">
        <r>  0.0006  0.0003  0.2464  0.0000 </r>
        <r>  0.0001  0.0002  0.2687  0.0000 </r>
        <r>  0.0011  0.0004  0.1248  0.0000 </r>
        <r>  0.0003  0.0003  0.3060  0.0000 </r>
       </set>
       <set comment="band 4">
        <r>  0.0009  0.0004  0.1844  0.0000 </r>
        <r>  0.0000  0.0002  0.2990  0.0000 </r>
        <r>  0.0000  0.0002  0.3465  0.0000 </r>
        <r>  0.0013  0.0004  0.1159  0.0000 </r>
       </set>
       <set comment="band 5">
        <r>  0.0000  0.0001  0.2304  0.0000 </r>
        <r>  0.0000  0.0001  0.2584  0.0000 </r>
        <r>  0.0000  0.0001  0.2293  0.0000 </r>
        <r>  0.0000  0.0001  0.2370  0.0000 </r>
       </set>
       <set comment="band 6">
        <r>  0.0000  0.0001  0.2244  0.0000 </r>
        <r>  0.0000  0.0001  0.2715  0.0000 </r>
        <r>  0.0000  0.0001  0.2518  0.0000 </r>
        <r>  0.0000  0.0001  0.2075  0.0000 </r>
       </set>
       <set comment="band 7">
        <r>  0.0001  0.0000  0.2947  0.0000 </r>
        <r>  0.0003  0.0001  0.0393  0.0000 </r>
        <r>  0.0001  0.0000  0.2649  0.0000 </r>
        <r>  0.0000  0.0000  0.3584  0.0000 </r>
       </set>
       <set comment="band 8">
        <r>  0.0003  0.0001  0.0672  0.0000 </r>
        <r>  0.0000  0.0000  0.3621  0.0000 </r>
        <r>  0.0002  0.0000  0.1919  0.0000 </r>
        <r>  0.0000  0.0000  0.3361  0.0000 </r>
       </set>
       <set comment="band 9">
        <r>  0.0000  0.0000  0.3484  0.0000 </r>
        <r>  0.0000  0.0000  0.3211  0.0000 </r>
        <r>  0.0001  0.0000  0.2673  0.0000 </r>
        <r>  0.0004  0.0001  0.0206  0.0000 </r>
       </set>
       <set comment="band 10">
        <r>  0.0000  0.0000  0.0241  0.0000 </r>
        <r>  0.0000  0.0000  0.3818  0.0000 </r>
        <r>  0.0000  0.0000  0.3001  0.0000 </r>
        <r>  0.0000  0.0000  0.2633  0.0000 </r>
       </set>
       <set comment="band 11">
        <r>  0.0000  0.0000  0.2904  0.0000 </r>
        <r>  0.0000  0.0000  0.3090  0.0000 </r>
        <r>  0.0000  0.0000  0.3220  0.0000 </r>
        <r>  0.0000  0.0000  0.0477  0.0000 </r>
       </set>
       <set comment="band 12">
        <r>  0.0000  0.0000  0.3387  0.0000 </r>
        <r>  0.0000  0.0000  0.1128  0.0000 </r>
        <r>  0.0000  0.0000  0.1494  0.0000 </r>
        <r>  0.0000  0.0000  0.3684  0.0000 </r>
       </set>
       <set comment="band 13">
        <r>  0.0000  0.0000  0.2848  0.0000 </r>
        <r>  0.0000  0.0000  0.2031  0.0000 </r>
        <r>  0.0000  0.0000  0.1997  0.0000 </r>
        <r>  0.0000  0.0000  0.2819  0.0000 </r>
       </set>
       <set comment="band 14">
        <r>  0.0000  0.0000  0.2735  0.0000 </r>
        <r>  0.0000  0.0000  0.2152  0.0000 </r>
        <r>  0.0000  0.0000  0.2376  0.0000 </r>
        <r>  0.0000  0.0000  0.2432  0.0000 </r>
       </set>
       <set comment="band 15">
        <r>  0.0000  0.0000  0.0425  0.0000 </r>
        <r>  0.0004  0.0002  0.5013  0.0000 </r>
        <r>  0.0003  0.0001  0.3940  0.0000 </r>
        <r>  0.0000  0.0000  0.0301  0.0000 </r>
       </set>
       <set comment="band 16">
        <r>  0.0001  0.0000  0.1086  0.0000 </r>
        <r>  0.0001  0.0001  0.1960  0.0000 </r>
        <r>  0.0002  0.0001  0.2615  0.0000 </r>
        <r>  0.0003  0.0001  0.4018  0.0000 </r>
       </set>
       <set comment="band 17">
        <r>  0.0004  0.0002  0.5763  0.0000 </r>
        <r>  0.0000  0.0000  0.0295  0.0000 </r>
        <r>  0.0000  0.0000  0.0687  0.0000 </r>
        <r>  0.0002  0.0001  0.2934  0.0000 </r>
       </set>
       <set comment="band 18">
        <r>  0.0000  0.0001  0.1277  0.0000 </r>
        <r>  0.0000  0.0002  0.3617  0.0000 </r>
        <r>  0.0000  0.0002  0.3617  0.0000 </r>
        <r>  0.0000  0.0001  0.1235  0.0000 </r>
       </set>
       <set comment="band 19">
        <r>  0.0000  0.0001  0.2477  0.0000 </r>
        <r>  0.0000  0.0002  0.3387  0.0000 </r>
        <r>  0.0000  0.0001  0.1182  0.0000 </r>
        <r>  0.0000  0.0001  0.2701  0.0000 </r>
       </set>
       <set comment="band 20">
        <r>  0.0000  0.0002  0.3610  0.0000 </r>
        <r>  0.0000  0.0000  0.0260  0.0000 </r>
        <r>  0.0000  0.0001  0.2474  0.0000 </r>
        <r>  0.0000  0.0002  0.3402  0.0000 </r>
       </set>
       <set comment="band 21">
        <r>  0.1039  0.0097  0.0060  0.0000 </r>
        <r>  0.1025  0.0096  0.0060  0.0000 </r>
        <r>  0.1033  0.0096  0.0059  0.0000 </r>
        <r>  0.1041  0.0097  0.0059  0.0000 </r>
       </set>
       <set comment="band 22">
        <r>  0.0245  0.0105  0.0049  0.0002 </r>
        <r>  0.2649  0.0041  0.0012  0.0000 </r>
        <r>  0.1338  0.0075  0.0032  0.0001 </r>
        <r>  0.0001  0.0112  0.0053  0.0002 </r>
       </set>
       <set comment="band 23">
        <r>  0.0678  0.0095  0.0042  0.0002 </r>
        <r>  0.0485  0.0098  0.0044  0.0002 </r>
        <r>  0.1696  0.0067  0.0026  0.0001 </r>
        <r>  0.1366  0.0076  0.0032  0.0001 </r>
       </set>
       <set comment="band 24">
        <r>  0.2242  0.0053  0.0018  0.0001 </r>
        <r>  0.0047  0.0110  0.0051  0.0002 </r>
        <r>  0.0138  0.0109  0.0050  0.0002 </r>
        <r>  0.1796  0.0065  0.0025  0.0001 </r>
       </set>
       <set comment="band 25">
        <r>  0.0030  0.0602  0.0026  0.0001 </r>
        <r>  0.0033  0.0610  0.0026  0.0001 </r>
        <r>  0.0031  0.0606  0.0026  0.0001 </r>
        <r>  0.0030  0.0601  0.0026  0.0001 </r>
       </set>
       <set comment="band 26">
        <r>  0.0009  0.0575  0.0017  0.0001 </r>
        <r>  0.0211  0.0428  0.0006  0.0002 </r>
        <r>  0.0055  0.0549  0.0015  0.0001 </r>
        <r>  0.0018  0.0570  0.0017  0.0001 </r>
       </set>
       <set comment="band 27">
        <r>  0.0086  0.0526  0.0013  0.0001 </r>
        <r>  0.0008  0.0572  0.0017  0.0001 </r>
        <r>  0.0161  0.0462  0.0009  0.0002 </r>
        <r>  0.0039  0.0557  0.0016  0.0001 </r>
       </set>
       <set comment="band 28">
        <r>  0.0126  0.0493  0.0011  0.0001 </r>
        <r>  0.0000  0.0578  0.0017  0.0001 </r>
        <r>  0.0004  0.0577  0.0017  0.0001 </r>
        <r>  0.0164  0.0468  0.0009  0.0002 </r>
       </set>
       <set comment="band 29">
        <r>  0.0000  0.0512  0.0018  0.0002 </r>
        <r>  0.0000  0.0517  0.0018  0.0002 </r>
        <r>  0.0000  0.0515  0.0018  0.0002 </r>
        <r>  0.0000  0.0510  0.0018  0.0002 </r>
       </set>
       <set comment="band 30">
        <r>  0.0000  0.0512  0.0018  0.0002 </r>
        <r>  0.0000  0.0514  0.0018  0.0002 </r>
        <r>  0.0000  0.0511  0.0018  0.0002 </r>
        <r>  0.0000  0.0513  0.0018  0.0002 </r>
       </set>
      </set>
     </set>
    </set>
   </array>
  </projected>
 </calculation>
 <structure name="finalpos" >
  <crystal>
   <varray name="basis" >
    <v>      17.00000000       0.00000000       0.00000000 </v>
    <v>       0.00000000      17.00000000       0.00000000 </v>
    <v>       0.00000000       0.00000000      17.00000000 </v>
   </varray>
   <i name="volume">   4913.00000000 </i>
   <varray name="rec_basis" >
    <v>       0.05882353       0.00000000       0.00000000 </v>
    <v>       0.00000000       0.05882353       0.00000000 </v>
    <v>       0.00000000       0.00000000       0.05882353 </v>
   </varray>
  </crystal>
  <varray name="positions" >
   <v>       0.93920996       0.01628047       0.08476771 </v>
   <v>       0.05346299       0.08678399       0.95515551 </v>
   <v>       0.95109827       0.93481895       0.91785178 </v>
   <v>       0.09367938       0.92433247       0.03720207 </v>
  </varray>
 </structure>
</modeling>
