Cd                                      
           1
    17.000000    0.000000    0.000000
     0.000000   17.000000    0.000000
     0.000000    0.000000   17.000000
   Cd
   4
Direct configuration=     1
   0.93822900  0.01484682  0.08541281
   0.05259607  0.08164835  0.95364072
   0.94849354  0.93953118  0.91521064
   0.09813198  0.92618953  0.04071289
Direct configuration=     2
   0.93828778  0.01487902  0.08538710
   0.05270373  0.08198664  0.95369957
   0.94853981  0.93924372  0.91530367
   0.09791926  0.92610650  0.04058672
Direct configuration=     3
   0.93846413  0.01497563  0.08530995
   0.05302671  0.08300151  0.95387614
   0.94867864  0.93838134  0.91558277
   0.09728110  0.92585740  0.04020819
Direct configuration=     4
   0.93881684  0.01516884  0.08515565
   0.05367267  0.08503126  0.95422928
   0.94895629  0.93665657  0.91614098
   0.09600479  0.92535921  0.03945115
Direct configuration=     5
   0.93952224  0.01555526  0.08484704
   0.05496459  0.08909075  0.95493556
   0.94951159  0.93320703  0.91725740
   0.09345216  0.92436284  0.03793705
Direct configuration=     6
   0.93918107  0.01536837  0.08499630
   0.05433976  0.08712740  0.95459398
   0.94924302  0.93487538  0.91671745
   0.09468673  0.92484473  0.03866934
Direct configuration=     7
   0.93922839  0.01558412  0.08488186
   0.05412122  0.08707040  0.95476927
   0.94978079  0.93483127  0.91709930
   0.09432020  0.92473009  0.03822663
Direct configuration=     8
   0.93930859  0.01594986  0.08468786
   0.05375073  0.08697378  0.95506644
   0.95069241  0.93475649  0.91774661
   0.09369885  0.92453575  0.03747615
Direct configuration=     9
   0.93933395  0.01606550  0.08462652
   0.05363359  0.08694323  0.95516040
   0.95098065  0.93473284  0.91795128
   0.09350239  0.92447430  0.03723886
Direct configuration=    10
   0.93920996  0.01628047  0.08476771
   0.05346299  0.08678399  0.95515551
   0.95109827  0.93481895  0.91785178
   0.09367938  0.92433247  0.03720207
