   6   6   1   0
  0.8188333E+03  0.1700000E-08  0.1700000E-08  0.1700000E-08  0.5000000E-15
  1.000000000000000E-004
  CAR 
 CuPd                                    
     -0.05541529     -8.25634583  301     -3.82100923      1.00000000
     -8.256  0.0000E+00  0.0000E+00  0.0000E+00  0.0000E+00
     -8.229  0.0000E+00  0.0000E+00  0.0000E+00  0.0000E+00
     -8.202  0.0000E+00  0.0000E+00  0.0000E+00  0.0000E+00
     -8.174  0.0000E+00  0.0000E+00  0.0000E+00  0.0000E+00
     -8.147  0.0000E+00  0.0000E+00  0.0000E+00  0.0000E+00
     -8.120  0.0000E+00  0.0000E+00  0.0000E+00  0.0000E+00
     -8.092  0.0000E+00  0.0000E+00  0.0000E+00  0.0000E+00
     -8.065  0.0000E+00  0.0000E+00  0.0000E+00  0.0000E+00
     -8.038  0.0000E+00  0.0000E+00  0.0000E+00  0.0000E+00
     -8.010  0.0000E+00  0.0000E+00  0.0000E+00  0.0000E+00
     -7.983  0.0000E+00  0.0000E+00  0.0000E+00  0.0000E+00
     -7.956  0.0000E+00  0.0000E+00  0.0000E+00  0.0000E+00
     -7.928  0.0000E+00  0.0000E+00  0.0000E+00  0.0000E+00
     -7.901  0.7902E-07  0.0000E+00  0.2160E-08  0.0000E+00
     -7.874  0.1825E+00  0.0000E+00  0.4988E-02  0.0000E+00
     -7.846  0.4508E-03  0.0000E+00  0.5000E-02  0.0000E+00
     -7.819  0.0000E+00  0.4136E-01  0.5000E-02  0.1131E-02
     -7.792  0.0000E+00  0.1415E+00  0.5000E-02  0.5000E-02
     -7.764  0.0000E+00  0.0000E+00  0.5000E-02  0.5000E-02
     -7.737  0.0000E+00  0.0000E+00  0.5000E-02  0.5000E-02
     -7.710  0.0000E+00  0.0000E+00  0.5000E-02  0.5000E-02
     -7.682  0.0000E+00  0.0000E+00  0.5000E-02  0.5000E-02
     -7.655  0.0000E+00  0.0000E+00  0.5000E-02  0.5000E-02
     -7.628  0.0000E+00  0.0000E+00  0.5000E-02  0.5000E-02
     -7.600  0.0000E+00  0.0000E+00  0.5000E-02  0.5000E-02
     -7.573  0.0000E+00  0.0000E+00  0.5000E-02  0.5000E-02
     -7.546  0.0000E+00  0.0000E+00  0.5000E-02  0.5000E-02
     -7.518  0.0000E+00  0.0000E+00  0.5000E-02  0.5000E-02
     -7.491  0.0000E+00  0.0000E+00  0.5000E-02  0.5000E-02
     -7.464  0.0000E+00  0.0000E+00  0.5000E-02  0.5000E-02
     -7.436  0.0000E+00  0.0000E+00  0.5000E-02  0.5000E-02
     -7.409  0.0000E+00  0.0000E+00  0.5000E-02  0.5000E-02
     -7.382  0.0000E+00  0.0000E+00  0.5000E-02  0.5000E-02
     -7.354  0.0000E+00  0.0000E+00  0.5000E-02  0.5000E-02
     -7.327  0.0000E+00  0.0000E+00  0.5000E-02  0.5000E-02
     -7.300  0.0000E+00  0.0000E+00  0.5000E-02  0.5000E-02
     -7.272  0.0000E+00  0.0000E+00  0.5000E-02  0.5000E-02
     -7.245  0.0000E+00  0.0000E+00  0.5000E-02  0.5000E-02
     -7.218  0.0000E+00  0.0000E+00  0.5000E-02  0.5000E-02
     -7.190  0.0000E+00  0.0000E+00  0.5000E-02  0.5000E-02
     -7.163  0.0000E+00  0.0000E+00  0.5000E-02  0.5000E-02
     -7.136  0.0000E+00  0.0000E+00  0.5000E-02  0.5000E-02
     -7.108  0.3601E-01  0.0000E+00  0.5984E-02  0.5000E-02
     -7.081  0.1469E+00  0.0000E+00  0.1000E-01  0.5000E-02
     -7.054  0.0000E+00  0.0000E+00  0.1000E-01  0.5000E-02
     -7.026  0.0000E+00  0.0000E+00  0.1000E-01  0.5000E-02
     -6.999  0.0000E+00  0.0000E+00  0.1000E-01  0.5000E-02
     -6.972  0.0000E+00  0.0000E+00  0.1000E-01  0.5000E-02
     -6.944  0.0000E+00  0.0000E+00  0.1000E-01  0.5000E-02
     -6.917  0.0000E+00  0.0000E+00  0.1000E-01  0.5000E-02
     -6.890  0.0000E+00  0.0000E+00  0.1000E-01  0.5000E-02
     -6.862  0.0000E+00  0.0000E+00  0.1000E-01  0.5000E-02
     -6.835  0.2796E-02  0.0000E+00  0.1008E-01  0.5000E-02
     -6.808  0.1801E+00  0.0000E+00  0.1500E-01  0.5000E-02
     -6.780  0.2845E-08  0.0000E+00  0.1500E-01  0.5000E-02
     -6.753  0.3586E+00  0.0000E+00  0.2480E-01  0.5000E-02
     -6.726  0.7249E-02  0.3055E-07  0.2500E-01  0.5000E-02
     -6.698  0.0000E+00  0.1821E+00  0.2500E-01  0.9979E-02
     -6.671  0.0000E+00  0.1526E-02  0.2500E-01  0.1002E-01
     -6.643  0.4385E-05  0.1822E+00  0.2500E-01  0.1500E-01
     -6.616  0.3657E+00  0.0000E+00  0.3500E-01  0.1500E-01
     -6.589  0.8290E-04  0.0000E+00  0.3500E-01  0.1500E-01
     -6.561  0.0000E+00  0.0000E+00  0.3500E-01  0.1500E-01
     -6.534  0.0000E+00  0.1115E-05  0.3500E-01  0.1500E-01
     -6.507  0.1385E-12  0.3656E+00  0.3500E-01  0.2499E-01
     -6.479  0.1363E+00  0.3615E-03  0.3872E-01  0.2500E-01
     -6.452  0.4665E-01  0.3657E+00  0.4000E-01  0.3500E-01
     -6.425  0.6092E-16  0.0000E+00  0.4000E-01  0.3500E-01
     -6.397  0.6734E-01  0.0000E+00  0.4184E-01  0.3500E-01
     -6.370  0.1156E+00  0.0000E+00  0.4500E-01  0.3500E-01
     -6.343  0.0000E+00  0.0000E+00  0.4500E-01  0.3500E-01
     -6.315  0.0000E+00  0.0000E+00  0.4500E-01  0.3500E-01
     -6.288  0.0000E+00  0.1487E-01  0.4500E-01  0.3541E-01
     -6.261  0.0000E+00  0.2935E+00  0.4500E-01  0.4343E-01
     -6.233  0.0000E+00  0.5740E-01  0.4500E-01  0.4500E-01
     -6.206  0.0000E+00  0.0000E+00  0.4500E-01  0.4500E-01
     -6.179  0.1838E-11  0.0000E+00  0.4500E-01  0.4500E-01
     -6.151  0.1550E+00  0.0000E+00  0.4924E-01  0.4500E-01
     -6.124  0.2786E-01  0.0000E+00  0.5000E-01  0.4500E-01
     -6.097  0.0000E+00  0.0000E+00  0.5000E-01  0.4500E-01
     -6.069  0.0000E+00  0.0000E+00  0.5000E-01  0.4500E-01
     -6.042  0.0000E+00  0.0000E+00  0.5000E-01  0.4500E-01
     -6.015  0.4108E-02  0.0000E+00  0.5011E-01  0.4500E-01
     -5.987  0.1788E+00  0.2876E-08  0.5500E-01  0.4500E-01
     -5.960  0.1275E-09  0.1804E+00  0.5500E-01  0.4993E-01
     -5.933  0.3432E+00  0.2551E-02  0.6438E-01  0.5000E-01
     -5.905  0.2258E-01  0.0000E+00  0.6500E-01  0.5000E-01
     -5.878  0.0000E+00  0.0000E+00  0.6500E-01  0.5000E-01
     -5.851  0.0000E+00  0.0000E+00  0.6500E-01  0.5000E-01
     -5.823  0.0000E+00  0.0000E+00  0.6500E-01  0.5000E-01
     -5.796  0.0000E+00  0.0000E+00  0.6500E-01  0.5000E-01
     -5.769  0.0000E+00  0.0000E+00  0.6500E-01  0.5000E-01
     -5.741  0.0000E+00  0.0000E+00  0.6500E-01  0.5000E-01
     -5.714  0.0000E+00  0.1791E-02  0.6500E-01  0.5005E-01
     -5.687  0.0000E+00  0.1811E+00  0.6500E-01  0.5500E-01
     -5.659  0.0000E+00  0.3097E-03  0.6500E-01  0.5501E-01
     -5.632  0.0000E+00  0.3655E+00  0.6500E-01  0.6500E-01
     -5.605  0.0000E+00  0.0000E+00  0.6500E-01  0.6500E-01
     -5.577  0.0000E+00  0.0000E+00  0.6500E-01  0.6500E-01
     -5.550  0.0000E+00  0.0000E+00  0.6500E-01  0.6500E-01
     -5.523  0.4634E-01  0.0000E+00  0.6627E-01  0.6500E-01
     -5.495  0.1366E+00  0.0000E+00  0.7000E-01  0.6500E-01
     -5.468  0.0000E+00  0.0000E+00  0.7000E-01  0.6500E-01
     -5.441  0.0000E+00  0.0000E+00  0.7000E-01  0.6500E-01
     -5.413  0.0000E+00  0.0000E+00  0.7000E-01  0.6500E-01
     -5.386  0.0000E+00  0.0000E+00  0.7000E-01  0.6500E-01
     -5.359  0.2983E-04  0.0000E+00  0.7000E-01  0.6500E-01
     -5.331  0.3658E+00  0.0000E+00  0.8000E-01  0.6500E-01
     -5.304  0.0000E+00  0.0000E+00  0.8000E-01  0.6500E-01
     -5.277  0.0000E+00  0.2039E-09  0.8000E-01  0.6500E-01
     -5.249  0.0000E+00  0.1756E+00  0.8000E-01  0.6980E-01
     -5.222  0.0000E+00  0.7300E-02  0.8000E-01  0.7000E-01
     -5.195  0.0000E+00  0.7501E-04  0.8000E-01  0.7000E-01
     -5.167  0.0000E+00  0.3657E+00  0.8000E-01  0.8000E-01
     -5.140  0.0000E+00  0.0000E+00  0.8000E-01  0.8000E-01
     -5.113  0.0000E+00  0.0000E+00  0.8000E-01  0.8000E-01
     -5.085  0.0000E+00  0.0000E+00  0.8000E-01  0.8000E-01
     -5.058  0.0000E+00  0.0000E+00  0.8000E-01  0.8000E-01
     -5.031  0.6209E-08  0.0000E+00  0.8000E-01  0.8000E-01
     -5.003  0.3608E+00  0.0000E+00  0.8986E-01  0.8000E-01
     -4.976  0.5031E-02  0.0000E+00  0.9000E-01  0.8000E-01
     -4.949  0.0000E+00  0.0000E+00  0.9000E-01  0.8000E-01
     -4.921  0.0000E+00  0.0000E+00  0.9000E-01  0.8000E-01
     -4.894  0.6923E-03  0.0000E+00  0.9002E-01  0.8000E-01
     -4.867  0.1822E+00  0.2215E-04  0.9500E-01  0.8000E-01
     -4.839  0.7055E-01  0.3658E+00  0.9693E-01  0.9000E-01
     -4.812  0.1124E+00  0.1162E-02  0.1000E+00  0.9003E-01
     -4.785  0.0000E+00  0.1817E+00  0.1000E+00  0.9500E-01
     -4.757  0.0000E+00  0.7436E-01  0.1000E+00  0.9703E-01
     -4.730  0.0000E+00  0.1085E+00  0.1000E+00  0.1000E+00
     -4.703  0.0000E+00  0.0000E+00  0.1000E+00  0.1000E+00
     -4.675  0.0000E+00  0.0000E+00  0.1000E+00  0.1000E+00
     -4.648  0.0000E+00  0.0000E+00  0.1000E+00  0.1000E+00
     -4.621  0.0000E+00  0.0000E+00  0.1000E+00  0.1000E+00
     -4.593  0.0000E+00  0.0000E+00  0.1000E+00  0.1000E+00
     -4.566  0.0000E+00  0.0000E+00  0.1000E+00  0.1000E+00
     -4.539  0.0000E+00  0.0000E+00  0.1000E+00  0.1000E+00
     -4.511  0.1235E-09  0.0000E+00  0.1000E+00  0.1000E+00
     -4.484  0.1742E+00  0.0000E+00  0.1048E+00  0.1000E+00
     -4.457  0.1395E+00  0.0000E+00  0.1086E+00  0.1000E+00
     -4.429  0.5204E-01  0.0000E+00  0.1100E+00  0.1000E+00
     -4.402  0.1150E+00  0.0000E+00  0.1131E+00  0.1000E+00
     -4.375  0.6798E-01  0.0000E+00  0.1150E+00  0.1000E+00
     -4.347  0.7108E+00  0.0000E+00  0.1344E+00  0.1000E+00
     -4.320  0.2035E+00  0.1932E-03  0.1400E+00  0.1000E+00
     -4.293  0.2649E-03  0.1845E+00  0.1400E+00  0.1050E+00
     -4.265  0.0000E+00  0.3605E+00  0.1400E+00  0.1149E+00
     -4.238  0.0000E+00  0.3539E-02  0.1400E+00  0.1150E+00
     -4.211  0.0000E+00  0.1828E+00  0.1400E+00  0.1200E+00
     -4.183  0.0000E+00  0.1527E-03  0.1400E+00  0.1200E+00
     -4.156  0.0000E+00  0.1828E+00  0.1400E+00  0.1250E+00
     -4.129  0.0000E+00  0.0000E+00  0.1400E+00  0.1250E+00
     -4.101  0.0000E+00  0.0000E+00  0.1400E+00  0.1250E+00
     -4.074  0.0000E+00  0.0000E+00  0.1400E+00  0.1250E+00
     -4.047  0.0000E+00  0.3047E-03  0.1400E+00  0.1250E+00
     -4.019  0.0000E+00  0.3655E+00  0.1400E+00  0.1350E+00
     -3.992  0.2944E-15  0.0000E+00  0.1400E+00  0.1350E+00
     -3.965  0.1477E+00  0.0000E+00  0.1440E+00  0.1350E+00
     -3.937  0.2181E+00  0.0000E+00  0.1500E+00  0.1350E+00
     -3.910  0.3389E-06  0.0000E+00  0.1500E+00  0.1350E+00
     -3.883  0.1827E+00  0.0000E+00  0.1550E+00  0.1350E+00
     -3.855  0.1742E-03  0.7315E-02  0.1550E+00  0.1352E+00
     -3.828  0.0000E+00  0.3585E+00  0.1550E+00  0.1450E+00
     -3.801  0.0000E+00  0.0000E+00  0.1550E+00  0.1450E+00
     -3.773  0.0000E+00  0.0000E+00  0.1550E+00  0.1450E+00
     -3.746  0.0000E+00  0.3469E-02  0.1550E+00  0.1451E+00
     -3.718  0.0000E+00  0.1794E+00  0.1550E+00  0.1500E+00
     -3.691  0.0000E+00  0.0000E+00  0.1550E+00  0.1500E+00
     -3.664  0.0000E+00  0.0000E+00  0.1550E+00  0.1500E+00
     -3.636  0.0000E+00  0.0000E+00  0.1550E+00  0.1500E+00
     -3.609  0.0000E+00  0.0000E+00  0.1550E+00  0.1500E+00
     -3.582  0.0000E+00  0.0000E+00  0.1550E+00  0.1500E+00
     -3.554  0.0000E+00  0.0000E+00  0.1550E+00  0.1500E+00
     -3.527  0.0000E+00  0.0000E+00  0.1550E+00  0.1500E+00
     -3.500  0.0000E+00  0.5915E-05  0.1550E+00  0.1500E+00
     -3.472  0.0000E+00  0.1829E+00  0.1550E+00  0.1550E+00
     -3.445  0.0000E+00  0.0000E+00  0.1550E+00  0.1550E+00
     -3.418  0.0000E+00  0.0000E+00  0.1550E+00  0.1550E+00
     -3.390  0.0000E+00  0.0000E+00  0.1550E+00  0.1550E+00
     -3.363  0.0000E+00  0.0000E+00  0.1550E+00  0.1550E+00
     -3.336  0.0000E+00  0.0000E+00  0.1550E+00  0.1550E+00
     -3.308  0.0000E+00  0.0000E+00  0.1550E+00  0.1550E+00
     -3.281  0.0000E+00  0.0000E+00  0.1550E+00  0.1550E+00
     -3.254  0.0000E+00  0.0000E+00  0.1550E+00  0.1550E+00
     -3.226  0.0000E+00  0.0000E+00  0.1550E+00  0.1550E+00
     -3.199  0.0000E+00  0.0000E+00  0.1550E+00  0.1550E+00
     -3.172  0.0000E+00  0.0000E+00  0.1550E+00  0.1550E+00
     -3.144  0.0000E+00  0.0000E+00  0.1550E+00  0.1550E+00
     -3.117  0.3101E-08  0.0000E+00  0.1550E+00  0.1550E+00
     -3.090  0.3590E+00  0.0000E+00  0.1648E+00  0.1550E+00
     -3.062  0.8094E-01  0.6246E-12  0.1670E+00  0.1550E+00
     -3.035  0.1088E+00  0.1478E+00  0.1700E+00  0.1590E+00
     -3.008  0.0000E+00  0.3511E-01  0.1700E+00  0.1600E+00
     -2.980  0.0000E+00  0.1291E-01  0.1700E+00  0.1604E+00
     -2.953  0.0000E+00  0.3529E+00  0.1700E+00  0.1700E+00
     -2.926  0.0000E+00  0.0000E+00  0.1700E+00  0.1700E+00
     -2.898  0.0000E+00  0.0000E+00  0.1700E+00  0.1700E+00
     -2.871  0.0000E+00  0.0000E+00  0.1700E+00  0.1700E+00
     -2.844  0.0000E+00  0.0000E+00  0.1700E+00  0.1700E+00
     -2.816  0.0000E+00  0.0000E+00  0.1700E+00  0.1700E+00
     -2.789  0.0000E+00  0.0000E+00  0.1700E+00  0.1700E+00
     -2.762  0.0000E+00  0.0000E+00  0.1700E+00  0.1700E+00
     -2.734  0.0000E+00  0.0000E+00  0.1700E+00  0.1700E+00
     -2.707  0.0000E+00  0.0000E+00  0.1700E+00  0.1700E+00
     -2.680  0.0000E+00  0.0000E+00  0.1700E+00  0.1700E+00
     -2.652  0.0000E+00  0.0000E+00  0.1700E+00  0.1700E+00
     -2.625  0.0000E+00  0.0000E+00  0.1700E+00  0.1700E+00
     -2.598  0.0000E+00  0.0000E+00  0.1700E+00  0.1700E+00
     -2.570  0.0000E+00  0.0000E+00  0.1700E+00  0.1700E+00
     -2.543  0.0000E+00  0.0000E+00  0.1700E+00  0.1700E+00
     -2.516  0.0000E+00  0.0000E+00  0.1700E+00  0.1700E+00
     -2.488  0.0000E+00  0.0000E+00  0.1700E+00  0.1700E+00
     -2.461  0.0000E+00  0.0000E+00  0.1700E+00  0.1700E+00
     -2.434  0.0000E+00  0.0000E+00  0.1700E+00  0.1700E+00
     -2.406  0.0000E+00  0.0000E+00  0.1700E+00  0.1700E+00
     -2.379  0.0000E+00  0.0000E+00  0.1700E+00  0.1700E+00
     -2.352  0.0000E+00  0.0000E+00  0.1700E+00  0.1700E+00
     -2.324  0.0000E+00  0.0000E+00  0.1700E+00  0.1700E+00
     -2.297  0.0000E+00  0.0000E+00  0.1700E+00  0.1700E+00
     -2.270  0.0000E+00  0.0000E+00  0.1700E+00  0.1700E+00
     -2.242  0.0000E+00  0.0000E+00  0.1700E+00  0.1700E+00
     -2.215  0.0000E+00  0.0000E+00  0.1700E+00  0.1700E+00
     -2.188  0.0000E+00  0.0000E+00  0.1700E+00  0.1700E+00
     -2.160  0.0000E+00  0.0000E+00  0.1700E+00  0.1700E+00
     -2.133  0.0000E+00  0.0000E+00  0.1700E+00  0.1700E+00
     -2.106  0.0000E+00  0.0000E+00  0.1700E+00  0.1700E+00
     -2.078  0.0000E+00  0.0000E+00  0.1700E+00  0.1700E+00
     -2.051  0.0000E+00  0.0000E+00  0.1700E+00  0.1700E+00
     -2.024  0.0000E+00  0.0000E+00  0.1700E+00  0.1700E+00
     -1.996  0.0000E+00  0.0000E+00  0.1700E+00  0.1700E+00
     -1.969  0.0000E+00  0.0000E+00  0.1700E+00  0.1700E+00
     -1.942  0.0000E+00  0.0000E+00  0.1700E+00  0.1700E+00
     -1.914  0.0000E+00  0.0000E+00  0.1700E+00  0.1700E+00
     -1.887  0.0000E+00  0.0000E+00  0.1700E+00  0.1700E+00
     -1.860  0.0000E+00  0.0000E+00  0.1700E+00  0.1700E+00
     -1.832  0.0000E+00  0.0000E+00  0.1700E+00  0.1700E+00
     -1.805  0.0000E+00  0.0000E+00  0.1700E+00  0.1700E+00
     -1.778  0.0000E+00  0.0000E+00  0.1700E+00  0.1700E+00
     -1.750  0.0000E+00  0.0000E+00  0.1700E+00  0.1700E+00
     -1.723  0.0000E+00  0.0000E+00  0.1700E+00  0.1700E+00
     -1.696  0.0000E+00  0.0000E+00  0.1700E+00  0.1700E+00
     -1.668  0.0000E+00  0.0000E+00  0.1700E+00  0.1700E+00
     -1.641  0.0000E+00  0.0000E+00  0.1700E+00  0.1700E+00
     -1.614  0.0000E+00  0.0000E+00  0.1700E+00  0.1700E+00
     -1.586  0.0000E+00  0.0000E+00  0.1700E+00  0.1700E+00
     -1.559  0.0000E+00  0.0000E+00  0.1700E+00  0.1700E+00
     -1.532  0.0000E+00  0.0000E+00  0.1700E+00  0.1700E+00
     -1.504  0.0000E+00  0.0000E+00  0.1700E+00  0.1700E+00
     -1.477  0.0000E+00  0.0000E+00  0.1700E+00  0.1700E+00
     -1.450  0.0000E+00  0.0000E+00  0.1700E+00  0.1700E+00
     -1.422  0.0000E+00  0.0000E+00  0.1700E+00  0.1700E+00
     -1.395  0.0000E+00  0.0000E+00  0.1700E+00  0.1700E+00
     -1.368  0.0000E+00  0.0000E+00  0.1700E+00  0.1700E+00
     -1.340  0.0000E+00  0.0000E+00  0.1700E+00  0.1700E+00
     -1.313  0.0000E+00  0.0000E+00  0.1700E+00  0.1700E+00
     -1.286  0.0000E+00  0.0000E+00  0.1700E+00  0.1700E+00
     -1.258  0.0000E+00  0.0000E+00  0.1700E+00  0.1700E+00
     -1.231  0.0000E+00  0.0000E+00  0.1700E+00  0.1700E+00
     -1.204  0.1874E-06  0.0000E+00  0.1700E+00  0.1700E+00
     -1.176  0.1826E+00  0.2538E-15  0.1750E+00  0.1700E+00
     -1.149  0.1279E+00  0.7937E-01  0.1785E+00  0.1722E+00
     -1.122  0.5531E-01  0.1035E+00  0.1800E+00  0.1750E+00
     -1.094  0.0000E+00  0.0000E+00  0.1800E+00  0.1750E+00
     -1.067  0.0000E+00  0.0000E+00  0.1800E+00  0.1750E+00
     -1.040  0.0000E+00  0.4583E-11  0.1800E+00  0.1750E+00
     -1.012  0.0000E+00  0.1605E+00  0.1800E+00  0.1794E+00
     -0.985  0.0000E+00  0.2245E-01  0.1800E+00  0.1800E+00
     -0.958  0.0000E+00  0.0000E+00  0.1800E+00  0.1800E+00
     -0.930  0.3947E-10  0.0000E+00  0.1800E+00  0.1800E+00
     -0.903  0.1704E+00  0.2234E-15  0.1847E+00  0.1800E+00
     -0.876  0.1246E-01  0.7785E-01  0.1850E+00  0.1821E+00
     -0.848  0.0000E+00  0.1051E+00  0.1850E+00  0.1850E+00
     -0.821  0.0000E+00  0.0000E+00  0.1850E+00  0.1850E+00
     -0.793  0.0000E+00  0.0000E+00  0.1850E+00  0.1850E+00
     -0.766  0.0000E+00  0.0000E+00  0.1850E+00  0.1850E+00
     -0.739  0.0000E+00  0.0000E+00  0.1850E+00  0.1850E+00
     -0.711  0.0000E+00  0.0000E+00  0.1850E+00  0.1850E+00
     -0.684  0.0000E+00  0.0000E+00  0.1850E+00  0.1850E+00
     -0.657  0.0000E+00  0.0000E+00  0.1850E+00  0.1850E+00
     -0.629  0.0000E+00  0.0000E+00  0.1850E+00  0.1850E+00
     -0.602  0.0000E+00  0.0000E+00  0.1850E+00  0.1850E+00
     -0.575  0.0000E+00  0.0000E+00  0.1850E+00  0.1850E+00
     -0.547  0.6416E-05  0.0000E+00  0.1850E+00  0.1850E+00
     -0.520  0.1829E+00  0.0000E+00  0.1900E+00  0.1850E+00
     -0.493  0.0000E+00  0.0000E+00  0.1900E+00  0.1850E+00
     -0.465  0.0000E+00  0.5479E-02  0.1900E+00  0.1851E+00
     -0.438  0.9287E-03  0.2241E+00  0.1900E+00  0.1913E+00
     -0.411  0.3649E+00  0.3191E+00  0.2000E+00  0.2000E+00
     -0.383  0.0000E+00  0.0000E+00  0.2000E+00  0.2000E+00
     -0.356  0.0000E+00  0.0000E+00  0.2000E+00  0.2000E+00
     -0.329  0.0000E+00  0.0000E+00  0.2000E+00  0.2000E+00
     -0.301  0.0000E+00  0.0000E+00  0.2000E+00  0.2000E+00
     -0.274  0.0000E+00  0.0000E+00  0.2000E+00  0.2000E+00
     -0.247  0.0000E+00  0.0000E+00  0.2000E+00  0.2000E+00
     -0.219  0.0000E+00  0.0000E+00  0.2000E+00  0.2000E+00
     -0.192  0.0000E+00  0.0000E+00  0.2000E+00  0.2000E+00
     -0.165  0.0000E+00  0.0000E+00  0.2000E+00  0.2000E+00
     -0.137  0.0000E+00  0.0000E+00  0.2000E+00  0.2000E+00
     -0.110  0.0000E+00  0.0000E+00  0.2000E+00  0.2000E+00
     -0.083  0.0000E+00  0.0000E+00  0.2000E+00  0.2000E+00
     -0.055  0.0000E+00  0.0000E+00  0.2000E+00  0.2000E+00
     -0.05541529     -8.25634583  301     -3.82100923      1.00000000
     -8.256  0.0000E+00  0.0000E+00  0.0000E+00  0.0000E+00  0.0000E+00  0.0000E+00  0.0000E+00  0.0000E+00
     -8.229  0.0000E+00  0.0000E+00  0.0000E+00  0.0000E+00  0.0000E+00  0.0000E+00  0.0000E+00  0.0000E+00
     -8.202  0.0000E+00  0.0000E+00  0.0000E+00  0.0000E+00  0.0000E+00  0.0000E+00  0.0000E+00  0.0000E+00
     -8.174  0.0000E+00  0.0000E+00  0.0000E+00  0.0000E+00  0.0000E+00  0.0000E+00  0.0000E+00  0.0000E+00
     -8.147  0.0000E+00  0.0000E+00  0.0000E+00  0.0000E+00  0.0000E+00  0.0000E+00  0.0000E+00  0.0000E+00
     -8.120  0.0000E+00  0.0000E+00  0.0000E+00  0.0000E+00  0.0000E+00  0.0000E+00  0.0000E+00  0.0000E+00
     -8.092  0.0000E+00  0.0000E+00  0.0000E+00  0.0000E+00  0.0000E+00  0.0000E+00  0.0000E+00  0.0000E+00
     -8.065  0.0000E+00  0.0000E+00  0.0000E+00  0.0000E+00  0.0000E+00  0.0000E+00  0.0000E+00  0.0000E+00
     -8.038  0.0000E+00  0.0000E+00  0.0000E+00  0.0000E+00  0.0000E+00  0.0000E+00  0.0000E+00  0.0000E+00
     -8.010  0.0000E+00  0.0000E+00  0.0000E+00  0.0000E+00  0.0000E+00  0.0000E+00  0.0000E+00  0.0000E+00
     -7.983  0.0000E+00  0.0000E+00  0.0000E+00  0.0000E+00  0.0000E+00  0.0000E+00  0.0000E+00  0.0000E+00
     -7.956  0.0000E+00  0.0000E+00  0.0000E+00  0.0000E+00  0.0000E+00  0.0000E+00  0.0000E+00  0.0000E+00
     -7.928  0.0000E+00  0.0000E+00  0.0000E+00  0.0000E+00  0.0000E+00  0.0000E+00  0.0000E+00  0.0000E+00
     -7.901  0.6381E-06  0.0000E+00  0.2545E-06  0.0000E+00  0.1727E-05  0.0000E+00  0.4733E-08  0.0000E+00
     -7.874  0.1473E+01  0.0000E+00  0.5875E+00  0.0000E+00  0.3986E+01  0.0000E+00  0.1093E-01  0.0000E+00
     -7.846  0.3640E-02  0.0000E+00  0.1452E-02  0.0000E+00  0.9850E-02  0.0000E+00  0.2700E-04  0.0000E+00
     -7.819  0.0000E+00  0.3525E+00  0.0000E+00  0.1415E+00  0.0000E+00  0.8520E+00  0.0000E+00  0.2475E-02
     -7.792  0.0000E+00  0.1207E+01  0.0000E+00  0.4842E+00  0.0000E+00  0.2916E+01  0.0000E+00  0.8470E-02
     -7.764  0.0000E+00  0.0000E+00  0.0000E+00  0.0000E+00  0.0000E+00  0.0000E+00  0.0000E+00  0.0000E+00
     -7.737  0.0000E+00  0.0000E+00  0.0000E+00  0.0000E+00  0.0000E+00  0.0000E+00  0.0000E+00  0.0000E+00
     -7.710  0.0000E+00  0.0000E+00  0.0000E+00  0.0000E+00  0.0000E+00  0.0000E+00  0.0000E+00  0.0000E+00
     -7.682  0.0000E+00  0.0000E+00  0.0000E+00  0.0000E+00  0.0000E+00  0.0000E+00  0.0000E+00  0.0000E+00
     -7.655  0.0000E+00  0.0000E+00  0.0000E+00  0.0000E+00  0.0000E+00  0.0000E+00  0.0000E+00  0.0000E+00
     -7.628  0.0000E+00  0.0000E+00  0.0000E+00  0.0000E+00  0.0000E+00  0.0000E+00  0.0000E+00  0.0000E+00
     -7.600  0.0000E+00  0.0000E+00  0.0000E+00  0.0000E+00  0.0000E+00  0.0000E+00  0.0000E+00  0.0000E+00
     -7.573  0.0000E+00  0.0000E+00  0.0000E+00  0.0000E+00  0.0000E+00  0.0000E+00  0.0000E+00  0.0000E+00
     -7.546  0.0000E+00  0.0000E+00  0.0000E+00  0.0000E+00  0.0000E+00  0.0000E+00  0.0000E+00  0.0000E+00
     -7.518  0.0000E+00  0.0000E+00  0.0000E+00  0.0000E+00  0.0000E+00  0.0000E+00  0.0000E+00  0.0000E+00
     -7.491  0.0000E+00  0.0000E+00  0.0000E+00  0.0000E+00  0.0000E+00  0.0000E+00  0.0000E+00  0.0000E+00
     -7.464  0.0000E+00  0.0000E+00  0.0000E+00  0.0000E+00  0.0000E+00  0.0000E+00  0.0000E+00  0.0000E+00
     -7.436  0.0000E+00  0.0000E+00  0.0000E+00  0.0000E+00  0.0000E+00  0.0000E+00  0.0000E+00  0.0000E+00
     -7.409  0.0000E+00  0.0000E+00  0.0000E+00  0.0000E+00  0.0000E+00  0.0000E+00  0.0000E+00  0.0000E+00
     -7.382  0.0000E+00  0.0000E+00  0.0000E+00  0.0000E+00  0.0000E+00  0.0000E+00  0.0000E+00  0.0000E+00
     -7.354  0.0000E+00  0.0000E+00  0.0000E+00  0.0000E+00  0.0000E+00  0.0000E+00  0.0000E+00  0.0000E+00
     -7.327  0.0000E+00  0.0000E+00  0.0000E+00  0.0000E+00  0.0000E+00  0.0000E+00  0.0000E+00  0.0000E+00
     -7.300  0.0000E+00  0.0000E+00  0.0000E+00  0.0000E+00  0.0000E+00  0.0000E+00  0.0000E+00  0.0000E+00
     -7.272  0.0000E+00  0.0000E+00  0.0000E+00  0.0000E+00  0.0000E+00  0.0000E+00  0.0000E+00  0.0000E+00
     -7.245  0.0000E+00  0.0000E+00  0.0000E+00  0.0000E+00  0.0000E+00  0.0000E+00  0.0000E+00  0.0000E+00
     -7.218  0.0000E+00  0.0000E+00  0.0000E+00  0.0000E+00  0.0000E+00  0.0000E+00  0.0000E+00  0.0000E+00
     -7.190  0.0000E+00  0.0000E+00  0.0000E+00  0.0000E+00  0.0000E+00  0.0000E+00  0.0000E+00  0.0000E+00
     -7.163  0.0000E+00  0.0000E+00  0.0000E+00  0.0000E+00  0.0000E+00  0.0000E+00  0.0000E+00  0.0000E+00
     -7.136  0.0000E+00  0.0000E+00  0.0000E+00  0.0000E+00  0.0000E+00  0.0000E+00  0.0000E+00  0.0000E+00
     -7.108  0.8211E-07  0.0000E+00  0.3841E-01  0.0000E+00  0.1646E+01  0.0000E+00  0.2647E-02  0.0000E+00
     -7.081  0.3349E-06  0.0000E+00  0.1567E+00  0.0000E+00  0.6715E+01  0.0000E+00  0.1080E-01  0.0000E+00
     -7.054  0.0000E+00  0.0000E+00  0.0000E+00  0.0000E+00  0.0000E+00  0.0000E+00  0.0000E+00  0.0000E+00
     -7.026  0.0000E+00  0.0000E+00  0.0000E+00  0.0000E+00  0.0000E+00  0.0000E+00  0.0000E+00  0.0000E+00
     -6.999  0.0000E+00  0.0000E+00  0.0000E+00  0.0000E+00  0.0000E+00  0.0000E+00  0.0000E+00  0.0000E+00
     -6.972  0.0000E+00  0.0000E+00  0.0000E+00  0.0000E+00  0.0000E+00  0.0000E+00  0.0000E+00  0.0000E+00
     -6.944  0.0000E+00  0.0000E+00  0.0000E+00  0.0000E+00  0.0000E+00  0.0000E+00  0.0000E+00  0.0000E+00
     -6.917  0.0000E+00  0.0000E+00  0.0000E+00  0.0000E+00  0.0000E+00  0.0000E+00  0.0000E+00  0.0000E+00
     -6.890  0.0000E+00  0.0000E+00  0.0000E+00  0.0000E+00  0.0000E+00  0.0000E+00  0.0000E+00  0.0000E+00
     -6.862  0.0000E+00  0.0000E+00  0.0000E+00  0.0000E+00  0.0000E+00  0.0000E+00  0.0000E+00  0.0000E+00
     -6.835  0.7605E-13  0.0000E+00  0.2915E-02  0.0000E+00  0.1039E+00  0.0000E+00  0.2740E-03  0.0000E+00
     -6.808  0.4899E-11  0.0000E+00  0.1878E+00  0.0000E+00  0.6694E+01  0.0000E+00  0.1766E-01  0.0000E+00
     -6.780  0.2201E-07  0.0000E+00  0.4638E-08  0.0000E+00  0.6192E-07  0.0000E+00  0.2159E-09  0.0000E+00
     -6.753  0.2008E+01  0.0000E+00  0.5334E+00  0.0000E+00  0.1140E+02  0.0000E+00  0.2484E-01  0.0000E+00
     -6.726  0.3366E-01  0.2957E-17  0.1032E-01  0.3485E-07  0.2630E+00  0.1114E-05  0.4809E-03  0.3193E-08
     -6.698  0.0000E+00  0.1762E-10  0.0000E+00  0.2077E+00  0.0000E+00  0.6640E+01  0.0000E+00  0.1903E-01
     -6.671  0.0000E+00  0.5808E-08  0.0000E+00  0.1883E-02  0.0000E+00  0.6120E-01  0.0000E+00  0.1425E-03
     -6.643  0.3485E-12  0.1426E-05  0.2717E-05  0.2428E+00  0.1352E-03  0.8012E+01  0.3582E-06  0.1489E-01
     -6.616  0.2750E-07  0.0000E+00  0.2176E+00  0.0000E+00  0.1109E+02  0.0000E+00  0.3066E-01  0.0000E+00
     -6.589  0.5932E-11  0.0000E+00  0.4761E-04  0.0000E+00  0.2481E-02  0.0000E+00  0.7100E-05  0.0000E+00
     -6.561  0.0000E+00  0.0000E+00  0.0000E+00  0.0000E+00  0.0000E+00  0.0000E+00  0.0000E+00  0.0000E+00
     -6.534  0.0000E+00  0.1234E-11  0.0000E+00  0.7468E-06  0.0000E+00  0.3311E-04  0.0000E+00  0.9758E-07
     -6.507  0.9085E-12  0.3901E-06  0.4155E-13  0.2357E+00  0.5017E-11  0.1070E+02  0.1045E-13  0.3278E-01
     -6.479  0.8939E+00  0.9928E-03  0.4088E-01  0.3647E-03  0.4937E+01  0.9261E-02  0.1028E-01  0.3138E-04
     -6.452  0.3060E+00  0.2406E+01  0.1399E-01  0.6248E+00  0.1690E+01  0.9080E+01  0.3520E-02  0.2817E-01
     -6.425  0.1240E-25  0.0000E+00  0.1034E-22  0.0000E+00  0.2100E-14  0.0000E+00  0.5087E-17  0.0000E+00
     -6.397  0.1370E-10  0.0000E+00  0.1143E-07  0.0000E+00  0.2321E+01  0.0000E+00  0.5623E-02  0.0000E+00
     -6.370  0.2352E-10  0.0000E+00  0.1961E-07  0.0000E+00  0.3984E+01  0.0000E+00  0.9651E-02  0.0000E+00
     -6.343  0.0000E+00  0.0000E+00  0.0000E+00  0.0000E+00  0.0000E+00  0.0000E+00  0.0000E+00  0.0000E+00
     -6.315  0.0000E+00  0.0000E+00  0.0000E+00  0.0000E+00  0.0000E+00  0.0000E+00  0.0000E+00  0.0000E+00
     -6.288  0.0000E+00  0.1749E-10  0.0000E+00  0.2692E-08  0.0000E+00  0.4959E+00  0.0000E+00  0.1362E-02
     -6.261  0.0000E+00  0.1442E+01  0.0000E+00  0.6174E-01  0.0000E+00  0.8534E+01  0.0000E+00  0.2510E-01
     -6.233  0.0000E+00  0.6597E+00  0.0000E+00  0.2824E-01  0.0000E+00  0.1341E+01  0.0000E+00  0.4438E-02
     -6.206  0.0000E+00  0.0000E+00  0.0000E+00  0.0000E+00  0.0000E+00  0.0000E+00  0.0000E+00  0.0000E+00
     -6.179  0.1283E-10  0.0000E+00  0.4117E-12  0.0000E+00  0.3431E-10  0.0000E+00  0.6035E-13  0.0000E+00
     -6.151  0.1082E+01  0.0000E+00  0.3473E-01  0.0000E+00  0.2894E+01  0.0000E+00  0.5091E-02  0.0000E+00
     -6.124  0.1944E+00  0.0000E+00  0.6239E-02  0.0000E+00  0.5199E+00  0.0000E+00  0.9146E-03  0.0000E+00
     -6.097  0.0000E+00  0.0000E+00  0.0000E+00  0.0000E+00  0.0000E+00  0.0000E+00  0.0000E+00  0.0000E+00
     -6.069  0.0000E+00  0.0000E+00  0.0000E+00  0.0000E+00  0.0000E+00  0.0000E+00  0.0000E+00  0.0000E+00
     -6.042  0.0000E+00  0.0000E+00  0.0000E+00  0.0000E+00  0.0000E+00  0.0000E+00  0.0000E+00  0.0000E+00
     -6.015  0.6113E-02  0.0000E+00  0.2433E-03  0.0000E+00  0.7636E-01  0.0000E+00  0.5192E-04  0.0000E+00
     -5.987  0.2660E+00  0.4055E-08  0.1059E-01  0.3772E-10  0.3323E+01  0.8993E-07  0.2260E-02  0.1386E-09
     -5.960  0.2532E-10  0.2544E+00  0.1835E-10  0.2366E-02  0.2527E-08  0.5640E+01  0.1172E-10  0.8694E-02
     -5.933  0.1269E+00  0.3598E-02  0.4327E-01  0.3347E-04  0.1172E+02  0.7979E-01  0.3000E-01  0.1230E-03
     -5.905  0.9762E-02  0.0000E+00  0.2697E-02  0.0000E+00  0.8891E+00  0.0000E+00  0.1936E-02  0.0000E+00
     -5.878  0.0000E+00  0.0000E+00  0.0000E+00  0.0000E+00  0.0000E+00  0.0000E+00  0.0000E+00  0.0000E+00
     -5.851  0.0000E+00  0.0000E+00  0.0000E+00  0.0000E+00  0.0000E+00  0.0000E+00  0.0000E+00  0.0000E+00
     -5.823  0.0000E+00  0.0000E+00  0.0000E+00  0.0000E+00  0.0000E+00  0.0000E+00  0.0000E+00  0.0000E+00
     -5.796  0.0000E+00  0.0000E+00  0.0000E+00  0.0000E+00  0.0000E+00  0.0000E+00  0.0000E+00  0.0000E+00
     -5.769  0.0000E+00  0.0000E+00  0.0000E+00  0.0000E+00  0.0000E+00  0.0000E+00  0.0000E+00  0.0000E+00
     -5.741  0.0000E+00  0.0000E+00  0.0000E+00  0.0000E+00  0.0000E+00  0.0000E+00  0.0000E+00  0.0000E+00
     -5.714  0.0000E+00  0.2975E-02  0.0000E+00  0.8847E-04  0.0000E+00  0.3182E-01  0.0000E+00  0.2557E-04
     -5.687  0.0000E+00  0.3008E+00  0.0000E+00  0.8945E-02  0.0000E+00  0.3218E+01  0.0000E+00  0.2586E-02
     -5.659  0.0000E+00  0.6935E-05  0.0000E+00  0.7773E-04  0.0000E+00  0.8798E-02  0.0000E+00  0.3058E-04
     -5.632  0.0000E+00  0.1221E-01  0.0000E+00  0.6908E-01  0.0000E+00  0.1367E+02  0.0000E+00  0.3716E-01
     -5.605  0.0000E+00  0.0000E+00  0.0000E+00  0.0000E+00  0.0000E+00  0.0000E+00  0.0000E+00  0.0000E+00
     -5.577  0.0000E+00  0.0000E+00  0.0000E+00  0.0000E+00  0.0000E+00  0.0000E+00  0.0000E+00  0.0000E+00
     -5.550  0.0000E+00  0.0000E+00  0.0000E+00  0.0000E+00  0.0000E+00  0.0000E+00  0.0000E+00  0.0000E+00
     -5.523  0.1394E-09  0.0000E+00  0.1097E-01  0.0000E+00  0.7369E+00  0.0000E+00  0.3148E-02  0.0000E+00
     -5.495  0.4110E-09  0.0000E+00  0.3232E-01  0.0000E+00  0.2172E+01  0.0000E+00  0.9278E-02  0.0000E+00
     -5.468  0.0000E+00  0.0000E+00  0.0000E+00  0.0000E+00  0.0000E+00  0.0000E+00  0.0000E+00  0.0000E+00
     -5.441  0.0000E+00  0.0000E+00  0.0000E+00  0.0000E+00  0.0000E+00  0.0000E+00  0.0000E+00  0.0000E+00
     -5.413  0.0000E+00  0.0000E+00  0.0000E+00  0.0000E+00  0.0000E+00  0.0000E+00  0.0000E+00  0.0000E+00
     -5.386  0.0000E+00  0.0000E+00  0.0000E+00  0.0000E+00  0.0000E+00  0.0000E+00  0.0000E+00  0.0000E+00
     -5.359  0.3162E-04  0.0000E+00  0.1328E-04  0.0000E+00  0.1241E-02  0.0000E+00  0.1700E-05  0.0000E+00
     -5.331  0.3951E+00  0.0000E+00  0.1608E+00  0.0000E+00  0.1550E+02  0.0000E+00  0.2047E-01  0.0000E+00
     -5.304  0.0000E+00  0.0000E+00  0.0000E+00  0.0000E+00  0.0000E+00  0.0000E+00  0.0000E+00  0.0000E+00
     -5.277  0.0000E+00  0.5496E-18  0.0000E+00  0.4363E-10  0.0000E+00  0.3709E-08  0.0000E+00  0.1413E-10
     -5.249  0.0000E+00  0.4735E-09  0.0000E+00  0.3758E-01  0.0000E+00  0.3195E+01  0.0000E+00  0.1217E-01
     -5.222  0.0000E+00  0.1968E-10  0.0000E+00  0.1562E-02  0.0000E+00  0.1328E+00  0.0000E+00  0.5060E-03
     -5.195  0.0000E+00  0.7696E-04  0.0000E+00  0.3126E-04  0.0000E+00  0.3163E-02  0.0000E+00  0.4381E-05
     -5.167  0.0000E+00  0.3753E+00  0.0000E+00  0.1524E+00  0.0000E+00  0.1542E+02  0.0000E+00  0.2136E-01
     -5.140  0.0000E+00  0.0000E+00  0.0000E+00  0.0000E+00  0.0000E+00  0.0000E+00  0.0000E+00  0.0000E+00
     -5.113  0.0000E+00  0.0000E+00  0.0000E+00  0.0000E+00  0.0000E+00  0.0000E+00  0.0000E+00  0.0000E+00
     -5.085  0.0000E+00  0.0000E+00  0.0000E+00  0.0000E+00  0.0000E+00  0.0000E+00  0.0000E+00  0.0000E+00
     -5.058  0.0000E+00  0.0000E+00  0.0000E+00  0.0000E+00  0.0000E+00  0.0000E+00  0.0000E+00  0.0000E+00
     -5.031  0.3151E-18  0.0000E+00  0.5264E-09  0.0000E+00  0.3066E-06  0.0000E+00  0.3019E-09  0.0000E+00
     -5.003  0.2432E-10  0.0000E+00  0.4054E-01  0.0000E+00  0.1525E+02  0.0000E+00  0.1958E-01  0.0000E+00
     -4.976  0.3782E-12  0.0000E+00  0.6301E-03  0.0000E+00  0.1960E+00  0.0000E+00  0.2862E-03  0.0000E+00
     -4.949  0.0000E+00  0.0000E+00  0.0000E+00  0.0000E+00  0.0000E+00  0.0000E+00  0.0000E+00  0.0000E+00
     -4.921  0.0000E+00  0.0000E+00  0.0000E+00  0.0000E+00  0.0000E+00  0.0000E+00  0.0000E+00  0.0000E+00
     -4.894  0.3275E-12  0.0000E+00  0.4446E-03  0.0000E+00  0.6122E-03  0.0000E+00  0.5957E-04  0.0000E+00
     -4.867  0.8621E-10  0.1763E-14  0.1170E+00  0.2014E-05  0.1611E+00  0.1037E-02  0.1568E-01  0.1079E-05
     -4.839  0.1224E-10  0.3502E-10  0.2681E-01  0.4043E-01  0.1960E+00  0.1519E+02  0.4216E-02  0.1958E-01
     -4.812  0.1949E-10  0.4204E-12  0.4269E-01  0.8063E-03  0.3121E+00  0.1010E-02  0.6714E-02  0.9937E-04
     -4.785  0.0000E+00  0.6576E-10  0.0000E+00  0.1261E+00  0.0000E+00  0.1580E+00  0.0000E+00  0.1555E-01
     -4.757  0.0000E+00  0.1782E-10  0.0000E+00  0.1951E-01  0.0000E+00  0.3264E+00  0.0000E+00  0.5001E-02
     -4.730  0.0000E+00  0.2601E-10  0.0000E+00  0.2847E-01  0.0000E+00  0.4765E+00  0.0000E+00  0.7299E-02
     -4.703  0.0000E+00  0.0000E+00  0.0000E+00  0.0000E+00  0.0000E+00  0.0000E+00  0.0000E+00  0.0000E+00
     -4.675  0.0000E+00  0.0000E+00  0.0000E+00  0.0000E+00  0.0000E+00  0.0000E+00  0.0000E+00  0.0000E+00
     -4.648  0.0000E+00  0.0000E+00  0.0000E+00  0.0000E+00  0.0000E+00  0.0000E+00  0.0000E+00  0.0000E+00
     -4.621  0.0000E+00  0.0000E+00  0.0000E+00  0.0000E+00  0.0000E+00  0.0000E+00  0.0000E+00  0.0000E+00
     -4.593  0.0000E+00  0.0000E+00  0.0000E+00  0.0000E+00  0.0000E+00  0.0000E+00  0.0000E+00  0.0000E+00
     -4.566  0.0000E+00  0.0000E+00  0.0000E+00  0.0000E+00  0.0000E+00  0.0000E+00  0.0000E+00  0.0000E+00
     -4.539  0.0000E+00  0.0000E+00  0.0000E+00  0.0000E+00  0.0000E+00  0.0000E+00  0.0000E+00  0.0000E+00
     -4.511  0.9355E-18  0.0000E+00  0.1988E-17  0.0000E+00  0.5943E-08  0.0000E+00  0.7834E-11  0.0000E+00
     -4.484  0.1320E-08  0.0000E+00  0.2804E-08  0.0000E+00  0.8383E+01  0.0000E+00  0.1105E-01  0.0000E+00
     -4.457  0.2000E-01  0.0000E+00  0.5425E-01  0.0000E+00  0.6425E+01  0.0000E+00  0.9296E-02  0.0000E+00
     -4.429  0.7953E-02  0.0000E+00  0.2157E-01  0.0000E+00  0.2389E+01  0.0000E+00  0.3478E-02  0.0000E+00
     -4.402  0.4902E-09  0.0000E+00  0.1097E+00  0.0000E+00  0.3540E+01  0.0000E+00  0.2030E-02  0.0000E+00
     -4.375  0.1004E-06  0.0000E+00  0.6482E-01  0.0000E+00  0.2093E+01  0.0000E+00  0.1200E-02  0.0000E+00
     -4.347  0.1114E+00  0.0000E+00  0.3196E+00  0.0000E+00  0.1342E+02  0.0000E+00  0.5340E-01  0.0000E+00
     -4.320  0.2048E-02  0.2661E-12  0.2039E+00  0.3358E-11  0.8600E+01  0.9342E-02  0.2641E-01  0.1168E-04
     -4.293  0.6861E-10  0.4968E-09  0.2897E-03  0.3746E-08  0.1209E-01  0.8856E+01  0.3762E-04  0.1107E-01
     -4.265  0.0000E+00  0.3070E-01  0.0000E+00  0.7522E-01  0.0000E+00  0.1040E+02  0.0000E+00  0.1393E-01
     -4.238  0.0000E+00  0.6057E-03  0.0000E+00  0.1484E-02  0.0000E+00  0.1626E+00  0.0000E+00  0.2352E-03
     -4.211  0.0000E+00  0.2400E-01  0.0000E+00  0.2591E-01  0.0000E+00  0.2392E+01  0.0000E+00  0.4126E-02
     -4.183  0.0000E+00  0.1181E-04  0.0000E+00  0.7854E-04  0.0000E+00  0.2961E-02  0.0000E+00  0.3184E-05
     -4.156  0.0000E+00  0.3957E-10  0.0000E+00  0.1916E+00  0.0000E+00  0.5197E+01  0.0000E+00  0.3361E-02
     -4.129  0.0000E+00  0.0000E+00  0.0000E+00  0.0000E+00  0.0000E+00  0.0000E+00  0.0000E+00  0.0000E+00
     -4.101  0.0000E+00  0.0000E+00  0.0000E+00  0.0000E+00  0.0000E+00  0.0000E+00  0.0000E+00  0.0000E+00
     -4.074  0.0000E+00  0.0000E+00  0.0000E+00  0.0000E+00  0.0000E+00  0.0000E+00  0.0000E+00  0.0000E+00
     -4.047  0.0000E+00  0.4126E-06  0.0000E+00  0.1338E-03  0.0000E+00  0.8391E-02  0.0000E+00  0.3886E-04
     -4.019  0.0000E+00  0.4371E-03  0.0000E+00  0.1844E+00  0.0000E+00  0.1007E+02  0.0000E+00  0.4227E-01
     -3.992  0.3419E-24  0.0000E+00  0.2494E-15  0.0000E+00  0.7832E-14  0.0000E+00  0.1897E-16  0.0000E+00
     -3.965  0.2262E-09  0.0000E+00  0.9508E-01  0.0000E+00  0.2991E+01  0.0000E+00  0.7238E-02  0.0000E+00
     -3.937  0.3534E-09  0.0000E+00  0.1296E+00  0.0000E+00  0.4079E+01  0.0000E+00  0.9867E-02  0.0000E+00
     -3.910  0.1036E-08  0.0000E+00  0.5904E-08  0.0000E+00  0.9902E-05  0.0000E+00  0.4236E-07  0.0000E+00
     -3.883  0.5587E-03  0.0000E+00  0.3183E-02  0.0000E+00  0.5339E+01  0.0000E+00  0.2284E-01  0.0000E+00
     -3.855  0.5326E-06  0.7116E-11  0.3035E-05  0.4864E-02  0.5090E-02  0.1710E+00  0.2177E-04  0.3640E-03
     -3.828  0.0000E+00  0.3886E-09  0.0000E+00  0.2119E+00  0.0000E+00  0.7451E+01  0.0000E+00  0.1586E-01
     -3.801  0.0000E+00  0.0000E+00  0.0000E+00  0.0000E+00  0.0000E+00  0.0000E+00  0.0000E+00  0.0000E+00
     -3.773  0.0000E+00  0.0000E+00  0.0000E+00  0.0000E+00  0.0000E+00  0.0000E+00  0.0000E+00  0.0000E+00
     -3.746  0.0000E+00  0.3194E-10  0.0000E+00  0.3828E-02  0.0000E+00  0.1577E+00  0.0000E+00  0.4659E-03
     -3.718  0.0000E+00  0.1652E-08  0.0000E+00  0.1980E+00  0.0000E+00  0.8156E+01  0.0000E+00  0.2410E-01
     -3.691  0.0000E+00  0.0000E+00  0.0000E+00  0.0000E+00  0.0000E+00  0.0000E+00  0.0000E+00  0.0000E+00
     -3.664  0.0000E+00  0.0000E+00  0.0000E+00  0.0000E+00  0.0000E+00  0.0000E+00  0.0000E+00  0.0000E+00
     -3.636  0.0000E+00  0.0000E+00  0.0000E+00  0.0000E+00  0.0000E+00  0.0000E+00  0.0000E+00  0.0000E+00
     -3.609  0.0000E+00  0.0000E+00  0.0000E+00  0.0000E+00  0.0000E+00  0.0000E+00  0.0000E+00  0.0000E+00
     -3.582  0.0000E+00  0.0000E+00  0.0000E+00  0.0000E+00  0.0000E+00  0.0000E+00  0.0000E+00  0.0000E+00
     -3.554  0.0000E+00  0.0000E+00  0.0000E+00  0.0000E+00  0.0000E+00  0.0000E+00  0.0000E+00  0.0000E+00
     -3.527  0.0000E+00  0.0000E+00  0.0000E+00  0.0000E+00  0.0000E+00  0.0000E+00  0.0000E+00  0.0000E+00
     -3.500  0.0000E+00  0.2570E-08  0.0000E+00  0.8098E-07  0.0000E+00  0.1755E-03  0.0000E+00  0.7051E-06
     -3.472  0.0000E+00  0.7946E-04  0.0000E+00  0.2504E-02  0.0000E+00  0.5427E+01  0.0000E+00  0.2180E-01
     -3.445  0.0000E+00  0.0000E+00  0.0000E+00  0.0000E+00  0.0000E+00  0.0000E+00  0.0000E+00  0.0000E+00
     -3.418  0.0000E+00  0.0000E+00  0.0000E+00  0.0000E+00  0.0000E+00  0.0000E+00  0.0000E+00  0.0000E+00
     -3.390  0.0000E+00  0.0000E+00  0.0000E+00  0.0000E+00  0.0000E+00  0.0000E+00  0.0000E+00  0.0000E+00
     -3.363  0.0000E+00  0.0000E+00  0.0000E+00  0.0000E+00  0.0000E+00  0.0000E+00  0.0000E+00  0.0000E+00
     -3.336  0.0000E+00  0.0000E+00  0.0000E+00  0.0000E+00  0.0000E+00  0.0000E+00  0.0000E+00  0.0000E+00
     -3.308  0.0000E+00  0.0000E+00  0.0000E+00  0.0000E+00  0.0000E+00  0.0000E+00  0.0000E+00  0.0000E+00
     -3.281  0.0000E+00  0.0000E+00  0.0000E+00  0.0000E+00  0.0000E+00  0.0000E+00  0.0000E+00  0.0000E+00
     -3.254  0.0000E+00  0.0000E+00  0.0000E+00  0.0000E+00  0.0000E+00  0.0000E+00  0.0000E+00  0.0000E+00
     -3.226  0.0000E+00  0.0000E+00  0.0000E+00  0.0000E+00  0.0000E+00  0.0000E+00  0.0000E+00  0.0000E+00
     -3.199  0.0000E+00  0.0000E+00  0.0000E+00  0.0000E+00  0.0000E+00  0.0000E+00  0.0000E+00  0.0000E+00
     -3.172  0.0000E+00  0.0000E+00  0.0000E+00  0.0000E+00  0.0000E+00  0.0000E+00  0.0000E+00  0.0000E+00
     -3.144  0.0000E+00  0.0000E+00  0.0000E+00  0.0000E+00  0.0000E+00  0.0000E+00  0.0000E+00  0.0000E+00
     -3.117  0.3984E-07  0.0000E+00  0.7883E-08  0.0000E+00  0.1012E-07  0.0000E+00  0.1864E-10  0.0000E+00
     -3.090  0.3732E+01  0.0000E+00  0.9639E+00  0.0000E+00  0.1201E+01  0.0000E+00  0.2638E-02  0.0000E+00
     -3.062  0.6323E-01  0.1678E-19  0.2773E+00  0.2059E-11  0.4857E+00  0.4210E-11  0.1266E-02  0.9116E-14
     -3.035  0.2448E-07  0.3971E-08  0.3794E+00  0.4873E+00  0.6787E+00  0.9963E+00  0.1778E-02  0.2157E-02
     -3.008  0.0000E+00  0.9434E-09  0.0000E+00  0.1158E+00  0.0000E+00  0.2367E+00  0.0000E+00  0.5124E-03
     -2.980  0.0000E+00  0.1373E+00  0.0000E+00  0.3566E-01  0.0000E+00  0.6374E-01  0.0000E+00  0.8228E-04
     -2.953  0.0000E+00  0.3443E+01  0.0000E+00  0.9964E+00  0.0000E+00  0.1792E+01  0.0000E+00  0.2448E-02
     -2.926  0.0000E+00  0.0000E+00  0.0000E+00  0.0000E+00  0.0000E+00  0.0000E+00  0.0000E+00  0.0000E+00
     -2.898  0.0000E+00  0.0000E+00  0.0000E+00  0.0000E+00  0.0000E+00  0.0000E+00  0.0000E+00  0.0000E+00
     -2.871  0.0000E+00  0.0000E+00  0.0000E+00  0.0000E+00  0.0000E+00  0.0000E+00  0.0000E+00  0.0000E+00
     -2.844  0.0000E+00  0.0000E+00  0.0000E+00  0.0000E+00  0.0000E+00  0.0000E+00  0.0000E+00  0.0000E+00
     -2.816  0.0000E+00  0.0000E+00  0.0000E+00  0.0000E+00  0.0000E+00  0.0000E+00  0.0000E+00  0.0000E+00
     -2.789  0.0000E+00  0.0000E+00  0.0000E+00  0.0000E+00  0.0000E+00  0.0000E+00  0.0000E+00  0.0000E+00
     -2.762  0.0000E+00  0.0000E+00  0.0000E+00  0.0000E+00  0.0000E+00  0.0000E+00  0.0000E+00  0.0000E+00
     -2.734  0.0000E+00  0.0000E+00  0.0000E+00  0.0000E+00  0.0000E+00  0.0000E+00  0.0000E+00  0.0000E+00
     -2.707  0.0000E+00  0.0000E+00  0.0000E+00  0.0000E+00  0.0000E+00  0.0000E+00  0.0000E+00  0.0000E+00
     -2.680  0.0000E+00  0.0000E+00  0.0000E+00  0.0000E+00  0.0000E+00  0.0000E+00  0.0000E+00  0.0000E+00
     -2.652  0.0000E+00  0.0000E+00  0.0000E+00  0.0000E+00  0.0000E+00  0.0000E+00  0.0000E+00  0.0000E+00
     -2.625  0.0000E+00  0.0000E+00  0.0000E+00  0.0000E+00  0.0000E+00  0.0000E+00  0.0000E+00  0.0000E+00
     -2.598  0.0000E+00  0.0000E+00  0.0000E+00  0.0000E+00  0.0000E+00  0.0000E+00  0.0000E+00  0.0000E+00
     -2.570  0.0000E+00  0.0000E+00  0.0000E+00  0.0000E+00  0.0000E+00  0.0000E+00  0.0000E+00  0.0000E+00
     -2.543  0.0000E+00  0.0000E+00  0.0000E+00  0.0000E+00  0.0000E+00  0.0000E+00  0.0000E+00  0.0000E+00
     -2.516  0.0000E+00  0.0000E+00  0.0000E+00  0.0000E+00  0.0000E+00  0.0000E+00  0.0000E+00  0.0000E+00
     -2.488  0.0000E+00  0.0000E+00  0.0000E+00  0.0000E+00  0.0000E+00  0.0000E+00  0.0000E+00  0.0000E+00
     -2.461  0.0000E+00  0.0000E+00  0.0000E+00  0.0000E+00  0.0000E+00  0.0000E+00  0.0000E+00  0.0000E+00
     -2.434  0.0000E+00  0.0000E+00  0.0000E+00  0.0000E+00  0.0000E+00  0.0000E+00  0.0000E+00  0.0000E+00
     -2.406  0.0000E+00  0.0000E+00  0.0000E+00  0.0000E+00  0.0000E+00  0.0000E+00  0.0000E+00  0.0000E+00
     -2.379  0.0000E+00  0.0000E+00  0.0000E+00  0.0000E+00  0.0000E+00  0.0000E+00  0.0000E+00  0.0000E+00
     -2.352  0.0000E+00  0.0000E+00  0.0000E+00  0.0000E+00  0.0000E+00  0.0000E+00  0.0000E+00  0.0000E+00
     -2.324  0.0000E+00  0.0000E+00  0.0000E+00  0.0000E+00  0.0000E+00  0.0000E+00  0.0000E+00  0.0000E+00
     -2.297  0.0000E+00  0.0000E+00  0.0000E+00  0.0000E+00  0.0000E+00  0.0000E+00  0.0000E+00  0.0000E+00
     -2.270  0.0000E+00  0.0000E+00  0.0000E+00  0.0000E+00  0.0000E+00  0.0000E+00  0.0000E+00  0.0000E+00
     -2.242  0.0000E+00  0.0000E+00  0.0000E+00  0.0000E+00  0.0000E+00  0.0000E+00  0.0000E+00  0.0000E+00
     -2.215  0.0000E+00  0.0000E+00  0.0000E+00  0.0000E+00  0.0000E+00  0.0000E+00  0.0000E+00  0.0000E+00
     -2.188  0.0000E+00  0.0000E+00  0.0000E+00  0.0000E+00  0.0000E+00  0.0000E+00  0.0000E+00  0.0000E+00
     -2.160  0.0000E+00  0.0000E+00  0.0000E+00  0.0000E+00  0.0000E+00  0.0000E+00  0.0000E+00  0.0000E+00
     -2.133  0.0000E+00  0.0000E+00  0.0000E+00  0.0000E+00  0.0000E+00  0.0000E+00  0.0000E+00  0.0000E+00
     -2.106  0.0000E+00  0.0000E+00  0.0000E+00  0.0000E+00  0.0000E+00  0.0000E+00  0.0000E+00  0.0000E+00
     -2.078  0.0000E+00  0.0000E+00  0.0000E+00  0.0000E+00  0.0000E+00  0.0000E+00  0.0000E+00  0.0000E+00
     -2.051  0.0000E+00  0.0000E+00  0.0000E+00  0.0000E+00  0.0000E+00  0.0000E+00  0.0000E+00  0.0000E+00
     -2.024  0.0000E+00  0.0000E+00  0.0000E+00  0.0000E+00  0.0000E+00  0.0000E+00  0.0000E+00  0.0000E+00
     -1.996  0.0000E+00  0.0000E+00  0.0000E+00  0.0000E+00  0.0000E+00  0.0000E+00  0.0000E+00  0.0000E+00
     -1.969  0.0000E+00  0.0000E+00  0.0000E+00  0.0000E+00  0.0000E+00  0.0000E+00  0.0000E+00  0.0000E+00
     -1.942  0.0000E+00  0.0000E+00  0.0000E+00  0.0000E+00  0.0000E+00  0.0000E+00  0.0000E+00  0.0000E+00
     -1.914  0.0000E+00  0.0000E+00  0.0000E+00  0.0000E+00  0.0000E+00  0.0000E+00  0.0000E+00  0.0000E+00
     -1.887  0.0000E+00  0.0000E+00  0.0000E+00  0.0000E+00  0.0000E+00  0.0000E+00  0.0000E+00  0.0000E+00
     -1.860  0.0000E+00  0.0000E+00  0.0000E+00  0.0000E+00  0.0000E+00  0.0000E+00  0.0000E+00  0.0000E+00
     -1.832  0.0000E+00  0.0000E+00  0.0000E+00  0.0000E+00  0.0000E+00  0.0000E+00  0.0000E+00  0.0000E+00
     -1.805  0.0000E+00  0.0000E+00  0.0000E+00  0.0000E+00  0.0000E+00  0.0000E+00  0.0000E+00  0.0000E+00
     -1.778  0.0000E+00  0.0000E+00  0.0000E+00  0.0000E+00  0.0000E+00  0.0000E+00  0.0000E+00  0.0000E+00
     -1.750  0.0000E+00  0.0000E+00  0.0000E+00  0.0000E+00  0.0000E+00  0.0000E+00  0.0000E+00  0.0000E+00
     -1.723  0.0000E+00  0.0000E+00  0.0000E+00  0.0000E+00  0.0000E+00  0.0000E+00  0.0000E+00  0.0000E+00
     -1.696  0.0000E+00  0.0000E+00  0.0000E+00  0.0000E+00  0.0000E+00  0.0000E+00  0.0000E+00  0.0000E+00
     -1.668  0.0000E+00  0.0000E+00  0.0000E+00  0.0000E+00  0.0000E+00  0.0000E+00  0.0000E+00  0.0000E+00
     -1.641  0.0000E+00  0.0000E+00  0.0000E+00  0.0000E+00  0.0000E+00  0.0000E+00  0.0000E+00  0.0000E+00
     -1.614  0.0000E+00  0.0000E+00  0.0000E+00  0.0000E+00  0.0000E+00  0.0000E+00  0.0000E+00  0.0000E+00
     -1.586  0.0000E+00  0.0000E+00  0.0000E+00  0.0000E+00  0.0000E+00  0.0000E+00  0.0000E+00  0.0000E+00
     -1.559  0.0000E+00  0.0000E+00  0.0000E+00  0.0000E+00  0.0000E+00  0.0000E+00  0.0000E+00  0.0000E+00
     -1.532  0.0000E+00  0.0000E+00  0.0000E+00  0.0000E+00  0.0000E+00  0.0000E+00  0.0000E+00  0.0000E+00
     -1.504  0.0000E+00  0.0000E+00  0.0000E+00  0.0000E+00  0.0000E+00  0.0000E+00  0.0000E+00  0.0000E+00
     -1.477  0.0000E+00  0.0000E+00  0.0000E+00  0.0000E+00  0.0000E+00  0.0000E+00  0.0000E+00  0.0000E+00
     -1.450  0.0000E+00  0.0000E+00  0.0000E+00  0.0000E+00  0.0000E+00  0.0000E+00  0.0000E+00  0.0000E+00
     -1.422  0.0000E+00  0.0000E+00  0.0000E+00  0.0000E+00  0.0000E+00  0.0000E+00  0.0000E+00  0.0000E+00
     -1.395  0.0000E+00  0.0000E+00  0.0000E+00  0.0000E+00  0.0000E+00  0.0000E+00  0.0000E+00  0.0000E+00
     -1.368  0.0000E+00  0.0000E+00  0.0000E+00  0.0000E+00  0.0000E+00  0.0000E+00  0.0000E+00  0.0000E+00
     -1.340  0.0000E+00  0.0000E+00  0.0000E+00  0.0000E+00  0.0000E+00  0.0000E+00  0.0000E+00  0.0000E+00
     -1.313  0.0000E+00  0.0000E+00  0.0000E+00  0.0000E+00  0.0000E+00  0.0000E+00  0.0000E+00  0.0000E+00
     -1.286  0.0000E+00  0.0000E+00  0.0000E+00  0.0000E+00  0.0000E+00  0.0000E+00  0.0000E+00  0.0000E+00
     -1.258  0.0000E+00  0.0000E+00  0.0000E+00  0.0000E+00  0.0000E+00  0.0000E+00  0.0000E+00  0.0000E+00
     -1.231  0.0000E+00  0.0000E+00  0.0000E+00  0.0000E+00  0.0000E+00  0.0000E+00  0.0000E+00  0.0000E+00
     -1.204  0.6317E-06  0.0000E+00  0.1699E-06  0.0000E+00  0.4898E-06  0.0000E+00  0.2988E-08  0.0000E+00
     -1.176  0.6157E+00  0.8888E-15  0.1656E+00  0.6120E-16  0.4774E+00  0.7476E-15  0.2912E-02  0.4051E-17
     -1.149  0.1280E+01  0.2779E+00  0.4689E+00  0.1914E-01  0.2328E+00  0.2338E+00  0.4486E-02  0.1267E-02
     -1.122  0.5545E+00  0.3625E+00  0.2031E+00  0.2496E-01  0.1006E+00  0.3049E+00  0.1943E-02  0.1653E-02
     -1.094  0.0000E+00  0.0000E+00  0.0000E+00  0.0000E+00  0.0000E+00  0.0000E+00  0.0000E+00  0.0000E+00
     -1.067  0.0000E+00  0.0000E+00  0.0000E+00  0.0000E+00  0.0000E+00  0.0000E+00  0.0000E+00  0.0000E+00
     -1.040  0.0000E+00  0.4310E-10  0.0000E+00  0.1624E-10  0.0000E+00  0.9466E-11  0.0000E+00  0.1312E-12
     -1.012  0.0000E+00  0.1509E+01  0.0000E+00  0.5685E+00  0.0000E+00  0.3314E+00  0.0000E+00  0.4593E-02
     -0.985  0.0000E+00  0.2112E+00  0.0000E+00  0.7955E-01  0.0000E+00  0.4638E-01  0.0000E+00  0.6427E-03
     -0.958  0.0000E+00  0.0000E+00  0.0000E+00  0.0000E+00  0.0000E+00  0.0000E+00  0.0000E+00  0.0000E+00
     -0.930  0.1375E-10  0.0000E+00  0.2891E-09  0.0000E+00  0.2701E-10  0.0000E+00  0.7765E-13  0.0000E+00
     -0.903  0.5938E-01  0.1972E-16  0.1248E+01  0.1700E-14  0.1167E+00  0.1475E-15  0.3353E-03  0.3854E-18
     -0.876  0.4342E-02  0.6872E-02  0.9129E-01  0.5926E+00  0.8531E-02  0.5142E-01  0.2452E-04  0.1343E-03
     -0.848  0.0000E+00  0.9273E-02  0.0000E+00  0.7996E+00  0.0000E+00  0.6938E-01  0.0000E+00  0.1813E-03
     -0.821  0.0000E+00  0.0000E+00  0.0000E+00  0.0000E+00  0.0000E+00  0.0000E+00  0.0000E+00  0.0000E+00
     -0.793  0.0000E+00  0.0000E+00  0.0000E+00  0.0000E+00  0.0000E+00  0.0000E+00  0.0000E+00  0.0000E+00
     -0.766  0.0000E+00  0.0000E+00  0.0000E+00  0.0000E+00  0.0000E+00  0.0000E+00  0.0000E+00  0.0000E+00
     -0.739  0.0000E+00  0.0000E+00  0.0000E+00  0.0000E+00  0.0000E+00  0.0000E+00  0.0000E+00  0.0000E+00
     -0.711  0.0000E+00  0.0000E+00  0.0000E+00  0.0000E+00  0.0000E+00  0.0000E+00  0.0000E+00  0.0000E+00
     -0.684  0.0000E+00  0.0000E+00  0.0000E+00  0.0000E+00  0.0000E+00  0.0000E+00  0.0000E+00  0.0000E+00
     -0.657  0.0000E+00  0.0000E+00  0.0000E+00  0.0000E+00  0.0000E+00  0.0000E+00  0.0000E+00  0.0000E+00
     -0.629  0.0000E+00  0.0000E+00  0.0000E+00  0.0000E+00  0.0000E+00  0.0000E+00  0.0000E+00  0.0000E+00
     -0.602  0.0000E+00  0.0000E+00  0.0000E+00  0.0000E+00  0.0000E+00  0.0000E+00  0.0000E+00  0.0000E+00
     -0.575  0.0000E+00  0.0000E+00  0.0000E+00  0.0000E+00  0.0000E+00  0.0000E+00  0.0000E+00  0.0000E+00
     -0.547  0.8544E-13  0.0000E+00  0.6774E-04  0.0000E+00  0.1583E-06  0.0000E+00  0.1951E-06  0.0000E+00
     -0.520  0.2436E-08  0.0000E+00  0.1931E+01  0.0000E+00  0.4512E-02  0.0000E+00  0.5562E-02  0.0000E+00
     -0.493  0.0000E+00  0.0000E+00  0.0000E+00  0.0000E+00  0.0000E+00  0.0000E+00  0.0000E+00  0.0000E+00
     -0.465  0.0000E+00  0.7393E-10  0.0000E+00  0.5593E-01  0.0000E+00  0.5243E-04  0.0000E+00  0.1592E-03
     -0.438  0.3942E-11  0.2631E-08  0.4394E-02  0.2025E+01  0.1871E-02  0.1032E+00  0.5006E-04  0.7673E-02
     -0.411  0.1532E-08  0.1595E-08  0.1684E+01  0.1440E+01  0.7533E+00  0.7031E+00  0.1992E-01  0.1731E-01
     -0.383  0.0000E+00  0.0000E+00  0.0000E+00  0.0000E+00  0.0000E+00  0.0000E+00  0.0000E+00  0.0000E+00
     -0.356  0.0000E+00  0.0000E+00  0.0000E+00  0.0000E+00  0.0000E+00  0.0000E+00  0.0000E+00  0.0000E+00
     -0.329  0.0000E+00  0.0000E+00  0.0000E+00  0.0000E+00  0.0000E+00  0.0000E+00  0.0000E+00  0.0000E+00
     -0.301  0.0000E+00  0.0000E+00  0.0000E+00  0.0000E+00  0.0000E+00  0.0000E+00  0.0000E+00  0.0000E+00
     -0.274  0.0000E+00  0.0000E+00  0.0000E+00  0.0000E+00  0.0000E+00  0.0000E+00  0.0000E+00  0.0000E+00
     -0.247  0.0000E+00  0.0000E+00  0.0000E+00  0.0000E+00  0.0000E+00  0.0000E+00  0.0000E+00  0.0000E+00
     -0.219  0.0000E+00  0.0000E+00  0.0000E+00  0.0000E+00  0.0000E+00  0.0000E+00  0.0000E+00  0.0000E+00
     -0.192  0.0000E+00  0.0000E+00  0.0000E+00  0.0000E+00  0.0000E+00  0.0000E+00  0.0000E+00  0.0000E+00
     -0.165  0.0000E+00  0.0000E+00  0.0000E+00  0.0000E+00  0.0000E+00  0.0000E+00  0.0000E+00  0.0000E+00
     -0.137  0.0000E+00  0.0000E+00  0.0000E+00  0.0000E+00  0.0000E+00  0.0000E+00  0.0000E+00  0.0000E+00
     -0.110  0.0000E+00  0.0000E+00  0.0000E+00  0.0000E+00  0.0000E+00  0.0000E+00  0.0000E+00  0.0000E+00
     -0.083  0.0000E+00  0.0000E+00  0.0000E+00  0.0000E+00  0.0000E+00  0.0000E+00  0.0000E+00  0.0000E+00
     -0.055  0.0000E+00  0.0000E+00  0.0000E+00  0.0000E+00  0.0000E+00  0.0000E+00  0.0000E+00  0.0000E+00
     -0.05541529     -8.25634583  301     -3.82100923      1.00000000
     -8.256  0.0000E+00  0.0000E+00  0.0000E+00  0.0000E+00  0.0000E+00  0.0000E+00  0.0000E+00  0.0000E+00
     -8.229  0.0000E+00  0.0000E+00  0.0000E+00  0.0000E+00  0.0000E+00  0.0000E+00  0.0000E+00  0.0000E+00
     -8.202  0.0000E+00  0.0000E+00  0.0000E+00  0.0000E+00  0.0000E+00  0.0000E+00  0.0000E+00  0.0000E+00
     -8.174  0.0000E+00  0.0000E+00  0.0000E+00  0.0000E+00  0.0000E+00  0.0000E+00  0.0000E+00  0.0000E+00
     -8.147  0.0000E+00  0.0000E+00  0.0000E+00  0.0000E+00  0.0000E+00  0.0000E+00  0.0000E+00  0.0000E+00
     -8.120  0.0000E+00  0.0000E+00  0.0000E+00  0.0000E+00  0.0000E+00  0.0000E+00  0.0000E+00  0.0000E+00
     -8.092  0.0000E+00  0.0000E+00  0.0000E+00  0.0000E+00  0.0000E+00  0.0000E+00  0.0000E+00  0.0000E+00
     -8.065  0.0000E+00  0.0000E+00  0.0000E+00  0.0000E+00  0.0000E+00  0.0000E+00  0.0000E+00  0.0000E+00
     -8.038  0.0000E+00  0.0000E+00  0.0000E+00  0.0000E+00  0.0000E+00  0.0000E+00  0.0000E+00  0.0000E+00
     -8.010  0.0000E+00  0.0000E+00  0.0000E+00  0.0000E+00  0.0000E+00  0.0000E+00  0.0000E+00  0.0000E+00
     -7.983  0.0000E+00  0.0000E+00  0.0000E+00  0.0000E+00  0.0000E+00  0.0000E+00  0.0000E+00  0.0000E+00
     -7.956  0.0000E+00  0.0000E+00  0.0000E+00  0.0000E+00  0.0000E+00  0.0000E+00  0.0000E+00  0.0000E+00
     -7.928  0.0000E+00  0.0000E+00  0.0000E+00  0.0000E+00  0.0000E+00  0.0000E+00  0.0000E+00  0.0000E+00
     -7.901  0.6381E-06  0.0000E+00  0.2545E-06  0.0000E+00  0.1727E-05  0.0000E+00  0.4733E-08  0.0000E+00
     -7.874  0.1473E+01  0.0000E+00  0.5875E+00  0.0000E+00  0.3986E+01  0.0000E+00  0.1093E-01  0.0000E+00
     -7.846  0.3640E-02  0.0000E+00  0.1452E-02  0.0000E+00  0.9850E-02  0.0000E+00  0.2700E-04  0.0000E+00
     -7.819  0.0000E+00  0.3525E+00  0.0000E+00  0.1415E+00  0.0000E+00  0.8520E+00  0.0000E+00  0.2475E-02
     -7.792  0.0000E+00  0.1207E+01  0.0000E+00  0.4842E+00  0.0000E+00  0.2916E+01  0.0000E+00  0.8470E-02
     -7.764  0.0000E+00  0.0000E+00  0.0000E+00  0.0000E+00  0.0000E+00  0.0000E+00  0.0000E+00  0.0000E+00
     -7.737  0.0000E+00  0.0000E+00  0.0000E+00  0.0000E+00  0.0000E+00  0.0000E+00  0.0000E+00  0.0000E+00
     -7.710  0.0000E+00  0.0000E+00  0.0000E+00  0.0000E+00  0.0000E+00  0.0000E+00  0.0000E+00  0.0000E+00
     -7.682  0.0000E+00  0.0000E+00  0.0000E+00  0.0000E+00  0.0000E+00  0.0000E+00  0.0000E+00  0.0000E+00
     -7.655  0.0000E+00  0.0000E+00  0.0000E+00  0.0000E+00  0.0000E+00  0.0000E+00  0.0000E+00  0.0000E+00
     -7.628  0.0000E+00  0.0000E+00  0.0000E+00  0.0000E+00  0.0000E+00  0.0000E+00  0.0000E+00  0.0000E+00
     -7.600  0.0000E+00  0.0000E+00  0.0000E+00  0.0000E+00  0.0000E+00  0.0000E+00  0.0000E+00  0.0000E+00
     -7.573  0.0000E+00  0.0000E+00  0.0000E+00  0.0000E+00  0.0000E+00  0.0000E+00  0.0000E+00  0.0000E+00
     -7.546  0.0000E+00  0.0000E+00  0.0000E+00  0.0000E+00  0.0000E+00  0.0000E+00  0.0000E+00  0.0000E+00
     -7.518  0.0000E+00  0.0000E+00  0.0000E+00  0.0000E+00  0.0000E+00  0.0000E+00  0.0000E+00  0.0000E+00
     -7.491  0.0000E+00  0.0000E+00  0.0000E+00  0.0000E+00  0.0000E+00  0.0000E+00  0.0000E+00  0.0000E+00
     -7.464  0.0000E+00  0.0000E+00  0.0000E+00  0.0000E+00  0.0000E+00  0.0000E+00  0.0000E+00  0.0000E+00
     -7.436  0.0000E+00  0.0000E+00  0.0000E+00  0.0000E+00  0.0000E+00  0.0000E+00  0.0000E+00  0.0000E+00
     -7.409  0.0000E+00  0.0000E+00  0.0000E+00  0.0000E+00  0.0000E+00  0.0000E+00  0.0000E+00  0.0000E+00
     -7.382  0.0000E+00  0.0000E+00  0.0000E+00  0.0000E+00  0.0000E+00  0.0000E+00  0.0000E+00  0.0000E+00
     -7.354  0.0000E+00  0.0000E+00  0.0000E+00  0.0000E+00  0.0000E+00  0.0000E+00  0.0000E+00  0.0000E+00
     -7.327  0.0000E+00  0.0000E+00  0.0000E+00  0.0000E+00  0.0000E+00  0.0000E+00  0.0000E+00  0.0000E+00
     -7.300  0.0000E+00  0.0000E+00  0.0000E+00  0.0000E+00  0.0000E+00  0.0000E+00  0.0000E+00  0.0000E+00
     -7.272  0.0000E+00  0.0000E+00  0.0000E+00  0.0000E+00  0.0000E+00  0.0000E+00  0.0000E+00  0.0000E+00
     -7.245  0.0000E+00  0.0000E+00  0.0000E+00  0.0000E+00  0.0000E+00  0.0000E+00  0.0000E+00  0.0000E+00
     -7.218  0.0000E+00  0.0000E+00  0.0000E+00  0.0000E+00  0.0000E+00  0.0000E+00  0.0000E+00  0.0000E+00
     -7.190  0.0000E+00  0.0000E+00  0.0000E+00  0.0000E+00  0.0000E+00  0.0000E+00  0.0000E+00  0.0000E+00
     -7.163  0.0000E+00  0.0000E+00  0.0000E+00  0.0000E+00  0.0000E+00  0.0000E+00  0.0000E+00  0.0000E+00
     -7.136  0.0000E+00  0.0000E+00  0.0000E+00  0.0000E+00  0.0000E+00  0.0000E+00  0.0000E+00  0.0000E+00
     -7.108  0.9720E-07  0.0000E+00  0.3840E-01  0.0000E+00  0.1646E+01  0.0000E+00  0.2647E-02  0.0000E+00
     -7.081  0.3965E-06  0.0000E+00  0.1567E+00  0.0000E+00  0.6715E+01  0.0000E+00  0.1080E-01  0.0000E+00
     -7.054  0.0000E+00  0.0000E+00  0.0000E+00  0.0000E+00  0.0000E+00  0.0000E+00  0.0000E+00  0.0000E+00
     -7.026  0.0000E+00  0.0000E+00  0.0000E+00  0.0000E+00  0.0000E+00  0.0000E+00  0.0000E+00  0.0000E+00
     -6.999  0.0000E+00  0.0000E+00  0.0000E+00  0.0000E+00  0.0000E+00  0.0000E+00  0.0000E+00  0.0000E+00
     -6.972  0.0000E+00  0.0000E+00  0.0000E+00  0.0000E+00  0.0000E+00  0.0000E+00  0.0000E+00  0.0000E+00
     -6.944  0.0000E+00  0.0000E+00  0.0000E+00  0.0000E+00  0.0000E+00  0.0000E+00  0.0000E+00  0.0000E+00
     -6.917  0.0000E+00  0.0000E+00  0.0000E+00  0.0000E+00  0.0000E+00  0.0000E+00  0.0000E+00  0.0000E+00
     -6.890  0.0000E+00  0.0000E+00  0.0000E+00  0.0000E+00  0.0000E+00  0.0000E+00  0.0000E+00  0.0000E+00
     -6.862  0.0000E+00  0.0000E+00  0.0000E+00  0.0000E+00  0.0000E+00  0.0000E+00  0.0000E+00  0.0000E+00
     -6.835  0.2233E-11  0.0000E+00  0.2915E-02  0.0000E+00  0.1039E+00  0.0000E+00  0.2740E-03  0.0000E+00
     -6.808  0.1439E-09  0.0000E+00  0.1878E+00  0.0000E+00  0.6693E+01  0.0000E+00  0.1765E-01  0.0000E+00
     -6.780  0.2201E-07  0.0000E+00  0.4637E-08  0.0000E+00  0.6191E-07  0.0000E+00  0.2159E-09  0.0000E+00
     -6.753  0.2008E+01  0.0000E+00  0.5334E+00  0.0000E+00  0.1140E+02  0.0000E+00  0.2484E-01  0.0000E+00
     -6.726  0.3365E-01  0.1225E-16  0.1032E-01  0.3485E-07  0.2630E+00  0.1114E-05  0.4809E-03  0.3192E-08
     -6.698  0.0000E+00  0.7302E-10  0.0000E+00  0.2077E+00  0.0000E+00  0.6640E+01  0.0000E+00  0.1903E-01
     -6.671  0.0000E+00  0.7435E-08  0.0000E+00  0.1883E-02  0.0000E+00  0.6120E-01  0.0000E+00  0.1425E-03
     -6.643  0.4521E-12  0.1825E-05  0.2717E-05  0.2428E+00  0.1352E-03  0.8011E+01  0.3582E-06  0.1489E-01
     -6.616  0.3704E-07  0.0000E+00  0.2177E+00  0.0000E+00  0.1110E+02  0.0000E+00  0.3066E-01  0.0000E+00
     -6.589  0.8268E-11  0.0000E+00  0.4762E-04  0.0000E+00  0.2481E-02  0.0000E+00  0.7099E-05  0.0000E+00
     -6.561  0.0000E+00  0.0000E+00  0.0000E+00  0.0000E+00  0.0000E+00  0.0000E+00  0.0000E+00  0.0000E+00
     -6.534  0.0000E+00  0.1207E-11  0.0000E+00  0.7468E-06  0.0000E+00  0.3311E-04  0.0000E+00  0.9758E-07
     -6.507  0.9085E-12  0.3801E-06  0.4155E-13  0.2357E+00  0.5017E-11  0.1070E+02  0.1045E-13  0.3278E-01
     -6.479  0.8940E+00  0.9928E-03  0.4088E-01  0.3647E-03  0.4936E+01  0.9262E-02  0.1028E-01  0.3138E-04
     -6.452  0.3060E+00  0.2406E+01  0.1400E-01  0.6248E+00  0.1690E+01  0.9081E+01  0.3521E-02  0.2817E-01
     -6.425  0.1234E-25  0.0000E+00  0.1415E-22  0.0000E+00  0.2100E-14  0.0000E+00  0.5088E-17  0.0000E+00
     -6.397  0.1364E-10  0.0000E+00  0.1564E-07  0.0000E+00  0.2322E+01  0.0000E+00  0.5624E-02  0.0000E+00
     -6.370  0.2341E-10  0.0000E+00  0.2685E-07  0.0000E+00  0.3984E+01  0.0000E+00  0.9652E-02  0.0000E+00
     -6.343  0.0000E+00  0.0000E+00  0.0000E+00  0.0000E+00  0.0000E+00  0.0000E+00  0.0000E+00  0.0000E+00
     -6.315  0.0000E+00  0.0000E+00  0.0000E+00  0.0000E+00  0.0000E+00  0.0000E+00  0.0000E+00  0.0000E+00
     -6.288  0.0000E+00  0.1745E-10  0.0000E+00  0.3779E-08  0.0000E+00  0.4959E+00  0.0000E+00  0.1362E-02
     -6.261  0.0000E+00  0.1443E+01  0.0000E+00  0.6175E-01  0.0000E+00  0.8534E+01  0.0000E+00  0.2510E-01
     -6.233  0.0000E+00  0.6598E+00  0.0000E+00  0.2824E-01  0.0000E+00  0.1341E+01  0.0000E+00  0.4438E-02
     -6.206  0.0000E+00  0.0000E+00  0.0000E+00  0.0000E+00  0.0000E+00  0.0000E+00  0.0000E+00  0.0000E+00
     -6.179  0.1283E-10  0.0000E+00  0.4117E-12  0.0000E+00  0.3430E-10  0.0000E+00  0.6034E-13  0.0000E+00
     -6.151  0.1082E+01  0.0000E+00  0.3473E-01  0.0000E+00  0.2894E+01  0.0000E+00  0.5090E-02  0.0000E+00
     -6.124  0.1944E+00  0.0000E+00  0.6239E-02  0.0000E+00  0.5199E+00  0.0000E+00  0.9145E-03  0.0000E+00
     -6.097  0.0000E+00  0.0000E+00  0.0000E+00  0.0000E+00  0.0000E+00  0.0000E+00  0.0000E+00  0.0000E+00
     -6.069  0.0000E+00  0.0000E+00  0.0000E+00  0.0000E+00  0.0000E+00  0.0000E+00  0.0000E+00  0.0000E+00
     -6.042  0.0000E+00  0.0000E+00  0.0000E+00  0.0000E+00  0.0000E+00  0.0000E+00  0.0000E+00  0.0000E+00
     -6.015  0.6112E-02  0.0000E+00  0.2433E-03  0.0000E+00  0.7634E-01  0.0000E+00  0.5190E-04  0.0000E+00
     -5.987  0.2660E+00  0.4055E-08  0.1059E-01  0.3772E-10  0.3323E+01  0.8992E-07  0.2259E-02  0.1386E-09
     -5.960  0.2534E-10  0.2544E+00  0.1836E-10  0.2366E-02  0.2527E-08  0.5640E+01  0.1172E-10  0.8693E-02
     -5.933  0.1269E+00  0.3598E-02  0.4327E-01  0.3347E-04  0.1172E+02  0.7979E-01  0.3000E-01  0.1230E-03
     -5.905  0.9765E-02  0.0000E+00  0.2698E-02  0.0000E+00  0.8891E+00  0.0000E+00  0.1936E-02  0.0000E+00
     -5.878  0.0000E+00  0.0000E+00  0.0000E+00  0.0000E+00  0.0000E+00  0.0000E+00  0.0000E+00  0.0000E+00
     -5.851  0.0000E+00  0.0000E+00  0.0000E+00  0.0000E+00  0.0000E+00  0.0000E+00  0.0000E+00  0.0000E+00
     -5.823  0.0000E+00  0.0000E+00  0.0000E+00  0.0000E+00  0.0000E+00  0.0000E+00  0.0000E+00  0.0000E+00
     -5.796  0.0000E+00  0.0000E+00  0.0000E+00  0.0000E+00  0.0000E+00  0.0000E+00  0.0000E+00  0.0000E+00
     -5.769  0.0000E+00  0.0000E+00  0.0000E+00  0.0000E+00  0.0000E+00  0.0000E+00  0.0000E+00  0.0000E+00
     -5.741  0.0000E+00  0.0000E+00  0.0000E+00  0.0000E+00  0.0000E+00  0.0000E+00  0.0000E+00  0.0000E+00
     -5.714  0.0000E+00  0.2975E-02  0.0000E+00  0.8847E-04  0.0000E+00  0.3181E-01  0.0000E+00  0.2556E-04
     -5.687  0.0000E+00  0.3008E+00  0.0000E+00  0.8945E-02  0.0000E+00  0.3217E+01  0.0000E+00  0.2585E-02
     -5.659  0.0000E+00  0.6956E-05  0.0000E+00  0.7773E-04  0.0000E+00  0.8800E-02  0.0000E+00  0.3058E-04
     -5.632  0.0000E+00  0.1223E-01  0.0000E+00  0.6908E-01  0.0000E+00  0.1367E+02  0.0000E+00  0.3716E-01
     -5.605  0.0000E+00  0.0000E+00  0.0000E+00  0.0000E+00  0.0000E+00  0.0000E+00  0.0000E+00  0.0000E+00
     -5.577  0.0000E+00  0.0000E+00  0.0000E+00  0.0000E+00  0.0000E+00  0.0000E+00  0.0000E+00  0.0000E+00
     -5.550  0.0000E+00  0.0000E+00  0.0000E+00  0.0000E+00  0.0000E+00  0.0000E+00  0.0000E+00  0.0000E+00
     -5.523  0.6017E-10  0.0000E+00  0.1097E-01  0.0000E+00  0.7369E+00  0.0000E+00  0.3148E-02  0.0000E+00
     -5.495  0.1773E-09  0.0000E+00  0.3232E-01  0.0000E+00  0.2172E+01  0.0000E+00  0.9278E-02  0.0000E+00
     -5.468  0.0000E+00  0.0000E+00  0.0000E+00  0.0000E+00  0.0000E+00  0.0000E+00  0.0000E+00  0.0000E+00
     -5.441  0.0000E+00  0.0000E+00  0.0000E+00  0.0000E+00  0.0000E+00  0.0000E+00  0.0000E+00  0.0000E+00
     -5.413  0.0000E+00  0.0000E+00  0.0000E+00  0.0000E+00  0.0000E+00  0.0000E+00  0.0000E+00  0.0000E+00
     -5.386  0.0000E+00  0.0000E+00  0.0000E+00  0.0000E+00  0.0000E+00  0.0000E+00  0.0000E+00  0.0000E+00
     -5.359  0.3162E-04  0.0000E+00  0.1328E-04  0.0000E+00  0.1241E-02  0.0000E+00  0.1700E-05  0.0000E+00
     -5.331  0.3951E+00  0.0000E+00  0.1608E+00  0.0000E+00  0.1550E+02  0.0000E+00  0.2047E-01  0.0000E+00
     -5.304  0.0000E+00  0.0000E+00  0.0000E+00  0.0000E+00  0.0000E+00  0.0000E+00  0.0000E+00  0.0000E+00
     -5.277  0.0000E+00  0.6066E-18  0.0000E+00  0.4363E-10  0.0000E+00  0.3709E-08  0.0000E+00  0.1413E-10
     -5.249  0.0000E+00  0.5226E-09  0.0000E+00  0.3758E-01  0.0000E+00  0.3195E+01  0.0000E+00  0.1217E-01
     -5.222  0.0000E+00  0.2172E-10  0.0000E+00  0.1562E-02  0.0000E+00  0.1328E+00  0.0000E+00  0.5059E-03
     -5.195  0.0000E+00  0.7696E-04  0.0000E+00  0.3126E-04  0.0000E+00  0.3163E-02  0.0000E+00  0.4381E-05
     -5.167  0.0000E+00  0.3753E+00  0.0000E+00  0.1524E+00  0.0000E+00  0.1542E+02  0.0000E+00  0.2136E-01
     -5.140  0.0000E+00  0.0000E+00  0.0000E+00  0.0000E+00  0.0000E+00  0.0000E+00  0.0000E+00  0.0000E+00
     -5.113  0.0000E+00  0.0000E+00  0.0000E+00  0.0000E+00  0.0000E+00  0.0000E+00  0.0000E+00  0.0000E+00
     -5.085  0.0000E+00  0.0000E+00  0.0000E+00  0.0000E+00  0.0000E+00  0.0000E+00  0.0000E+00  0.0000E+00
     -5.058  0.0000E+00  0.0000E+00  0.0000E+00  0.0000E+00  0.0000E+00  0.0000E+00  0.0000E+00  0.0000E+00
     -5.031  0.4193E-18  0.0000E+00  0.5264E-09  0.0000E+00  0.3066E-06  0.0000E+00  0.3019E-09  0.0000E+00
     -5.003  0.3234E-10  0.0000E+00  0.4054E-01  0.0000E+00  0.1525E+02  0.0000E+00  0.1958E-01  0.0000E+00
     -4.976  0.5029E-12  0.0000E+00  0.6301E-03  0.0000E+00  0.1960E+00  0.0000E+00  0.2862E-03  0.0000E+00
     -4.949  0.0000E+00  0.0000E+00  0.0000E+00  0.0000E+00  0.0000E+00  0.0000E+00  0.0000E+00  0.0000E+00
     -4.921  0.0000E+00  0.0000E+00  0.0000E+00  0.0000E+00  0.0000E+00  0.0000E+00  0.0000E+00  0.0000E+00
     -4.894  0.5619E-12  0.0000E+00  0.4446E-03  0.0000E+00  0.6122E-03  0.0000E+00  0.5957E-04  0.0000E+00
     -4.867  0.1479E-09  0.1022E-14  0.1170E+00  0.2014E-05  0.1611E+00  0.1037E-02  0.1568E-01  0.1079E-05
     -4.839  0.7159E-11  0.1986E-10  0.2681E-01  0.4043E-01  0.1960E+00  0.1519E+02  0.4216E-02  0.1958E-01
     -4.812  0.1140E-10  0.9433E-12  0.4269E-01  0.8064E-03  0.3120E+00  0.1009E-02  0.6714E-02  0.9937E-04
     -4.785  0.0000E+00  0.1476E-09  0.0000E+00  0.1261E+00  0.0000E+00  0.1579E+00  0.0000E+00  0.1555E-01
     -4.757  0.0000E+00  0.9347E-10  0.0000E+00  0.1951E-01  0.0000E+00  0.3264E+00  0.0000E+00  0.5000E-02
     -4.730  0.0000E+00  0.1364E-09  0.0000E+00  0.2847E-01  0.0000E+00  0.4765E+00  0.0000E+00  0.7299E-02
     -4.703  0.0000E+00  0.0000E+00  0.0000E+00  0.0000E+00  0.0000E+00  0.0000E+00  0.0000E+00  0.0000E+00
     -4.675  0.0000E+00  0.0000E+00  0.0000E+00  0.0000E+00  0.0000E+00  0.0000E+00  0.0000E+00  0.0000E+00
     -4.648  0.0000E+00  0.0000E+00  0.0000E+00  0.0000E+00  0.0000E+00  0.0000E+00  0.0000E+00  0.0000E+00
     -4.621  0.0000E+00  0.0000E+00  0.0000E+00  0.0000E+00  0.0000E+00  0.0000E+00  0.0000E+00  0.0000E+00
     -4.593  0.0000E+00  0.0000E+00  0.0000E+00  0.0000E+00  0.0000E+00  0.0000E+00  0.0000E+00  0.0000E+00
     -4.566  0.0000E+00  0.0000E+00  0.0000E+00  0.0000E+00  0.0000E+00  0.0000E+00  0.0000E+00  0.0000E+00
     -4.539  0.0000E+00  0.0000E+00  0.0000E+00  0.0000E+00  0.0000E+00  0.0000E+00  0.0000E+00  0.0000E+00
     -4.511  0.8625E-18  0.0000E+00  0.1320E-17  0.0000E+00  0.5943E-08  0.0000E+00  0.7834E-11  0.0000E+00
     -4.484  0.1217E-08  0.0000E+00  0.1862E-08  0.0000E+00  0.8383E+01  0.0000E+00  0.1105E-01  0.0000E+00
     -4.457  0.2000E-01  0.0000E+00  0.5425E-01  0.0000E+00  0.6425E+01  0.0000E+00  0.9296E-02  0.0000E+00
     -4.429  0.7953E-02  0.0000E+00  0.2157E-01  0.0000E+00  0.2389E+01  0.0000E+00  0.3478E-02  0.0000E+00
     -4.402  0.3210E-09  0.0000E+00  0.1097E+00  0.0000E+00  0.3540E+01  0.0000E+00  0.2030E-02  0.0000E+00
     -4.375  0.1003E-06  0.0000E+00  0.6482E-01  0.0000E+00  0.2093E+01  0.0000E+00  0.1200E-02  0.0000E+00
     -4.347  0.1114E+00  0.0000E+00  0.3196E+00  0.0000E+00  0.1342E+02  0.0000E+00  0.5340E-01  0.0000E+00
     -4.320  0.2046E-02  0.2620E-12  0.2039E+00  0.1293E-11  0.8598E+01  0.9342E-02  0.2641E-01  0.1168E-04
     -4.293  0.8848E-10  0.4931E-09  0.2896E-03  0.1792E-08  0.1209E-01  0.8856E+01  0.3761E-04  0.1107E-01
     -4.265  0.0000E+00  0.3071E-01  0.0000E+00  0.7522E-01  0.0000E+00  0.1040E+02  0.0000E+00  0.1393E-01
     -4.238  0.0000E+00  0.6058E-03  0.0000E+00  0.1484E-02  0.0000E+00  0.1626E+00  0.0000E+00  0.2352E-03
     -4.211  0.0000E+00  0.2400E-01  0.0000E+00  0.2591E-01  0.0000E+00  0.2392E+01  0.0000E+00  0.4126E-02
     -4.183  0.0000E+00  0.1181E-04  0.0000E+00  0.7854E-04  0.0000E+00  0.2961E-02  0.0000E+00  0.3184E-05
     -4.156  0.0000E+00  0.2797E-10  0.0000E+00  0.1916E+00  0.0000E+00  0.5197E+01  0.0000E+00  0.3362E-02
     -4.129  0.0000E+00  0.0000E+00  0.0000E+00  0.0000E+00  0.0000E+00  0.0000E+00  0.0000E+00  0.0000E+00
     -4.101  0.0000E+00  0.0000E+00  0.0000E+00  0.0000E+00  0.0000E+00  0.0000E+00  0.0000E+00  0.0000E+00
     -4.074  0.0000E+00  0.0000E+00  0.0000E+00  0.0000E+00  0.0000E+00  0.0000E+00  0.0000E+00  0.0000E+00
     -4.047  0.0000E+00  0.4127E-06  0.0000E+00  0.1338E-03  0.0000E+00  0.8391E-02  0.0000E+00  0.3886E-04
     -4.019  0.0000E+00  0.4372E-03  0.0000E+00  0.1844E+00  0.0000E+00  0.1007E+02  0.0000E+00  0.4228E-01
     -3.992  0.2597E-24  0.0000E+00  0.2494E-15  0.0000E+00  0.7832E-14  0.0000E+00  0.1898E-16  0.0000E+00
     -3.965  0.1943E-09  0.0000E+00  0.9508E-01  0.0000E+00  0.2991E+01  0.0000E+00  0.7238E-02  0.0000E+00
     -3.937  0.3096E-09  0.0000E+00  0.1296E+00  0.0000E+00  0.4079E+01  0.0000E+00  0.9867E-02  0.0000E+00
     -3.910  0.1036E-08  0.0000E+00  0.5904E-08  0.0000E+00  0.9902E-05  0.0000E+00  0.4236E-07  0.0000E+00
     -3.883  0.5585E-03  0.0000E+00  0.3183E-02  0.0000E+00  0.5339E+01  0.0000E+00  0.2284E-01  0.0000E+00
     -3.855  0.5325E-06  0.7415E-11  0.3035E-05  0.4864E-02  0.5090E-02  0.1710E+00  0.2177E-04  0.3640E-03
     -3.828  0.0000E+00  0.4017E-09  0.0000E+00  0.2119E+00  0.0000E+00  0.7451E+01  0.0000E+00  0.1586E-01
     -3.801  0.0000E+00  0.0000E+00  0.0000E+00  0.0000E+00  0.0000E+00  0.0000E+00  0.0000E+00  0.0000E+00
     -3.773  0.0000E+00  0.0000E+00  0.0000E+00  0.0000E+00  0.0000E+00  0.0000E+00  0.0000E+00  0.0000E+00
     -3.746  0.0000E+00  0.3098E-11  0.0000E+00  0.3828E-02  0.0000E+00  0.1577E+00  0.0000E+00  0.4659E-03
     -3.718  0.0000E+00  0.1603E-09  0.0000E+00  0.1980E+00  0.0000E+00  0.8156E+01  0.0000E+00  0.2410E-01
     -3.691  0.0000E+00  0.0000E+00  0.0000E+00  0.0000E+00  0.0000E+00  0.0000E+00  0.0000E+00  0.0000E+00
     -3.664  0.0000E+00  0.0000E+00  0.0000E+00  0.0000E+00  0.0000E+00  0.0000E+00  0.0000E+00  0.0000E+00
     -3.636  0.0000E+00  0.0000E+00  0.0000E+00  0.0000E+00  0.0000E+00  0.0000E+00  0.0000E+00  0.0000E+00
     -3.609  0.0000E+00  0.0000E+00  0.0000E+00  0.0000E+00  0.0000E+00  0.0000E+00  0.0000E+00  0.0000E+00
     -3.582  0.0000E+00  0.0000E+00  0.0000E+00  0.0000E+00  0.0000E+00  0.0000E+00  0.0000E+00  0.0000E+00
     -3.554  0.0000E+00  0.0000E+00  0.0000E+00  0.0000E+00  0.0000E+00  0.0000E+00  0.0000E+00  0.0000E+00
     -3.527  0.0000E+00  0.0000E+00  0.0000E+00  0.0000E+00  0.0000E+00  0.0000E+00  0.0000E+00  0.0000E+00
     -3.500  0.0000E+00  0.2570E-08  0.0000E+00  0.8098E-07  0.0000E+00  0.1755E-03  0.0000E+00  0.7050E-06
     -3.472  0.0000E+00  0.7947E-04  0.0000E+00  0.2504E-02  0.0000E+00  0.5427E+01  0.0000E+00  0.2180E-01
     -3.445  0.0000E+00  0.0000E+00  0.0000E+00  0.0000E+00  0.0000E+00  0.0000E+00  0.0000E+00  0.0000E+00
     -3.418  0.0000E+00  0.0000E+00  0.0000E+00  0.0000E+00  0.0000E+00  0.0000E+00  0.0000E+00  0.0000E+00
     -3.390  0.0000E+00  0.0000E+00  0.0000E+00  0.0000E+00  0.0000E+00  0.0000E+00  0.0000E+00  0.0000E+00
     -3.363  0.0000E+00  0.0000E+00  0.0000E+00  0.0000E+00  0.0000E+00  0.0000E+00  0.0000E+00  0.0000E+00
     -3.336  0.0000E+00  0.0000E+00  0.0000E+00  0.0000E+00  0.0000E+00  0.0000E+00  0.0000E+00  0.0000E+00
     -3.308  0.0000E+00  0.0000E+00  0.0000E+00  0.0000E+00  0.0000E+00  0.0000E+00  0.0000E+00  0.0000E+00
     -3.281  0.0000E+00  0.0000E+00  0.0000E+00  0.0000E+00  0.0000E+00  0.0000E+00  0.0000E+00  0.0000E+00
     -3.254  0.0000E+00  0.0000E+00  0.0000E+00  0.0000E+00  0.0000E+00  0.0000E+00  0.0000E+00  0.0000E+00
     -3.226  0.0000E+00  0.0000E+00  0.0000E+00  0.0000E+00  0.0000E+00  0.0000E+00  0.0000E+00  0.0000E+00
     -3.199  0.0000E+00  0.0000E+00  0.0000E+00  0.0000E+00  0.0000E+00  0.0000E+00  0.0000E+00  0.0000E+00
     -3.172  0.0000E+00  0.0000E+00  0.0000E+00  0.0000E+00  0.0000E+00  0.0000E+00  0.0000E+00  0.0000E+00
     -3.144  0.0000E+00  0.0000E+00  0.0000E+00  0.0000E+00  0.0000E+00  0.0000E+00  0.0000E+00  0.0000E+00
     -3.117  0.3984E-07  0.0000E+00  0.7883E-08  0.0000E+00  0.1012E-07  0.0000E+00  0.1864E-10  0.0000E+00
     -3.090  0.3732E+01  0.0000E+00  0.9639E+00  0.0000E+00  0.1201E+01  0.0000E+00  0.2638E-02  0.0000E+00
     -3.062  0.6323E-01  0.1616E-19  0.2773E+00  0.2059E-11  0.4857E+00  0.4210E-11  0.1266E-02  0.9116E-14
     -3.035  0.2495E-07  0.3824E-08  0.3794E+00  0.4873E+00  0.6787E+00  0.9963E+00  0.1778E-02  0.2157E-02
     -3.008  0.0000E+00  0.9084E-09  0.0000E+00  0.1158E+00  0.0000E+00  0.2367E+00  0.0000E+00  0.5124E-03
     -2.980  0.0000E+00  0.1373E+00  0.0000E+00  0.3566E-01  0.0000E+00  0.6374E-01  0.0000E+00  0.8228E-04
     -2.953  0.0000E+00  0.3443E+01  0.0000E+00  0.9964E+00  0.0000E+00  0.1792E+01  0.0000E+00  0.2448E-02
     -2.926  0.0000E+00  0.0000E+00  0.0000E+00  0.0000E+00  0.0000E+00  0.0000E+00  0.0000E+00  0.0000E+00
     -2.898  0.0000E+00  0.0000E+00  0.0000E+00  0.0000E+00  0.0000E+00  0.0000E+00  0.0000E+00  0.0000E+00
     -2.871  0.0000E+00  0.0000E+00  0.0000E+00  0.0000E+00  0.0000E+00  0.0000E+00  0.0000E+00  0.0000E+00
     -2.844  0.0000E+00  0.0000E+00  0.0000E+00  0.0000E+00  0.0000E+00  0.0000E+00  0.0000E+00  0.0000E+00
     -2.816  0.0000E+00  0.0000E+00  0.0000E+00  0.0000E+00  0.0000E+00  0.0000E+00  0.0000E+00  0.0000E+00
     -2.789  0.0000E+00  0.0000E+00  0.0000E+00  0.0000E+00  0.0000E+00  0.0000E+00  0.0000E+00  0.0000E+00
     -2.762  0.0000E+00  0.0000E+00  0.0000E+00  0.0000E+00  0.0000E+00  0.0000E+00  0.0000E+00  0.0000E+00
     -2.734  0.0000E+00  0.0000E+00  0.0000E+00  0.0000E+00  0.0000E+00  0.0000E+00  0.0000E+00  0.0000E+00
     -2.707  0.0000E+00  0.0000E+00  0.0000E+00  0.0000E+00  0.0000E+00  0.0000E+00  0.0000E+00  0.0000E+00
     -2.680  0.0000E+00  0.0000E+00  0.0000E+00  0.0000E+00  0.0000E+00  0.0000E+00  0.0000E+00  0.0000E+00
     -2.652  0.0000E+00  0.0000E+00  0.0000E+00  0.0000E+00  0.0000E+00  0.0000E+00  0.0000E+00  0.0000E+00
     -2.625  0.0000E+00  0.0000E+00  0.0000E+00  0.0000E+00  0.0000E+00  0.0000E+00  0.0000E+00  0.0000E+00
     -2.598  0.0000E+00  0.0000E+00  0.0000E+00  0.0000E+00  0.0000E+00  0.0000E+00  0.0000E+00  0.0000E+00
     -2.570  0.0000E+00  0.0000E+00  0.0000E+00  0.0000E+00  0.0000E+00  0.0000E+00  0.0000E+00  0.0000E+00
     -2.543  0.0000E+00  0.0000E+00  0.0000E+00  0.0000E+00  0.0000E+00  0.0000E+00  0.0000E+00  0.0000E+00
     -2.516  0.0000E+00  0.0000E+00  0.0000E+00  0.0000E+00  0.0000E+00  0.0000E+00  0.0000E+00  0.0000E+00
     -2.488  0.0000E+00  0.0000E+00  0.0000E+00  0.0000E+00  0.0000E+00  0.0000E+00  0.0000E+00  0.0000E+00
     -2.461  0.0000E+00  0.0000E+00  0.0000E+00  0.0000E+00  0.0000E+00  0.0000E+00  0.0000E+00  0.0000E+00
     -2.434  0.0000E+00  0.0000E+00  0.0000E+00  0.0000E+00  0.0000E+00  0.0000E+00  0.0000E+00  0.0000E+00
     -2.406  0.0000E+00  0.0000E+00  0.0000E+00  0.0000E+00  0.0000E+00  0.0000E+00  0.0000E+00  0.0000E+00
     -2.379  0.0000E+00  0.0000E+00  0.0000E+00  0.0000E+00  0.0000E+00  0.0000E+00  0.0000E+00  0.0000E+00
     -2.352  0.0000E+00  0.0000E+00  0.0000E+00  0.0000E+00  0.0000E+00  0.0000E+00  0.0000E+00  0.0000E+00
     -2.324  0.0000E+00  0.0000E+00  0.0000E+00  0.0000E+00  0.0000E+00  0.0000E+00  0.0000E+00  0.0000E+00
     -2.297  0.0000E+00  0.0000E+00  0.0000E+00  0.0000E+00  0.0000E+00  0.0000E+00  0.0000E+00  0.0000E+00
     -2.270  0.0000E+00  0.0000E+00  0.0000E+00  0.0000E+00  0.0000E+00  0.0000E+00  0.0000E+00  0.0000E+00
     -2.242  0.0000E+00  0.0000E+00  0.0000E+00  0.0000E+00  0.0000E+00  0.0000E+00  0.0000E+00  0.0000E+00
     -2.215  0.0000E+00  0.0000E+00  0.0000E+00  0.0000E+00  0.0000E+00  0.0000E+00  0.0000E+00  0.0000E+00
     -2.188  0.0000E+00  0.0000E+00  0.0000E+00  0.0000E+00  0.0000E+00  0.0000E+00  0.0000E+00  0.0000E+00
     -2.160  0.0000E+00  0.0000E+00  0.0000E+00  0.0000E+00  0.0000E+00  0.0000E+00  0.0000E+00  0.0000E+00
     -2.133  0.0000E+00  0.0000E+00  0.0000E+00  0.0000E+00  0.0000E+00  0.0000E+00  0.0000E+00  0.0000E+00
     -2.106  0.0000E+00  0.0000E+00  0.0000E+00  0.0000E+00  0.0000E+00  0.0000E+00  0.0000E+00  0.0000E+00
     -2.078  0.0000E+00  0.0000E+00  0.0000E+00  0.0000E+00  0.0000E+00  0.0000E+00  0.0000E+00  0.0000E+00
     -2.051  0.0000E+00  0.0000E+00  0.0000E+00  0.0000E+00  0.0000E+00  0.0000E+00  0.0000E+00  0.0000E+00
     -2.024  0.0000E+00  0.0000E+00  0.0000E+00  0.0000E+00  0.0000E+00  0.0000E+00  0.0000E+00  0.0000E+00
     -1.996  0.0000E+00  0.0000E+00  0.0000E+00  0.0000E+00  0.0000E+00  0.0000E+00  0.0000E+00  0.0000E+00
     -1.969  0.0000E+00  0.0000E+00  0.0000E+00  0.0000E+00  0.0000E+00  0.0000E+00  0.0000E+00  0.0000E+00
     -1.942  0.0000E+00  0.0000E+00  0.0000E+00  0.0000E+00  0.0000E+00  0.0000E+00  0.0000E+00  0.0000E+00
     -1.914  0.0000E+00  0.0000E+00  0.0000E+00  0.0000E+00  0.0000E+00  0.0000E+00  0.0000E+00  0.0000E+00
     -1.887  0.0000E+00  0.0000E+00  0.0000E+00  0.0000E+00  0.0000E+00  0.0000E+00  0.0000E+00  0.0000E+00
     -1.860  0.0000E+00  0.0000E+00  0.0000E+00  0.0000E+00  0.0000E+00  0.0000E+00  0.0000E+00  0.0000E+00
     -1.832  0.0000E+00  0.0000E+00  0.0000E+00  0.0000E+00  0.0000E+00  0.0000E+00  0.0000E+00  0.0000E+00
     -1.805  0.0000E+00  0.0000E+00  0.0000E+00  0.0000E+00  0.0000E+00  0.0000E+00  0.0000E+00  0.0000E+00
     -1.778  0.0000E+00  0.0000E+00  0.0000E+00  0.0000E+00  0.0000E+00  0.0000E+00  0.0000E+00  0.0000E+00
     -1.750  0.0000E+00  0.0000E+00  0.0000E+00  0.0000E+00  0.0000E+00  0.0000E+00  0.0000E+00  0.0000E+00
     -1.723  0.0000E+00  0.0000E+00  0.0000E+00  0.0000E+00  0.0000E+00  0.0000E+00  0.0000E+00  0.0000E+00
     -1.696  0.0000E+00  0.0000E+00  0.0000E+00  0.0000E+00  0.0000E+00  0.0000E+00  0.0000E+00  0.0000E+00
     -1.668  0.0000E+00  0.0000E+00  0.0000E+00  0.0000E+00  0.0000E+00  0.0000E+00  0.0000E+00  0.0000E+00
     -1.641  0.0000E+00  0.0000E+00  0.0000E+00  0.0000E+00  0.0000E+00  0.0000E+00  0.0000E+00  0.0000E+00
     -1.614  0.0000E+00  0.0000E+00  0.0000E+00  0.0000E+00  0.0000E+00  0.0000E+00  0.0000E+00  0.0000E+00
     -1.586  0.0000E+00  0.0000E+00  0.0000E+00  0.0000E+00  0.0000E+00  0.0000E+00  0.0000E+00  0.0000E+00
     -1.559  0.0000E+00  0.0000E+00  0.0000E+00  0.0000E+00  0.0000E+00  0.0000E+00  0.0000E+00  0.0000E+00
     -1.532  0.0000E+00  0.0000E+00  0.0000E+00  0.0000E+00  0.0000E+00  0.0000E+00  0.0000E+00  0.0000E+00
     -1.504  0.0000E+00  0.0000E+00  0.0000E+00  0.0000E+00  0.0000E+00  0.0000E+00  0.0000E+00  0.0000E+00
     -1.477  0.0000E+00  0.0000E+00  0.0000E+00  0.0000E+00  0.0000E+00  0.0000E+00  0.0000E+00  0.0000E+00
     -1.450  0.0000E+00  0.0000E+00  0.0000E+00  0.0000E+00  0.0000E+00  0.0000E+00  0.0000E+00  0.0000E+00
     -1.422  0.0000E+00  0.0000E+00  0.0000E+00  0.0000E+00  0.0000E+00  0.0000E+00  0.0000E+00  0.0000E+00
     -1.395  0.0000E+00  0.0000E+00  0.0000E+00  0.0000E+00  0.0000E+00  0.0000E+00  0.0000E+00  0.0000E+00
     -1.368  0.0000E+00  0.0000E+00  0.0000E+00  0.0000E+00  0.0000E+00  0.0000E+00  0.0000E+00  0.0000E+00
     -1.340  0.0000E+00  0.0000E+00  0.0000E+00  0.0000E+00  0.0000E+00  0.0000E+00  0.0000E+00  0.0000E+00
     -1.313  0.0000E+00  0.0000E+00  0.0000E+00  0.0000E+00  0.0000E+00  0.0000E+00  0.0000E+00  0.0000E+00
     -1.286  0.0000E+00  0.0000E+00  0.0000E+00  0.0000E+00  0.0000E+00  0.0000E+00  0.0000E+00  0.0000E+00
     -1.258  0.0000E+00  0.0000E+00  0.0000E+00  0.0000E+00  0.0000E+00  0.0000E+00  0.0000E+00  0.0000E+00
     -1.231  0.0000E+00  0.0000E+00  0.0000E+00  0.0000E+00  0.0000E+00  0.0000E+00  0.0000E+00  0.0000E+00
     -1.204  0.6316E-06  0.0000E+00  0.1699E-06  0.0000E+00  0.4898E-06  0.0000E+00  0.2988E-08  0.0000E+00
     -1.176  0.6157E+00  0.8887E-15  0.1656E+00  0.6120E-16  0.4774E+00  0.7476E-15  0.2912E-02  0.4051E-17
     -1.149  0.1280E+01  0.2779E+00  0.4689E+00  0.1914E-01  0.2328E+00  0.2338E+00  0.4486E-02  0.1267E-02
     -1.122  0.5545E+00  0.3625E+00  0.2031E+00  0.2496E-01  0.1006E+00  0.3049E+00  0.1943E-02  0.1653E-02
     -1.094  0.0000E+00  0.0000E+00  0.0000E+00  0.0000E+00  0.0000E+00  0.0000E+00  0.0000E+00  0.0000E+00
     -1.067  0.0000E+00  0.0000E+00  0.0000E+00  0.0000E+00  0.0000E+00  0.0000E+00  0.0000E+00  0.0000E+00
     -1.040  0.0000E+00  0.4310E-10  0.0000E+00  0.1624E-10  0.0000E+00  0.9467E-11  0.0000E+00  0.1312E-12
     -1.012  0.0000E+00  0.1509E+01  0.0000E+00  0.5685E+00  0.0000E+00  0.3314E+00  0.0000E+00  0.4593E-02
     -0.985  0.0000E+00  0.2112E+00  0.0000E+00  0.7955E-01  0.0000E+00  0.4638E-01  0.0000E+00  0.6427E-03
     -0.958  0.0000E+00  0.0000E+00  0.0000E+00  0.0000E+00  0.0000E+00  0.0000E+00  0.0000E+00  0.0000E+00
     -0.930  0.1375E-10  0.0000E+00  0.2891E-09  0.0000E+00  0.2701E-10  0.0000E+00  0.7765E-13  0.0000E+00
     -0.903  0.5938E-01  0.1972E-16  0.1248E+01  0.1700E-14  0.1167E+00  0.1475E-15  0.3353E-03  0.3855E-18
     -0.876  0.4342E-02  0.6873E-02  0.9129E-01  0.5926E+00  0.8530E-02  0.5142E-01  0.2452E-04  0.1343E-03
     -0.848  0.0000E+00  0.9274E-02  0.0000E+00  0.7996E+00  0.0000E+00  0.6938E-01  0.0000E+00  0.1813E-03
     -0.821  0.0000E+00  0.0000E+00  0.0000E+00  0.0000E+00  0.0000E+00  0.0000E+00  0.0000E+00  0.0000E+00
     -0.793  0.0000E+00  0.0000E+00  0.0000E+00  0.0000E+00  0.0000E+00  0.0000E+00  0.0000E+00  0.0000E+00
     -0.766  0.0000E+00  0.0000E+00  0.0000E+00  0.0000E+00  0.0000E+00  0.0000E+00  0.0000E+00  0.0000E+00
     -0.739  0.0000E+00  0.0000E+00  0.0000E+00  0.0000E+00  0.0000E+00  0.0000E+00  0.0000E+00  0.0000E+00
     -0.711  0.0000E+00  0.0000E+00  0.0000E+00  0.0000E+00  0.0000E+00  0.0000E+00  0.0000E+00  0.0000E+00
     -0.684  0.0000E+00  0.0000E+00  0.0000E+00  0.0000E+00  0.0000E+00  0.0000E+00  0.0000E+00  0.0000E+00
     -0.657  0.0000E+00  0.0000E+00  0.0000E+00  0.0000E+00  0.0000E+00  0.0000E+00  0.0000E+00  0.0000E+00
     -0.629  0.0000E+00  0.0000E+00  0.0000E+00  0.0000E+00  0.0000E+00  0.0000E+00  0.0000E+00  0.0000E+00
     -0.602  0.0000E+00  0.0000E+00  0.0000E+00  0.0000E+00  0.0000E+00  0.0000E+00  0.0000E+00  0.0000E+00
     -0.575  0.0000E+00  0.0000E+00  0.0000E+00  0.0000E+00  0.0000E+00  0.0000E+00  0.0000E+00  0.0000E+00
     -0.547  0.2309E-13  0.0000E+00  0.6774E-04  0.0000E+00  0.1583E-06  0.0000E+00  0.1951E-06  0.0000E+00
     -0.520  0.6581E-09  0.0000E+00  0.1931E+01  0.0000E+00  0.4512E-02  0.0000E+00  0.5562E-02  0.0000E+00
     -0.493  0.0000E+00  0.0000E+00  0.0000E+00  0.0000E+00  0.0000E+00  0.0000E+00  0.0000E+00  0.0000E+00
     -0.465  0.0000E+00  0.2366E-10  0.0000E+00  0.5593E-01  0.0000E+00  0.5244E-04  0.0000E+00  0.1592E-03
     -0.438  0.2470E-11  0.9083E-09  0.4394E-02  0.2025E+01  0.1871E-02  0.1032E+00  0.5006E-04  0.7673E-02
     -0.411  0.9655E-09  0.9585E-09  0.1684E+01  0.1440E+01  0.7533E+00  0.7031E+00  0.1992E-01  0.1731E-01
     -0.383  0.0000E+00  0.0000E+00  0.0000E+00  0.0000E+00  0.0000E+00  0.0000E+00  0.0000E+00  0.0000E+00
     -0.356  0.0000E+00  0.0000E+00  0.0000E+00  0.0000E+00  0.0000E+00  0.0000E+00  0.0000E+00  0.0000E+00
     -0.329  0.0000E+00  0.0000E+00  0.0000E+00  0.0000E+00  0.0000E+00  0.0000E+00  0.0000E+00  0.0000E+00
     -0.301  0.0000E+00  0.0000E+00  0.0000E+00  0.0000E+00  0.0000E+00  0.0000E+00  0.0000E+00  0.0000E+00
     -0.274  0.0000E+00  0.0000E+00  0.0000E+00  0.0000E+00  0.0000E+00  0.0000E+00  0.0000E+00  0.0000E+00
     -0.247  0.0000E+00  0.0000E+00  0.0000E+00  0.0000E+00  0.0000E+00  0.0000E+00  0.0000E+00  0.0000E+00
     -0.219  0.0000E+00  0.0000E+00  0.0000E+00  0.0000E+00  0.0000E+00  0.0000E+00  0.0000E+00  0.0000E+00
     -0.192  0.0000E+00  0.0000E+00  0.0000E+00  0.0000E+00  0.0000E+00  0.0000E+00  0.0000E+00  0.0000E+00
     -0.165  0.0000E+00  0.0000E+00  0.0000E+00  0.0000E+00  0.0000E+00  0.0000E+00  0.0000E+00  0.0000E+00
     -0.137  0.0000E+00  0.0000E+00  0.0000E+00  0.0000E+00  0.0000E+00  0.0000E+00  0.0000E+00  0.0000E+00
     -0.110  0.0000E+00  0.0000E+00  0.0000E+00  0.0000E+00  0.0000E+00  0.0000E+00  0.0000E+00  0.0000E+00
     -0.083  0.0000E+00  0.0000E+00  0.0000E+00  0.0000E+00  0.0000E+00  0.0000E+00  0.0000E+00  0.0000E+00
     -0.055  0.0000E+00  0.0000E+00  0.0000E+00  0.0000E+00  0.0000E+00  0.0000E+00  0.0000E+00  0.0000E+00
     -0.05541529     -8.25634583  301     -3.82100923      1.00000000
     -8.256  0.0000E+00  0.0000E+00  0.0000E+00  0.0000E+00  0.0000E+00  0.0000E+00  0.0000E+00  0.0000E+00
     -8.229  0.0000E+00  0.0000E+00  0.0000E+00  0.0000E+00  0.0000E+00  0.0000E+00  0.0000E+00  0.0000E+00
     -8.202  0.0000E+00  0.0000E+00  0.0000E+00  0.0000E+00  0.0000E+00  0.0000E+00  0.0000E+00  0.0000E+00
     -8.174  0.0000E+00  0.0000E+00  0.0000E+00  0.0000E+00  0.0000E+00  0.0000E+00  0.0000E+00  0.0000E+00
     -8.147  0.0000E+00  0.0000E+00  0.0000E+00  0.0000E+00  0.0000E+00  0.0000E+00  0.0000E+00  0.0000E+00
     -8.120  0.0000E+00  0.0000E+00  0.0000E+00  0.0000E+00  0.0000E+00  0.0000E+00  0.0000E+00  0.0000E+00
     -8.092  0.0000E+00  0.0000E+00  0.0000E+00  0.0000E+00  0.0000E+00  0.0000E+00  0.0000E+00  0.0000E+00
     -8.065  0.0000E+00  0.0000E+00  0.0000E+00  0.0000E+00  0.0000E+00  0.0000E+00  0.0000E+00  0.0000E+00
     -8.038  0.0000E+00  0.0000E+00  0.0000E+00  0.0000E+00  0.0000E+00  0.0000E+00  0.0000E+00  0.0000E+00
     -8.010  0.0000E+00  0.0000E+00  0.0000E+00  0.0000E+00  0.0000E+00  0.0000E+00  0.0000E+00  0.0000E+00
     -7.983  0.0000E+00  0.0000E+00  0.0000E+00  0.0000E+00  0.0000E+00  0.0000E+00  0.0000E+00  0.0000E+00
     -7.956  0.0000E+00  0.0000E+00  0.0000E+00  0.0000E+00  0.0000E+00  0.0000E+00  0.0000E+00  0.0000E+00
     -7.928  0.0000E+00  0.0000E+00  0.0000E+00  0.0000E+00  0.0000E+00  0.0000E+00  0.0000E+00  0.0000E+00
     -7.901  0.5124E-06  0.0000E+00  0.2205E-06  0.0000E+00  0.1187E-05  0.0000E+00  0.5640E-08  0.0000E+00
     -7.874  0.1183E+01  0.0000E+00  0.5091E+00  0.0000E+00  0.2741E+01  0.0000E+00  0.1302E-01  0.0000E+00
     -7.846  0.2923E-02  0.0000E+00  0.1258E-02  0.0000E+00  0.6774E-02  0.0000E+00  0.3218E-04  0.0000E+00
     -7.819  0.0000E+00  0.2956E+00  0.0000E+00  0.1205E+00  0.0000E+00  0.6222E+00  0.0000E+00  0.2817E-02
     -7.792  0.0000E+00  0.1012E+01  0.0000E+00  0.4124E+00  0.0000E+00  0.2130E+01  0.0000E+00  0.9641E-02
     -7.764  0.0000E+00  0.0000E+00  0.0000E+00  0.0000E+00  0.0000E+00  0.0000E+00  0.0000E+00  0.0000E+00
     -7.737  0.0000E+00  0.0000E+00  0.0000E+00  0.0000E+00  0.0000E+00  0.0000E+00  0.0000E+00  0.0000E+00
     -7.710  0.0000E+00  0.0000E+00  0.0000E+00  0.0000E+00  0.0000E+00  0.0000E+00  0.0000E+00  0.0000E+00
     -7.682  0.0000E+00  0.0000E+00  0.0000E+00  0.0000E+00  0.0000E+00  0.0000E+00  0.0000E+00  0.0000E+00
     -7.655  0.0000E+00  0.0000E+00  0.0000E+00  0.0000E+00  0.0000E+00  0.0000E+00  0.0000E+00  0.0000E+00
     -7.628  0.0000E+00  0.0000E+00  0.0000E+00  0.0000E+00  0.0000E+00  0.0000E+00  0.0000E+00  0.0000E+00
     -7.600  0.0000E+00  0.0000E+00  0.0000E+00  0.0000E+00  0.0000E+00  0.0000E+00  0.0000E+00  0.0000E+00
     -7.573  0.0000E+00  0.0000E+00  0.0000E+00  0.0000E+00  0.0000E+00  0.0000E+00  0.0000E+00  0.0000E+00
     -7.546  0.0000E+00  0.0000E+00  0.0000E+00  0.0000E+00  0.0000E+00  0.0000E+00  0.0000E+00  0.0000E+00
     -7.518  0.0000E+00  0.0000E+00  0.0000E+00  0.0000E+00  0.0000E+00  0.0000E+00  0.0000E+00  0.0000E+00
     -7.491  0.0000E+00  0.0000E+00  0.0000E+00  0.0000E+00  0.0000E+00  0.0000E+00  0.0000E+00  0.0000E+00
     -7.464  0.0000E+00  0.0000E+00  0.0000E+00  0.0000E+00  0.0000E+00  0.0000E+00  0.0000E+00  0.0000E+00
     -7.436  0.0000E+00  0.0000E+00  0.0000E+00  0.0000E+00  0.0000E+00  0.0000E+00  0.0000E+00  0.0000E+00
     -7.409  0.0000E+00  0.0000E+00  0.0000E+00  0.0000E+00  0.0000E+00  0.0000E+00  0.0000E+00  0.0000E+00
     -7.382  0.0000E+00  0.0000E+00  0.0000E+00  0.0000E+00  0.0000E+00  0.0000E+00  0.0000E+00  0.0000E+00
     -7.354  0.0000E+00  0.0000E+00  0.0000E+00  0.0000E+00  0.0000E+00  0.0000E+00  0.0000E+00  0.0000E+00
     -7.327  0.0000E+00  0.0000E+00  0.0000E+00  0.0000E+00  0.0000E+00  0.0000E+00  0.0000E+00  0.0000E+00
     -7.300  0.0000E+00  0.0000E+00  0.0000E+00  0.0000E+00  0.0000E+00  0.0000E+00  0.0000E+00  0.0000E+00
     -7.272  0.0000E+00  0.0000E+00  0.0000E+00  0.0000E+00  0.0000E+00  0.0000E+00  0.0000E+00  0.0000E+00
     -7.245  0.0000E+00  0.0000E+00  0.0000E+00  0.0000E+00  0.0000E+00  0.0000E+00  0.0000E+00  0.0000E+00
     -7.218  0.0000E+00  0.0000E+00  0.0000E+00  0.0000E+00  0.0000E+00  0.0000E+00  0.0000E+00  0.0000E+00
     -7.190  0.0000E+00  0.0000E+00  0.0000E+00  0.0000E+00  0.0000E+00  0.0000E+00  0.0000E+00  0.0000E+00
     -7.163  0.0000E+00  0.0000E+00  0.0000E+00  0.0000E+00  0.0000E+00  0.0000E+00  0.0000E+00  0.0000E+00
     -7.136  0.0000E+00  0.0000E+00  0.0000E+00  0.0000E+00  0.0000E+00  0.0000E+00  0.0000E+00  0.0000E+00
     -7.108  0.1450E-09  0.0000E+00  0.5977E-08  0.0000E+00  0.1681E+00  0.0000E+00  0.3477E-02  0.0000E+00
     -7.081  0.5914E-09  0.0000E+00  0.2438E-07  0.0000E+00  0.6856E+00  0.0000E+00  0.1418E-01  0.0000E+00
     -7.054  0.0000E+00  0.0000E+00  0.0000E+00  0.0000E+00  0.0000E+00  0.0000E+00  0.0000E+00  0.0000E+00
     -7.026  0.0000E+00  0.0000E+00  0.0000E+00  0.0000E+00  0.0000E+00  0.0000E+00  0.0000E+00  0.0000E+00
     -6.999  0.0000E+00  0.0000E+00  0.0000E+00  0.0000E+00  0.0000E+00  0.0000E+00  0.0000E+00  0.0000E+00
     -6.972  0.0000E+00  0.0000E+00  0.0000E+00  0.0000E+00  0.0000E+00  0.0000E+00  0.0000E+00  0.0000E+00
     -6.944  0.0000E+00  0.0000E+00  0.0000E+00  0.0000E+00  0.0000E+00  0.0000E+00  0.0000E+00  0.0000E+00
     -6.917  0.0000E+00  0.0000E+00  0.0000E+00  0.0000E+00  0.0000E+00  0.0000E+00  0.0000E+00  0.0000E+00
     -6.890  0.0000E+00  0.0000E+00  0.0000E+00  0.0000E+00  0.0000E+00  0.0000E+00  0.0000E+00  0.0000E+00
     -6.862  0.0000E+00  0.0000E+00  0.0000E+00  0.0000E+00  0.0000E+00  0.0000E+00  0.0000E+00  0.0000E+00
     -6.835  0.2742E-01  0.0000E+00  0.6127E-02  0.0000E+00  0.1740E-01  0.0000E+00  0.4514E-04  0.0000E+00
     -6.808  0.1766E+01  0.0000E+00  0.3947E+00  0.0000E+00  0.1121E+01  0.0000E+00  0.2908E-02  0.0000E+00
     -6.780  0.2115E-16  0.0000E+00  0.1806E-08  0.0000E+00  0.4833E-07  0.0000E+00  0.2209E-09  0.0000E+00
     -6.753  0.4299E-08  0.0000E+00  0.2275E+00  0.0000E+00  0.6089E+01  0.0000E+00  0.2782E-01  0.0000E+00
     -6.726  0.1017E-09  0.3180E-06  0.4600E-02  0.6755E-07  0.1231E+00  0.2016E-06  0.5625E-03  0.5148E-09
     -6.698  0.0000E+00  0.1896E+01  0.0000E+00  0.4027E+00  0.0000E+00  0.1202E+01  0.0000E+00  0.3068E-02
     -6.671  0.0000E+00  0.8157E-02  0.0000E+00  0.1733E-02  0.0000E+00  0.1069E-01  0.0000E+00  0.9001E-04
     -6.643  0.1166E-10  0.3141E-10  0.4912E-05  0.1180E-06  0.1426E-03  0.1355E+01  0.3429E-06  0.1886E-01
     -6.616  0.1017E-05  0.0000E+00  0.4097E+00  0.0000E+00  0.1189E+02  0.0000E+00  0.2861E-01  0.0000E+00
     -6.589  0.2392E-09  0.0000E+00  0.9288E-04  0.0000E+00  0.2696E-02  0.0000E+00  0.6485E-05  0.0000E+00
     -6.561  0.0000E+00  0.0000E+00  0.0000E+00  0.0000E+00  0.0000E+00  0.0000E+00  0.0000E+00  0.0000E+00
     -6.534  0.0000E+00  0.3535E-11  0.0000E+00  0.1254E-05  0.0000E+00  0.3848E-04  0.0000E+00  0.8465E-07
     -6.507  0.3771E-13  0.1210E-05  0.2315E-14  0.4114E+00  0.7363E-15  0.1262E+02  0.5205E-17  0.2777E-01
     -6.479  0.3711E-01  0.8580E-09  0.2278E-02  0.3804E-03  0.7245E-03  0.1165E-01  0.5122E-05  0.2759E-04
     -6.452  0.1270E-01  0.1058E-06  0.7797E-03  0.3290E+00  0.2480E-03  0.1003E+02  0.1753E-05  0.2818E-01
     -6.425  0.2562E-23  0.0000E+00  0.1134E-22  0.0000E+00  0.1210E-14  0.0000E+00  0.5981E-17  0.0000E+00
     -6.397  0.2832E-08  0.0000E+00  0.1254E-07  0.0000E+00  0.1337E+01  0.0000E+00  0.6611E-02  0.0000E+00
     -6.370  0.4861E-08  0.0000E+00  0.2152E-07  0.0000E+00  0.2295E+01  0.0000E+00  0.1135E-01  0.0000E+00
     -6.343  0.0000E+00  0.0000E+00  0.0000E+00  0.0000E+00  0.0000E+00  0.0000E+00  0.0000E+00  0.0000E+00
     -6.315  0.0000E+00  0.0000E+00  0.0000E+00  0.0000E+00  0.0000E+00  0.0000E+00  0.0000E+00  0.0000E+00
     -6.288  0.0000E+00  0.6918E-09  0.0000E+00  0.2687E-08  0.0000E+00  0.3253E+00  0.0000E+00  0.1445E-02
     -6.261  0.0000E+00  0.5021E+00  0.0000E+00  0.2305E-01  0.0000E+00  0.3810E+01  0.0000E+00  0.1799E-01
     -6.233  0.0000E+00  0.2296E+00  0.0000E+00  0.1054E-01  0.0000E+00  0.6192E-01  0.0000E+00  0.7585E-03
     -6.206  0.0000E+00  0.0000E+00  0.0000E+00  0.0000E+00  0.0000E+00  0.0000E+00  0.0000E+00  0.0000E+00
     -6.179  0.2519E-10  0.0000E+00  0.1144E-11  0.0000E+00  0.1281E-10  0.0000E+00  0.1268E-12  0.0000E+00
     -6.151  0.2125E+01  0.0000E+00  0.9647E-01  0.0000E+00  0.1081E+01  0.0000E+00  0.1070E-01  0.0000E+00
     -6.124  0.3818E+00  0.0000E+00  0.1733E-01  0.0000E+00  0.1941E+00  0.0000E+00  0.1922E-02  0.0000E+00
     -6.097  0.0000E+00  0.0000E+00  0.0000E+00  0.0000E+00  0.0000E+00  0.0000E+00  0.0000E+00  0.0000E+00
     -6.069  0.0000E+00  0.0000E+00  0.0000E+00  0.0000E+00  0.0000E+00  0.0000E+00  0.0000E+00  0.0000E+00
     -6.042  0.0000E+00  0.0000E+00  0.0000E+00  0.0000E+00  0.0000E+00  0.0000E+00  0.0000E+00  0.0000E+00
     -6.015  0.6283E-07  0.0000E+00  0.8801E-08  0.0000E+00  0.2103E+00  0.0000E+00  0.3179E-03  0.0000E+00
     -5.987  0.2735E-05  0.2762E-07  0.3831E-06  0.1045E-08  0.9151E+01  0.2257E-07  0.1384E-01  0.1703E-09
     -5.960  0.2311E-15  0.1732E+01  0.9330E-10  0.6556E-01  0.3161E-08  0.1416E+01  0.4554E-11  0.1068E-01
     -5.933  0.4304E-06  0.2450E-01  0.2512E+00  0.9275E-03  0.8510E+01  0.2003E-01  0.1226E-01  0.1511E-03
     -5.905  0.2368E-07  0.0000E+00  0.1652E-01  0.0000E+00  0.5597E+00  0.0000E+00  0.8065E-03  0.0000E+00
     -5.878  0.0000E+00  0.0000E+00  0.0000E+00  0.0000E+00  0.0000E+00  0.0000E+00  0.0000E+00  0.0000E+00
     -5.851  0.0000E+00  0.0000E+00  0.0000E+00  0.0000E+00  0.0000E+00  0.0000E+00  0.0000E+00  0.0000E+00
     -5.823  0.0000E+00  0.0000E+00  0.0000E+00  0.0000E+00  0.0000E+00  0.0000E+00  0.0000E+00  0.0000E+00
     -5.796  0.0000E+00  0.0000E+00  0.0000E+00  0.0000E+00  0.0000E+00  0.0000E+00  0.0000E+00  0.0000E+00
     -5.769  0.0000E+00  0.0000E+00  0.0000E+00  0.0000E+00  0.0000E+00  0.0000E+00  0.0000E+00  0.0000E+00
     -5.741  0.0000E+00  0.0000E+00  0.0000E+00  0.0000E+00  0.0000E+00  0.0000E+00  0.0000E+00  0.0000E+00
     -5.714  0.0000E+00  0.8297E-08  0.0000E+00  0.2595E-08  0.0000E+00  0.9293E-01  0.0000E+00  0.1448E-03
     -5.687  0.0000E+00  0.8389E-06  0.0000E+00  0.2624E-06  0.0000E+00  0.9396E+01  0.0000E+00  0.1464E-01
     -5.659  0.0000E+00  0.2035E-09  0.0000E+00  0.1366E-03  0.0000E+00  0.6264E-02  0.0000E+00  0.1170E-04
     -5.632  0.0000E+00  0.1813E-06  0.0000E+00  0.1612E+00  0.0000E+00  0.7392E+01  0.0000E+00  0.1381E-01
     -5.605  0.0000E+00  0.0000E+00  0.0000E+00  0.0000E+00  0.0000E+00  0.0000E+00  0.0000E+00  0.0000E+00
     -5.577  0.0000E+00  0.0000E+00  0.0000E+00  0.0000E+00  0.0000E+00  0.0000E+00  0.0000E+00  0.0000E+00
     -5.550  0.0000E+00  0.0000E+00  0.0000E+00  0.0000E+00  0.0000E+00  0.0000E+00  0.0000E+00  0.0000E+00
     -5.523  0.3883E-08  0.0000E+00  0.9882E-10  0.0000E+00  0.2932E+01  0.0000E+00  0.3463E-02  0.0000E+00
     -5.495  0.1144E-07  0.0000E+00  0.2912E-09  0.0000E+00  0.8641E+01  0.0000E+00  0.1020E-01  0.0000E+00
     -5.468  0.0000E+00  0.0000E+00  0.0000E+00  0.0000E+00  0.0000E+00  0.0000E+00  0.0000E+00  0.0000E+00
     -5.441  0.0000E+00  0.0000E+00  0.0000E+00  0.0000E+00  0.0000E+00  0.0000E+00  0.0000E+00  0.0000E+00
     -5.413  0.0000E+00  0.0000E+00  0.0000E+00  0.0000E+00  0.0000E+00  0.0000E+00  0.0000E+00  0.0000E+00
     -5.386  0.0000E+00  0.0000E+00  0.0000E+00  0.0000E+00  0.0000E+00  0.0000E+00  0.0000E+00  0.0000E+00
     -5.359  0.2292E-11  0.0000E+00  0.1427E-04  0.0000E+00  0.5895E-04  0.0000E+00  0.1650E-05  0.0000E+00
     -5.331  0.2761E-07  0.0000E+00  0.1749E+00  0.0000E+00  0.7228E+00  0.0000E+00  0.2023E-01  0.0000E+00
     -5.304  0.0000E+00  0.0000E+00  0.0000E+00  0.0000E+00  0.0000E+00  0.0000E+00  0.0000E+00  0.0000E+00
     -5.277  0.0000E+00  0.4312E-16  0.0000E+00  0.2675E-18  0.0000E+00  0.1198E-07  0.0000E+00  0.1827E-10
     -5.249  0.0000E+00  0.3715E-07  0.0000E+00  0.2305E-09  0.0000E+00  0.1032E+02  0.0000E+00  0.1574E-01
     -5.222  0.0000E+00  0.1544E-08  0.0000E+00  0.9580E-11  0.0000E+00  0.4289E+00  0.0000E+00  0.6543E-03
     -5.195  0.0000E+00  0.4408E-11  0.0000E+00  0.3740E-04  0.0000E+00  0.1690E-03  0.0000E+00  0.4600E-05
     -5.167  0.0000E+00  0.2151E-07  0.0000E+00  0.1824E+00  0.0000E+00  0.8240E+00  0.0000E+00  0.2243E-01
     -5.140  0.0000E+00  0.0000E+00  0.0000E+00  0.0000E+00  0.0000E+00  0.0000E+00  0.0000E+00  0.0000E+00
     -5.113  0.0000E+00  0.0000E+00  0.0000E+00  0.0000E+00  0.0000E+00  0.0000E+00  0.0000E+00  0.0000E+00
     -5.085  0.0000E+00  0.0000E+00  0.0000E+00  0.0000E+00  0.0000E+00  0.0000E+00  0.0000E+00  0.0000E+00
     -5.058  0.0000E+00  0.0000E+00  0.0000E+00  0.0000E+00  0.0000E+00  0.0000E+00  0.0000E+00  0.0000E+00
     -5.031  0.9059E-15  0.0000E+00  0.6345E-09  0.0000E+00  0.4708E-07  0.0000E+00  0.3342E-09  0.0000E+00
     -5.003  0.4258E-07  0.0000E+00  0.3687E-01  0.0000E+00  0.2736E+01  0.0000E+00  0.1942E-01  0.0000E+00
     -4.976  0.5283E-09  0.0000E+00  0.5141E-03  0.0000E+00  0.3815E-01  0.0000E+00  0.2708E-03  0.0000E+00
     -4.949  0.0000E+00  0.0000E+00  0.0000E+00  0.0000E+00  0.0000E+00  0.0000E+00  0.0000E+00  0.0000E+00
     -4.921  0.0000E+00  0.0000E+00  0.0000E+00  0.0000E+00  0.0000E+00  0.0000E+00  0.0000E+00  0.0000E+00
     -4.894  0.2368E-02  0.0000E+00  0.1355E-03  0.0000E+00  0.5649E-01  0.0000E+00  0.4053E-06  0.0000E+00
     -4.867  0.6233E+00  0.1419E-10  0.3566E-01  0.3086E-05  0.1487E+02  0.1920E-03  0.1067E-03  0.1184E-05
     -4.839  0.2837E-09  0.1999E-06  0.3932E-09  0.5097E-01  0.5974E+01  0.3171E+01  0.2211E-03  0.1955E-01
     -4.812  0.4518E-09  0.4126E-02  0.6262E-09  0.2413E-03  0.9514E+01  0.9399E-01  0.3520E-03  0.6985E-06
     -4.785  0.0000E+00  0.6455E+00  0.0000E+00  0.3775E-01  0.0000E+00  0.1470E+02  0.0000E+00  0.1093E-03
     -4.757  0.0000E+00  0.2980E-09  0.0000E+00  0.3576E-09  0.0000E+00  0.6089E+01  0.0000E+00  0.5075E-03
     -4.730  0.0000E+00  0.4349E-09  0.0000E+00  0.5219E-09  0.0000E+00  0.8888E+01  0.0000E+00  0.7407E-03
     -4.703  0.0000E+00  0.0000E+00  0.0000E+00  0.0000E+00  0.0000E+00  0.0000E+00  0.0000E+00  0.0000E+00
     -4.675  0.0000E+00  0.0000E+00  0.0000E+00  0.0000E+00  0.0000E+00  0.0000E+00  0.0000E+00  0.0000E+00
     -4.648  0.0000E+00  0.0000E+00  0.0000E+00  0.0000E+00  0.0000E+00  0.0000E+00  0.0000E+00  0.0000E+00
     -4.621  0.0000E+00  0.0000E+00  0.0000E+00  0.0000E+00  0.0000E+00  0.0000E+00  0.0000E+00  0.0000E+00
     -4.593  0.0000E+00  0.0000E+00  0.0000E+00  0.0000E+00  0.0000E+00  0.0000E+00  0.0000E+00  0.0000E+00
     -4.566  0.0000E+00  0.0000E+00  0.0000E+00  0.0000E+00  0.0000E+00  0.0000E+00  0.0000E+00  0.0000E+00
     -4.539  0.0000E+00  0.0000E+00  0.0000E+00  0.0000E+00  0.0000E+00  0.0000E+00  0.0000E+00  0.0000E+00
     -4.511  0.9547E-20  0.0000E+00  0.1750E-18  0.0000E+00  0.1304E-13  0.0000E+00  0.2838E-17  0.0000E+00
     -4.484  0.1347E-10  0.0000E+00  0.2468E-09  0.0000E+00  0.1840E-04  0.0000E+00  0.4004E-08  0.0000E+00
     -4.457  0.3707E-07  0.0000E+00  0.9970E-07  0.0000E+00  0.1710E+00  0.0000E+00  0.4786E-03  0.0000E+00
     -4.429  0.1474E-07  0.0000E+00  0.3964E-07  0.0000E+00  0.6799E-01  0.0000E+00  0.1903E-03  0.0000E+00
     -4.402  0.1520E-06  0.0000E+00  0.2309E-07  0.0000E+00  0.3170E+01  0.0000E+00  0.1524E-01  0.0000E+00
     -4.375  0.8982E-07  0.0000E+00  0.1629E-06  0.0000E+00  0.1876E+01  0.0000E+00  0.9006E-02  0.0000E+00
     -4.347  0.5891E-02  0.0000E+00  0.2073E+00  0.0000E+00  0.3803E+02  0.0000E+00  0.2084E-01  0.0000E+00
     -4.320  0.7328E-03  0.6616E-16  0.5100E-02  0.6609E-12  0.1411E+01  0.5264E-06  0.1128E-02  0.3178E-09
     -4.293  0.1044E-12  0.7871E-13  0.8801E-10  0.6778E-09  0.6445E-08  0.1260E+00  0.2398E-11  0.8881E-04
     -4.265  0.0000E+00  0.3785E-06  0.0000E+00  0.8764E-06  0.0000E+00  0.1314E+02  0.0000E+00  0.9996E-02
     -4.238  0.0000E+00  0.8724E-07  0.0000E+00  0.2673E-06  0.0000E+00  0.4095E-02  0.0000E+00  0.1727E-04
     -4.211  0.0000E+00  0.1746E-01  0.0000E+00  0.5475E-01  0.0000E+00  0.1217E+02  0.0000E+00  0.1146E-01
     -4.183  0.0000E+00  0.8593E-05  0.0000E+00  0.2694E-04  0.0000E+00  0.7963E-02  0.0000E+00  0.1326E-04
     -4.156  0.0000E+00  0.1494E-06  0.0000E+00  0.2554E-07  0.0000E+00  0.5759E+01  0.0000E+00  0.2220E-01
     -4.129  0.0000E+00  0.0000E+00  0.0000E+00  0.0000E+00  0.0000E+00  0.0000E+00  0.0000E+00  0.0000E+00
     -4.101  0.0000E+00  0.0000E+00  0.0000E+00  0.0000E+00  0.0000E+00  0.0000E+00  0.0000E+00  0.0000E+00
     -4.074  0.0000E+00  0.0000E+00  0.0000E+00  0.0000E+00  0.0000E+00  0.0000E+00  0.0000E+00  0.0000E+00
     -4.047  0.0000E+00  0.1483E-11  0.0000E+00  0.3145E-03  0.0000E+00  0.1021E-01  0.0000E+00  0.5120E-05
     -4.019  0.0000E+00  0.2006E-08  0.0000E+00  0.3772E+00  0.0000E+00  0.1224E+02  0.0000E+00  0.6142E-02
     -3.992  0.9515E-25  0.0000E+00  0.1707E-15  0.0000E+00  0.1563E-13  0.0000E+00  0.2932E-16  0.0000E+00
     -3.965  0.7234E-10  0.0000E+00  0.8564E-01  0.0000E+00  0.7845E+01  0.0000E+00  0.1471E-01  0.0000E+00
     -3.937  0.1156E-09  0.0000E+00  0.1264E+00  0.0000E+00  0.1158E+02  0.0000E+00  0.2172E-01  0.0000E+00
     -3.910  0.5589E-13  0.0000E+00  0.3652E-14  0.0000E+00  0.1301E-04  0.0000E+00  0.3736E-07  0.0000E+00
     -3.883  0.3014E-07  0.0000E+00  0.1969E-08  0.0000E+00  0.7014E+01  0.0000E+00  0.2014E-01  0.0000E+00
     -3.855  0.2873E-10  0.6685E-11  0.1877E-11  0.4613E-02  0.6687E-02  0.3652E+00  0.1920E-04  0.8024E-03
     -3.828  0.0000E+00  0.3737E-09  0.0000E+00  0.2261E+00  0.0000E+00  0.1790E+02  0.0000E+00  0.3933E-01
     -3.801  0.0000E+00  0.0000E+00  0.0000E+00  0.0000E+00  0.0000E+00  0.0000E+00  0.0000E+00  0.0000E+00
     -3.773  0.0000E+00  0.0000E+00  0.0000E+00  0.0000E+00  0.0000E+00  0.0000E+00  0.0000E+00  0.0000E+00
     -3.746  0.0000E+00  0.1893E-12  0.0000E+00  0.5367E-10  0.0000E+00  0.1447E-08  0.0000E+00  0.1028E-10
     -3.718  0.0000E+00  0.9795E-11  0.0000E+00  0.2777E-08  0.0000E+00  0.7487E-07  0.0000E+00  0.5317E-09
     -3.691  0.0000E+00  0.0000E+00  0.0000E+00  0.0000E+00  0.0000E+00  0.0000E+00  0.0000E+00  0.0000E+00
     -3.664  0.0000E+00  0.0000E+00  0.0000E+00  0.0000E+00  0.0000E+00  0.0000E+00  0.0000E+00  0.0000E+00
     -3.636  0.0000E+00  0.0000E+00  0.0000E+00  0.0000E+00  0.0000E+00  0.0000E+00  0.0000E+00  0.0000E+00
     -3.609  0.0000E+00  0.0000E+00  0.0000E+00  0.0000E+00  0.0000E+00  0.0000E+00  0.0000E+00  0.0000E+00
     -3.582  0.0000E+00  0.0000E+00  0.0000E+00  0.0000E+00  0.0000E+00  0.0000E+00  0.0000E+00  0.0000E+00
     -3.554  0.0000E+00  0.0000E+00  0.0000E+00  0.0000E+00  0.0000E+00  0.0000E+00  0.0000E+00  0.0000E+00
     -3.527  0.0000E+00  0.0000E+00  0.0000E+00  0.0000E+00  0.0000E+00  0.0000E+00  0.0000E+00  0.0000E+00
     -3.500  0.0000E+00  0.9704E-12  0.0000E+00  0.9858E-13  0.0000E+00  0.2217E-03  0.0000E+00  0.7041E-06
     -3.472  0.0000E+00  0.3000E-07  0.0000E+00  0.3048E-08  0.0000E+00  0.6855E+01  0.0000E+00  0.2177E-01
     -3.445  0.0000E+00  0.0000E+00  0.0000E+00  0.0000E+00  0.0000E+00  0.0000E+00  0.0000E+00  0.0000E+00
     -3.418  0.0000E+00  0.0000E+00  0.0000E+00  0.0000E+00  0.0000E+00  0.0000E+00  0.0000E+00  0.0000E+00
     -3.390  0.0000E+00  0.0000E+00  0.0000E+00  0.0000E+00  0.0000E+00  0.0000E+00  0.0000E+00  0.0000E+00
     -3.363  0.0000E+00  0.0000E+00  0.0000E+00  0.0000E+00  0.0000E+00  0.0000E+00  0.0000E+00  0.0000E+00
     -3.336  0.0000E+00  0.0000E+00  0.0000E+00  0.0000E+00  0.0000E+00  0.0000E+00  0.0000E+00  0.0000E+00
     -3.308  0.0000E+00  0.0000E+00  0.0000E+00  0.0000E+00  0.0000E+00  0.0000E+00  0.0000E+00  0.0000E+00
     -3.281  0.0000E+00  0.0000E+00  0.0000E+00  0.0000E+00  0.0000E+00  0.0000E+00  0.0000E+00  0.0000E+00
     -3.254  0.0000E+00  0.0000E+00  0.0000E+00  0.0000E+00  0.0000E+00  0.0000E+00  0.0000E+00  0.0000E+00
     -3.226  0.0000E+00  0.0000E+00  0.0000E+00  0.0000E+00  0.0000E+00  0.0000E+00  0.0000E+00  0.0000E+00
     -3.199  0.0000E+00  0.0000E+00  0.0000E+00  0.0000E+00  0.0000E+00  0.0000E+00  0.0000E+00  0.0000E+00
     -3.172  0.0000E+00  0.0000E+00  0.0000E+00  0.0000E+00  0.0000E+00  0.0000E+00  0.0000E+00  0.0000E+00
     -3.144  0.0000E+00  0.0000E+00  0.0000E+00  0.0000E+00  0.0000E+00  0.0000E+00  0.0000E+00  0.0000E+00
     -3.117  0.3047E-14  0.0000E+00  0.1056E-07  0.0000E+00  0.3162E-07  0.0000E+00  0.4563E-10  0.0000E+00
     -3.090  0.4442E-06  0.0000E+00  0.1223E+01  0.0000E+00  0.3661E+01  0.0000E+00  0.5283E-02  0.0000E+00
     -3.062  0.1590E+01  0.1280E-10  0.1289E+00  0.9897E-12  0.4466E+00  0.3265E-11  0.4201E-03  0.2634E-14
     -3.035  0.2333E+01  0.3029E+01  0.1552E+00  0.2342E+00  0.5535E+00  0.7725E+00  0.4696E-03  0.6232E-03
     -3.008  0.0000E+00  0.7196E+00  0.0000E+00  0.5563E-01  0.0000E+00  0.1835E+00  0.0000E+00  0.1480E-03
     -2.980  0.0000E+00  0.1675E-08  0.0000E+00  0.3938E-01  0.0000E+00  0.9456E-01  0.0000E+00  0.1461E-03
     -2.953  0.0000E+00  0.4979E-07  0.0000E+00  0.1076E+01  0.0000E+00  0.2585E+01  0.0000E+00  0.3994E-02
     -2.926  0.0000E+00  0.0000E+00  0.0000E+00  0.0000E+00  0.0000E+00  0.0000E+00  0.0000E+00  0.0000E+00
     -2.898  0.0000E+00  0.0000E+00  0.0000E+00  0.0000E+00  0.0000E+00  0.0000E+00  0.0000E+00  0.0000E+00
     -2.871  0.0000E+00  0.0000E+00  0.0000E+00  0.0000E+00  0.0000E+00  0.0000E+00  0.0000E+00  0.0000E+00
     -2.844  0.0000E+00  0.0000E+00  0.0000E+00  0.0000E+00  0.0000E+00  0.0000E+00  0.0000E+00  0.0000E+00
     -2.816  0.0000E+00  0.0000E+00  0.0000E+00  0.0000E+00  0.0000E+00  0.0000E+00  0.0000E+00  0.0000E+00
     -2.789  0.0000E+00  0.0000E+00  0.0000E+00  0.0000E+00  0.0000E+00  0.0000E+00  0.0000E+00  0.0000E+00
     -2.762  0.0000E+00  0.0000E+00  0.0000E+00  0.0000E+00  0.0000E+00  0.0000E+00  0.0000E+00  0.0000E+00
     -2.734  0.0000E+00  0.0000E+00  0.0000E+00  0.0000E+00  0.0000E+00  0.0000E+00  0.0000E+00  0.0000E+00
     -2.707  0.0000E+00  0.0000E+00  0.0000E+00  0.0000E+00  0.0000E+00  0.0000E+00  0.0000E+00  0.0000E+00
     -2.680  0.0000E+00  0.0000E+00  0.0000E+00  0.0000E+00  0.0000E+00  0.0000E+00  0.0000E+00  0.0000E+00
     -2.652  0.0000E+00  0.0000E+00  0.0000E+00  0.0000E+00  0.0000E+00  0.0000E+00  0.0000E+00  0.0000E+00
     -2.625  0.0000E+00  0.0000E+00  0.0000E+00  0.0000E+00  0.0000E+00  0.0000E+00  0.0000E+00  0.0000E+00
     -2.598  0.0000E+00  0.0000E+00  0.0000E+00  0.0000E+00  0.0000E+00  0.0000E+00  0.0000E+00  0.0000E+00
     -2.570  0.0000E+00  0.0000E+00  0.0000E+00  0.0000E+00  0.0000E+00  0.0000E+00  0.0000E+00  0.0000E+00
     -2.543  0.0000E+00  0.0000E+00  0.0000E+00  0.0000E+00  0.0000E+00  0.0000E+00  0.0000E+00  0.0000E+00
     -2.516  0.0000E+00  0.0000E+00  0.0000E+00  0.0000E+00  0.0000E+00  0.0000E+00  0.0000E+00  0.0000E+00
     -2.488  0.0000E+00  0.0000E+00  0.0000E+00  0.0000E+00  0.0000E+00  0.0000E+00  0.0000E+00  0.0000E+00
     -2.461  0.0000E+00  0.0000E+00  0.0000E+00  0.0000E+00  0.0000E+00  0.0000E+00  0.0000E+00  0.0000E+00
     -2.434  0.0000E+00  0.0000E+00  0.0000E+00  0.0000E+00  0.0000E+00  0.0000E+00  0.0000E+00  0.0000E+00
     -2.406  0.0000E+00  0.0000E+00  0.0000E+00  0.0000E+00  0.0000E+00  0.0000E+00  0.0000E+00  0.0000E+00
     -2.379  0.0000E+00  0.0000E+00  0.0000E+00  0.0000E+00  0.0000E+00  0.0000E+00  0.0000E+00  0.0000E+00
     -2.352  0.0000E+00  0.0000E+00  0.0000E+00  0.0000E+00  0.0000E+00  0.0000E+00  0.0000E+00  0.0000E+00
     -2.324  0.0000E+00  0.0000E+00  0.0000E+00  0.0000E+00  0.0000E+00  0.0000E+00  0.0000E+00  0.0000E+00
     -2.297  0.0000E+00  0.0000E+00  0.0000E+00  0.0000E+00  0.0000E+00  0.0000E+00  0.0000E+00  0.0000E+00
     -2.270  0.0000E+00  0.0000E+00  0.0000E+00  0.0000E+00  0.0000E+00  0.0000E+00  0.0000E+00  0.0000E+00
     -2.242  0.0000E+00  0.0000E+00  0.0000E+00  0.0000E+00  0.0000E+00  0.0000E+00  0.0000E+00  0.0000E+00
     -2.215  0.0000E+00  0.0000E+00  0.0000E+00  0.0000E+00  0.0000E+00  0.0000E+00  0.0000E+00  0.0000E+00
     -2.188  0.0000E+00  0.0000E+00  0.0000E+00  0.0000E+00  0.0000E+00  0.0000E+00  0.0000E+00  0.0000E+00
     -2.160  0.0000E+00  0.0000E+00  0.0000E+00  0.0000E+00  0.0000E+00  0.0000E+00  0.0000E+00  0.0000E+00
     -2.133  0.0000E+00  0.0000E+00  0.0000E+00  0.0000E+00  0.0000E+00  0.0000E+00  0.0000E+00  0.0000E+00
     -2.106  0.0000E+00  0.0000E+00  0.0000E+00  0.0000E+00  0.0000E+00  0.0000E+00  0.0000E+00  0.0000E+00
     -2.078  0.0000E+00  0.0000E+00  0.0000E+00  0.0000E+00  0.0000E+00  0.0000E+00  0.0000E+00  0.0000E+00
     -2.051  0.0000E+00  0.0000E+00  0.0000E+00  0.0000E+00  0.0000E+00  0.0000E+00  0.0000E+00  0.0000E+00
     -2.024  0.0000E+00  0.0000E+00  0.0000E+00  0.0000E+00  0.0000E+00  0.0000E+00  0.0000E+00  0.0000E+00
     -1.996  0.0000E+00  0.0000E+00  0.0000E+00  0.0000E+00  0.0000E+00  0.0000E+00  0.0000E+00  0.0000E+00
     -1.969  0.0000E+00  0.0000E+00  0.0000E+00  0.0000E+00  0.0000E+00  0.0000E+00  0.0000E+00  0.0000E+00
     -1.942  0.0000E+00  0.0000E+00  0.0000E+00  0.0000E+00  0.0000E+00  0.0000E+00  0.0000E+00  0.0000E+00
     -1.914  0.0000E+00  0.0000E+00  0.0000E+00  0.0000E+00  0.0000E+00  0.0000E+00  0.0000E+00  0.0000E+00
     -1.887  0.0000E+00  0.0000E+00  0.0000E+00  0.0000E+00  0.0000E+00  0.0000E+00  0.0000E+00  0.0000E+00
     -1.860  0.0000E+00  0.0000E+00  0.0000E+00  0.0000E+00  0.0000E+00  0.0000E+00  0.0000E+00  0.0000E+00
     -1.832  0.0000E+00  0.0000E+00  0.0000E+00  0.0000E+00  0.0000E+00  0.0000E+00  0.0000E+00  0.0000E+00
     -1.805  0.0000E+00  0.0000E+00  0.0000E+00  0.0000E+00  0.0000E+00  0.0000E+00  0.0000E+00  0.0000E+00
     -1.778  0.0000E+00  0.0000E+00  0.0000E+00  0.0000E+00  0.0000E+00  0.0000E+00  0.0000E+00  0.0000E+00
     -1.750  0.0000E+00  0.0000E+00  0.0000E+00  0.0000E+00  0.0000E+00  0.0000E+00  0.0000E+00  0.0000E+00
     -1.723  0.0000E+00  0.0000E+00  0.0000E+00  0.0000E+00  0.0000E+00  0.0000E+00  0.0000E+00  0.0000E+00
     -1.696  0.0000E+00  0.0000E+00  0.0000E+00  0.0000E+00  0.0000E+00  0.0000E+00  0.0000E+00  0.0000E+00
     -1.668  0.0000E+00  0.0000E+00  0.0000E+00  0.0000E+00  0.0000E+00  0.0000E+00  0.0000E+00  0.0000E+00
     -1.641  0.0000E+00  0.0000E+00  0.0000E+00  0.0000E+00  0.0000E+00  0.0000E+00  0.0000E+00  0.0000E+00
     -1.614  0.0000E+00  0.0000E+00  0.0000E+00  0.0000E+00  0.0000E+00  0.0000E+00  0.0000E+00  0.0000E+00
     -1.586  0.0000E+00  0.0000E+00  0.0000E+00  0.0000E+00  0.0000E+00  0.0000E+00  0.0000E+00  0.0000E+00
     -1.559  0.0000E+00  0.0000E+00  0.0000E+00  0.0000E+00  0.0000E+00  0.0000E+00  0.0000E+00  0.0000E+00
     -1.532  0.0000E+00  0.0000E+00  0.0000E+00  0.0000E+00  0.0000E+00  0.0000E+00  0.0000E+00  0.0000E+00
     -1.504  0.0000E+00  0.0000E+00  0.0000E+00  0.0000E+00  0.0000E+00  0.0000E+00  0.0000E+00  0.0000E+00
     -1.477  0.0000E+00  0.0000E+00  0.0000E+00  0.0000E+00  0.0000E+00  0.0000E+00  0.0000E+00  0.0000E+00
     -1.450  0.0000E+00  0.0000E+00  0.0000E+00  0.0000E+00  0.0000E+00  0.0000E+00  0.0000E+00  0.0000E+00
     -1.422  0.0000E+00  0.0000E+00  0.0000E+00  0.0000E+00  0.0000E+00  0.0000E+00  0.0000E+00  0.0000E+00
     -1.395  0.0000E+00  0.0000E+00  0.0000E+00  0.0000E+00  0.0000E+00  0.0000E+00  0.0000E+00  0.0000E+00
     -1.368  0.0000E+00  0.0000E+00  0.0000E+00  0.0000E+00  0.0000E+00  0.0000E+00  0.0000E+00  0.0000E+00
     -1.340  0.0000E+00  0.0000E+00  0.0000E+00  0.0000E+00  0.0000E+00  0.0000E+00  0.0000E+00  0.0000E+00
     -1.313  0.0000E+00  0.0000E+00  0.0000E+00  0.0000E+00  0.0000E+00  0.0000E+00  0.0000E+00  0.0000E+00
     -1.286  0.0000E+00  0.0000E+00  0.0000E+00  0.0000E+00  0.0000E+00  0.0000E+00  0.0000E+00  0.0000E+00
     -1.258  0.0000E+00  0.0000E+00  0.0000E+00  0.0000E+00  0.0000E+00  0.0000E+00  0.0000E+00  0.0000E+00
     -1.231  0.0000E+00  0.0000E+00  0.0000E+00  0.0000E+00  0.0000E+00  0.0000E+00  0.0000E+00  0.0000E+00
     -1.204  0.2704E-05  0.0000E+00  0.9645E-06  0.0000E+00  0.1623E-06  0.0000E+00  0.4849E-08  0.0000E+00
     -1.176  0.2636E+01  0.3224E-14  0.9402E+00  0.1747E-14  0.1582E+00  0.1748E-15  0.4726E-02  0.5716E-17
     -1.149  0.3802E-02  0.1008E+01  0.1363E-02  0.5461E+00  0.4255E+00  0.5467E-01  0.3149E-02  0.1787E-02
     -1.122  0.1696E-04  0.1315E+01  0.9115E-05  0.7124E+00  0.1843E+00  0.7132E-01  0.1362E-02  0.2332E-02
     -1.094  0.0000E+00  0.0000E+00  0.0000E+00  0.0000E+00  0.0000E+00  0.0000E+00  0.0000E+00  0.0000E+00
     -1.067  0.0000E+00  0.0000E+00  0.0000E+00  0.0000E+00  0.0000E+00  0.0000E+00  0.0000E+00  0.0000E+00
     -1.040  0.0000E+00  0.1393E-16  0.0000E+00  0.1584E-15  0.0000E+00  0.1573E-10  0.0000E+00  0.8902E-13
     -1.012  0.0000E+00  0.4877E-06  0.0000E+00  0.5546E-05  0.0000E+00  0.5506E+00  0.0000E+00  0.3117E-02
     -0.985  0.0000E+00  0.6825E-07  0.0000E+00  0.7761E-06  0.0000E+00  0.7705E-01  0.0000E+00  0.4362E-03
     -0.958  0.0000E+00  0.0000E+00  0.0000E+00  0.0000E+00  0.0000E+00  0.0000E+00  0.0000E+00  0.0000E+00
     -0.930  0.2101E-10  0.0000E+00  0.2298E-09  0.0000E+00  0.5624E-10  0.0000E+00  0.2755E-12  0.0000E+00
     -0.903  0.9071E-01  0.3705E-15  0.9926E+00  0.8937E-15  0.2429E+00  0.3802E-15  0.1190E-02  0.2361E-17
     -0.876  0.6634E-02  0.1291E+00  0.7259E-01  0.3115E+00  0.1776E-01  0.1325E+00  0.8701E-04  0.8228E-03
     -0.848  0.0000E+00  0.1743E+00  0.0000E+00  0.4203E+00  0.0000E+00  0.1788E+00  0.0000E+00  0.1110E-02
     -0.821  0.0000E+00  0.0000E+00  0.0000E+00  0.0000E+00  0.0000E+00  0.0000E+00  0.0000E+00  0.0000E+00
     -0.793  0.0000E+00  0.0000E+00  0.0000E+00  0.0000E+00  0.0000E+00  0.0000E+00  0.0000E+00  0.0000E+00
     -0.766  0.0000E+00  0.0000E+00  0.0000E+00  0.0000E+00  0.0000E+00  0.0000E+00  0.0000E+00  0.0000E+00
     -0.739  0.0000E+00  0.0000E+00  0.0000E+00  0.0000E+00  0.0000E+00  0.0000E+00  0.0000E+00  0.0000E+00
     -0.711  0.0000E+00  0.0000E+00  0.0000E+00  0.0000E+00  0.0000E+00  0.0000E+00  0.0000E+00  0.0000E+00
     -0.684  0.0000E+00  0.0000E+00  0.0000E+00  0.0000E+00  0.0000E+00  0.0000E+00  0.0000E+00  0.0000E+00
     -0.657  0.0000E+00  0.0000E+00  0.0000E+00  0.0000E+00  0.0000E+00  0.0000E+00  0.0000E+00  0.0000E+00
     -0.629  0.0000E+00  0.0000E+00  0.0000E+00  0.0000E+00  0.0000E+00  0.0000E+00  0.0000E+00  0.0000E+00
     -0.602  0.0000E+00  0.0000E+00  0.0000E+00  0.0000E+00  0.0000E+00  0.0000E+00  0.0000E+00  0.0000E+00
     -0.575  0.0000E+00  0.0000E+00  0.0000E+00  0.0000E+00  0.0000E+00  0.0000E+00  0.0000E+00  0.0000E+00
     -0.547  0.6546E-13  0.0000E+00  0.1944E-13  0.0000E+00  0.2716E-04  0.0000E+00  0.5094E-06  0.0000E+00
     -0.520  0.1866E-08  0.0000E+00  0.5541E-09  0.0000E+00  0.7743E+00  0.0000E+00  0.1452E-01  0.0000E+00
     -0.493  0.0000E+00  0.0000E+00  0.0000E+00  0.0000E+00  0.0000E+00  0.0000E+00  0.0000E+00  0.0000E+00
     -0.465  0.0000E+00  0.6045E-10  0.0000E+00  0.2458E-09  0.0000E+00  0.2317E-01  0.0000E+00  0.4228E-03
     -0.438  0.8349E-10  0.6819E-08  0.9258E-02  0.4581E+00  0.1282E-05  0.7504E+00  0.1642E-04  0.1445E-01
     -0.411  0.3379E-07  0.3376E-07  0.3637E+01  0.3130E+01  0.5038E-03  0.8678E-04  0.6451E-02  0.5169E-02
     -0.383  0.0000E+00  0.0000E+00  0.0000E+00  0.0000E+00  0.0000E+00  0.0000E+00  0.0000E+00  0.0000E+00
     -0.356  0.0000E+00  0.0000E+00  0.0000E+00  0.0000E+00  0.0000E+00  0.0000E+00  0.0000E+00  0.0000E+00
     -0.329  0.0000E+00  0.0000E+00  0.0000E+00  0.0000E+00  0.0000E+00  0.0000E+00  0.0000E+00  0.0000E+00
     -0.301  0.0000E+00  0.0000E+00  0.0000E+00  0.0000E+00  0.0000E+00  0.0000E+00  0.0000E+00  0.0000E+00
     -0.274  0.0000E+00  0.0000E+00  0.0000E+00  0.0000E+00  0.0000E+00  0.0000E+00  0.0000E+00  0.0000E+00
     -0.247  0.0000E+00  0.0000E+00  0.0000E+00  0.0000E+00  0.0000E+00  0.0000E+00  0.0000E+00  0.0000E+00
     -0.219  0.0000E+00  0.0000E+00  0.0000E+00  0.0000E+00  0.0000E+00  0.0000E+00  0.0000E+00  0.0000E+00
     -0.192  0.0000E+00  0.0000E+00  0.0000E+00  0.0000E+00  0.0000E+00  0.0000E+00  0.0000E+00  0.0000E+00
     -0.165  0.0000E+00  0.0000E+00  0.0000E+00  0.0000E+00  0.0000E+00  0.0000E+00  0.0000E+00  0.0000E+00
     -0.137  0.0000E+00  0.0000E+00  0.0000E+00  0.0000E+00  0.0000E+00  0.0000E+00  0.0000E+00  0.0000E+00
     -0.110  0.0000E+00  0.0000E+00  0.0000E+00  0.0000E+00  0.0000E+00  0.0000E+00  0.0000E+00  0.0000E+00
     -0.083  0.0000E+00  0.0000E+00  0.0000E+00  0.0000E+00  0.0000E+00  0.0000E+00  0.0000E+00  0.0000E+00
     -0.055  0.0000E+00  0.0000E+00  0.0000E+00  0.0000E+00  0.0000E+00  0.0000E+00  0.0000E+00  0.0000E+00
     -0.05541529     -8.25634583  301     -3.82100923      1.00000000
     -8.256  0.0000E+00  0.0000E+00  0.0000E+00  0.0000E+00  0.0000E+00  0.0000E+00  0.0000E+00  0.0000E+00
     -8.229  0.0000E+00  0.0000E+00  0.0000E+00  0.0000E+00  0.0000E+00  0.0000E+00  0.0000E+00  0.0000E+00
     -8.202  0.0000E+00  0.0000E+00  0.0000E+00  0.0000E+00  0.0000E+00  0.0000E+00  0.0000E+00  0.0000E+00
     -8.174  0.0000E+00  0.0000E+00  0.0000E+00  0.0000E+00  0.0000E+00  0.0000E+00  0.0000E+00  0.0000E+00
     -8.147  0.0000E+00  0.0000E+00  0.0000E+00  0.0000E+00  0.0000E+00  0.0000E+00  0.0000E+00  0.0000E+00
     -8.120  0.0000E+00  0.0000E+00  0.0000E+00  0.0000E+00  0.0000E+00  0.0000E+00  0.0000E+00  0.0000E+00
     -8.092  0.0000E+00  0.0000E+00  0.0000E+00  0.0000E+00  0.0000E+00  0.0000E+00  0.0000E+00  0.0000E+00
     -8.065  0.0000E+00  0.0000E+00  0.0000E+00  0.0000E+00  0.0000E+00  0.0000E+00  0.0000E+00  0.0000E+00
     -8.038  0.0000E+00  0.0000E+00  0.0000E+00  0.0000E+00  0.0000E+00  0.0000E+00  0.0000E+00  0.0000E+00
     -8.010  0.0000E+00  0.0000E+00  0.0000E+00  0.0000E+00  0.0000E+00  0.0000E+00  0.0000E+00  0.0000E+00
     -7.983  0.0000E+00  0.0000E+00  0.0000E+00  0.0000E+00  0.0000E+00  0.0000E+00  0.0000E+00  0.0000E+00
     -7.956  0.0000E+00  0.0000E+00  0.0000E+00  0.0000E+00  0.0000E+00  0.0000E+00  0.0000E+00  0.0000E+00
     -7.928  0.0000E+00  0.0000E+00  0.0000E+00  0.0000E+00  0.0000E+00  0.0000E+00  0.0000E+00  0.0000E+00
     -7.901  0.6386E-06  0.0000E+00  0.2547E-06  0.0000E+00  0.1727E-05  0.0000E+00  0.4729E-08  0.0000E+00
     -7.874  0.1475E+01  0.0000E+00  0.5880E+00  0.0000E+00  0.3988E+01  0.0000E+00  0.1092E-01  0.0000E+00
     -7.846  0.3643E-02  0.0000E+00  0.1453E-02  0.0000E+00  0.9853E-02  0.0000E+00  0.2698E-04  0.0000E+00
     -7.819  0.0000E+00  0.3528E+00  0.0000E+00  0.1416E+00  0.0000E+00  0.8524E+00  0.0000E+00  0.2473E-02
     -7.792  0.0000E+00  0.1208E+01  0.0000E+00  0.4845E+00  0.0000E+00  0.2917E+01  0.0000E+00  0.8463E-02
     -7.764  0.0000E+00  0.0000E+00  0.0000E+00  0.0000E+00  0.0000E+00  0.0000E+00  0.0000E+00  0.0000E+00
     -7.737  0.0000E+00  0.0000E+00  0.0000E+00  0.0000E+00  0.0000E+00  0.0000E+00  0.0000E+00  0.0000E+00
     -7.710  0.0000E+00  0.0000E+00  0.0000E+00  0.0000E+00  0.0000E+00  0.0000E+00  0.0000E+00  0.0000E+00
     -7.682  0.0000E+00  0.0000E+00  0.0000E+00  0.0000E+00  0.0000E+00  0.0000E+00  0.0000E+00  0.0000E+00
     -7.655  0.0000E+00  0.0000E+00  0.0000E+00  0.0000E+00  0.0000E+00  0.0000E+00  0.0000E+00  0.0000E+00
     -7.628  0.0000E+00  0.0000E+00  0.0000E+00  0.0000E+00  0.0000E+00  0.0000E+00  0.0000E+00  0.0000E+00
     -7.600  0.0000E+00  0.0000E+00  0.0000E+00  0.0000E+00  0.0000E+00  0.0000E+00  0.0000E+00  0.0000E+00
     -7.573  0.0000E+00  0.0000E+00  0.0000E+00  0.0000E+00  0.0000E+00  0.0000E+00  0.0000E+00  0.0000E+00
     -7.546  0.0000E+00  0.0000E+00  0.0000E+00  0.0000E+00  0.0000E+00  0.0000E+00  0.0000E+00  0.0000E+00
     -7.518  0.0000E+00  0.0000E+00  0.0000E+00  0.0000E+00  0.0000E+00  0.0000E+00  0.0000E+00  0.0000E+00
     -7.491  0.0000E+00  0.0000E+00  0.0000E+00  0.0000E+00  0.0000E+00  0.0000E+00  0.0000E+00  0.0000E+00
     -7.464  0.0000E+00  0.0000E+00  0.0000E+00  0.0000E+00  0.0000E+00  0.0000E+00  0.0000E+00  0.0000E+00
     -7.436  0.0000E+00  0.0000E+00  0.0000E+00  0.0000E+00  0.0000E+00  0.0000E+00  0.0000E+00  0.0000E+00
     -7.409  0.0000E+00  0.0000E+00  0.0000E+00  0.0000E+00  0.0000E+00  0.0000E+00  0.0000E+00  0.0000E+00
     -7.382  0.0000E+00  0.0000E+00  0.0000E+00  0.0000E+00  0.0000E+00  0.0000E+00  0.0000E+00  0.0000E+00
     -7.354  0.0000E+00  0.0000E+00  0.0000E+00  0.0000E+00  0.0000E+00  0.0000E+00  0.0000E+00  0.0000E+00
     -7.327  0.0000E+00  0.0000E+00  0.0000E+00  0.0000E+00  0.0000E+00  0.0000E+00  0.0000E+00  0.0000E+00
     -7.300  0.0000E+00  0.0000E+00  0.0000E+00  0.0000E+00  0.0000E+00  0.0000E+00  0.0000E+00  0.0000E+00
     -7.272  0.0000E+00  0.0000E+00  0.0000E+00  0.0000E+00  0.0000E+00  0.0000E+00  0.0000E+00  0.0000E+00
     -7.245  0.0000E+00  0.0000E+00  0.0000E+00  0.0000E+00  0.0000E+00  0.0000E+00  0.0000E+00  0.0000E+00
     -7.218  0.0000E+00  0.0000E+00  0.0000E+00  0.0000E+00  0.0000E+00  0.0000E+00  0.0000E+00  0.0000E+00
     -7.190  0.0000E+00  0.0000E+00  0.0000E+00  0.0000E+00  0.0000E+00  0.0000E+00  0.0000E+00  0.0000E+00
     -7.163  0.0000E+00  0.0000E+00  0.0000E+00  0.0000E+00  0.0000E+00  0.0000E+00  0.0000E+00  0.0000E+00
     -7.136  0.0000E+00  0.0000E+00  0.0000E+00  0.0000E+00  0.0000E+00  0.0000E+00  0.0000E+00  0.0000E+00
     -7.108  0.6756E-10  0.0000E+00  0.3847E-01  0.0000E+00  0.1648E+01  0.0000E+00  0.2646E-02  0.0000E+00
     -7.081  0.2756E-09  0.0000E+00  0.1569E+00  0.0000E+00  0.6722E+01  0.0000E+00  0.1079E-01  0.0000E+00
     -7.054  0.0000E+00  0.0000E+00  0.0000E+00  0.0000E+00  0.0000E+00  0.0000E+00  0.0000E+00  0.0000E+00
     -7.026  0.0000E+00  0.0000E+00  0.0000E+00  0.0000E+00  0.0000E+00  0.0000E+00  0.0000E+00  0.0000E+00
     -6.999  0.0000E+00  0.0000E+00  0.0000E+00  0.0000E+00  0.0000E+00  0.0000E+00  0.0000E+00  0.0000E+00
     -6.972  0.0000E+00  0.0000E+00  0.0000E+00  0.0000E+00  0.0000E+00  0.0000E+00  0.0000E+00  0.0000E+00
     -6.944  0.0000E+00  0.0000E+00  0.0000E+00  0.0000E+00  0.0000E+00  0.0000E+00  0.0000E+00  0.0000E+00
     -6.917  0.0000E+00  0.0000E+00  0.0000E+00  0.0000E+00  0.0000E+00  0.0000E+00  0.0000E+00  0.0000E+00
     -6.890  0.0000E+00  0.0000E+00  0.0000E+00  0.0000E+00  0.0000E+00  0.0000E+00  0.0000E+00  0.0000E+00
     -6.862  0.0000E+00  0.0000E+00  0.0000E+00  0.0000E+00  0.0000E+00  0.0000E+00  0.0000E+00  0.0000E+00
     -6.835  0.2836E-11  0.0000E+00  0.2922E-02  0.0000E+00  0.1041E+00  0.0000E+00  0.2744E-03  0.0000E+00
     -6.808  0.1827E-09  0.0000E+00  0.1882E+00  0.0000E+00  0.6707E+01  0.0000E+00  0.1768E-01  0.0000E+00
     -6.780  0.9755E-08  0.0000E+00  0.3818E-08  0.0000E+00  0.1193E-06  0.0000E+00  0.1785E-09  0.0000E+00
     -6.753  0.1996E+01  0.0000E+00  0.5322E+00  0.0000E+00  0.1145E+02  0.0000E+00  0.2486E-01  0.0000E+00
     -6.726  0.4730E-01  0.4418E-18  0.1122E-01  0.3493E-07  0.1989E+00  0.1116E-05  0.5242E-03  0.3197E-08
     -6.698  0.0000E+00  0.2633E-11  0.0000E+00  0.2082E+00  0.0000E+00  0.6655E+01  0.0000E+00  0.1905E-01
     -6.671  0.0000E+00  0.5727E-11  0.0000E+00  0.1887E-02  0.0000E+00  0.6132E-01  0.0000E+00  0.1426E-03
     -6.643  0.2014E-12  0.1403E-08  0.2499E-05  0.2434E+00  0.1309E-03  0.8025E+01  0.3772E-06  0.1489E-01
     -6.616  0.1734E-07  0.0000E+00  0.2174E+00  0.0000E+00  0.1109E+02  0.0000E+00  0.3068E-01  0.0000E+00
     -6.589  0.4036E-11  0.0000E+00  0.5101E-04  0.0000E+00  0.2549E-02  0.0000E+00  0.6803E-05  0.0000E+00
     -6.561  0.0000E+00  0.0000E+00  0.0000E+00  0.0000E+00  0.0000E+00  0.0000E+00  0.0000E+00  0.0000E+00
     -6.534  0.0000E+00  0.1154E-11  0.0000E+00  0.6897E-06  0.0000E+00  0.3212E-04  0.0000E+00  0.1024E-06
     -6.507  0.9074E-12  0.3941E-06  0.4143E-13  0.2354E+00  0.5022E-11  0.1070E+02  0.1044E-13  0.3281E-01
     -6.479  0.8928E+00  0.5503E-03  0.4077E-01  0.3506E-03  0.4941E+01  0.1085E-01  0.1027E-01  0.3052E-04
     -6.452  0.3057E+00  0.2409E+01  0.1396E-01  0.6244E+00  0.1692E+01  0.9061E+01  0.3517E-02  0.2823E-01
     -6.425  0.1407E-26  0.0000E+00  0.5805E-25  0.0000E+00  0.2100E-14  0.0000E+00  0.5081E-17  0.0000E+00
     -6.397  0.1555E-11  0.0000E+00  0.6417E-10  0.0000E+00  0.2321E+01  0.0000E+00  0.5616E-02  0.0000E+00
     -6.370  0.2669E-11  0.0000E+00  0.1101E-09  0.0000E+00  0.3984E+01  0.0000E+00  0.9639E-02  0.0000E+00
     -6.343  0.0000E+00  0.0000E+00  0.0000E+00  0.0000E+00  0.0000E+00  0.0000E+00  0.0000E+00  0.0000E+00
     -6.315  0.0000E+00  0.0000E+00  0.0000E+00  0.0000E+00  0.0000E+00  0.0000E+00  0.0000E+00  0.0000E+00
     -6.288  0.0000E+00  0.2503E-11  0.0000E+00  0.1234E-10  0.0000E+00  0.4958E+00  0.0000E+00  0.1361E-02
     -6.261  0.0000E+00  0.1441E+01  0.0000E+00  0.6160E-01  0.0000E+00  0.8537E+01  0.0000E+00  0.2506E-01
     -6.233  0.0000E+00  0.6592E+00  0.0000E+00  0.2817E-01  0.0000E+00  0.1342E+01  0.0000E+00  0.4433E-02
     -6.206  0.0000E+00  0.0000E+00  0.0000E+00  0.0000E+00  0.0000E+00  0.0000E+00  0.0000E+00  0.0000E+00
     -6.179  0.1286E-10  0.0000E+00  0.4127E-12  0.0000E+00  0.3451E-10  0.0000E+00  0.6060E-13  0.0000E+00
     -6.151  0.1085E+01  0.0000E+00  0.3481E-01  0.0000E+00  0.2911E+01  0.0000E+00  0.5112E-02  0.0000E+00
     -6.124  0.1949E+00  0.0000E+00  0.6254E-02  0.0000E+00  0.5231E+00  0.0000E+00  0.9185E-03  0.0000E+00
     -6.097  0.0000E+00  0.0000E+00  0.0000E+00  0.0000E+00  0.0000E+00  0.0000E+00  0.0000E+00  0.0000E+00
     -6.069  0.0000E+00  0.0000E+00  0.0000E+00  0.0000E+00  0.0000E+00  0.0000E+00  0.0000E+00  0.0000E+00
     -6.042  0.0000E+00  0.0000E+00  0.0000E+00  0.0000E+00  0.0000E+00  0.0000E+00  0.0000E+00  0.0000E+00
     -6.015  0.6074E-02  0.0000E+00  0.2423E-03  0.0000E+00  0.7631E-01  0.0000E+00  0.5186E-04  0.0000E+00
     -5.987  0.2643E+00  0.4072E-08  0.1055E-01  0.3795E-10  0.3321E+01  0.9024E-07  0.2257E-02  0.1390E-09
     -5.960  0.6987E-10  0.2554E+00  0.1370E-10  0.2380E-02  0.6244E-08  0.5660E+01  0.1054E-10  0.8717E-02
     -5.933  0.1295E+00  0.3613E-02  0.4308E-01  0.3368E-04  0.1191E+02  0.8007E-01  0.2995E-01  0.1233E-03
     -5.905  0.7104E-02  0.0000E+00  0.2983E-02  0.0000E+00  0.6657E+00  0.0000E+00  0.2008E-02  0.0000E+00
     -5.878  0.0000E+00  0.0000E+00  0.0000E+00  0.0000E+00  0.0000E+00  0.0000E+00  0.0000E+00  0.0000E+00
     -5.851  0.0000E+00  0.0000E+00  0.0000E+00  0.0000E+00  0.0000E+00  0.0000E+00  0.0000E+00  0.0000E+00
     -5.823  0.0000E+00  0.0000E+00  0.0000E+00  0.0000E+00  0.0000E+00  0.0000E+00  0.0000E+00  0.0000E+00
     -5.796  0.0000E+00  0.0000E+00  0.0000E+00  0.0000E+00  0.0000E+00  0.0000E+00  0.0000E+00  0.0000E+00
     -5.769  0.0000E+00  0.0000E+00  0.0000E+00  0.0000E+00  0.0000E+00  0.0000E+00  0.0000E+00  0.0000E+00
     -5.741  0.0000E+00  0.0000E+00  0.0000E+00  0.0000E+00  0.0000E+00  0.0000E+00  0.0000E+00  0.0000E+00
     -5.714  0.0000E+00  0.2969E-02  0.0000E+00  0.8836E-04  0.0000E+00  0.3186E-01  0.0000E+00  0.2564E-04
     -5.687  0.0000E+00  0.3002E+00  0.0000E+00  0.8934E-02  0.0000E+00  0.3221E+01  0.0000E+00  0.2592E-02
     -5.659  0.0000E+00  0.1365E-04  0.0000E+00  0.3938E-04  0.0000E+00  0.1434E-01  0.0000E+00  0.3240E-04
     -5.632  0.0000E+00  0.1212E-01  0.0000E+00  0.6915E-01  0.0000E+00  0.1364E+02  0.0000E+00  0.3718E-01
     -5.605  0.0000E+00  0.0000E+00  0.0000E+00  0.0000E+00  0.0000E+00  0.0000E+00  0.0000E+00  0.0000E+00
     -5.577  0.0000E+00  0.0000E+00  0.0000E+00  0.0000E+00  0.0000E+00  0.0000E+00  0.0000E+00  0.0000E+00
     -5.550  0.0000E+00  0.0000E+00  0.0000E+00  0.0000E+00  0.0000E+00  0.0000E+00  0.0000E+00  0.0000E+00
     -5.523  0.2590E-09  0.0000E+00  0.1095E-01  0.0000E+00  0.7364E+00  0.0000E+00  0.3152E-02  0.0000E+00
     -5.495  0.7635E-09  0.0000E+00  0.3228E-01  0.0000E+00  0.2170E+01  0.0000E+00  0.9289E-02  0.0000E+00
     -5.468  0.0000E+00  0.0000E+00  0.0000E+00  0.0000E+00  0.0000E+00  0.0000E+00  0.0000E+00  0.0000E+00
     -5.441  0.0000E+00  0.0000E+00  0.0000E+00  0.0000E+00  0.0000E+00  0.0000E+00  0.0000E+00  0.0000E+00
     -5.413  0.0000E+00  0.0000E+00  0.0000E+00  0.0000E+00  0.0000E+00  0.0000E+00  0.0000E+00  0.0000E+00
     -5.386  0.0000E+00  0.0000E+00  0.0000E+00  0.0000E+00  0.0000E+00  0.0000E+00  0.0000E+00  0.0000E+00
     -5.359  0.3271E-04  0.0000E+00  0.1296E-04  0.0000E+00  0.1288E-02  0.0000E+00  0.1641E-05  0.0000E+00
     -5.331  0.3936E+00  0.0000E+00  0.1608E+00  0.0000E+00  0.1550E+02  0.0000E+00  0.2049E-01  0.0000E+00
     -5.304  0.0000E+00  0.0000E+00  0.0000E+00  0.0000E+00  0.0000E+00  0.0000E+00  0.0000E+00  0.0000E+00
     -5.277  0.0000E+00  0.4745E-18  0.0000E+00  0.4354E-10  0.0000E+00  0.3706E-08  0.0000E+00  0.1414E-10
     -5.249  0.0000E+00  0.4088E-09  0.0000E+00  0.3750E-01  0.0000E+00  0.3193E+01  0.0000E+00  0.1218E-01
     -5.222  0.0000E+00  0.1699E-10  0.0000E+00  0.1559E-02  0.0000E+00  0.1327E+00  0.0000E+00  0.5064E-03
     -5.195  0.0000E+00  0.7665E-04  0.0000E+00  0.3129E-04  0.0000E+00  0.3163E-02  0.0000E+00  0.4384E-05
     -5.167  0.0000E+00  0.3738E+00  0.0000E+00  0.1526E+00  0.0000E+00  0.1542E+02  0.0000E+00  0.2138E-01
     -5.140  0.0000E+00  0.0000E+00  0.0000E+00  0.0000E+00  0.0000E+00  0.0000E+00  0.0000E+00  0.0000E+00
     -5.113  0.0000E+00  0.0000E+00  0.0000E+00  0.0000E+00  0.0000E+00  0.0000E+00  0.0000E+00  0.0000E+00
     -5.085  0.0000E+00  0.0000E+00  0.0000E+00  0.0000E+00  0.0000E+00  0.0000E+00  0.0000E+00  0.0000E+00
     -5.058  0.0000E+00  0.0000E+00  0.0000E+00  0.0000E+00  0.0000E+00  0.0000E+00  0.0000E+00  0.0000E+00
     -5.031  0.5420E-17  0.0000E+00  0.8719E-09  0.0000E+00  0.2176E-06  0.0000E+00  0.3728E-09  0.0000E+00
     -5.003  0.2531E-09  0.0000E+00  0.4070E-01  0.0000E+00  0.1521E+02  0.0000E+00  0.1963E-01  0.0000E+00
     -4.976  0.3128E-11  0.0000E+00  0.5028E-03  0.0000E+00  0.2288E+00  0.0000E+00  0.2605E-03  0.0000E+00
     -4.949  0.0000E+00  0.0000E+00  0.0000E+00  0.0000E+00  0.0000E+00  0.0000E+00  0.0000E+00  0.0000E+00
     -4.921  0.0000E+00  0.0000E+00  0.0000E+00  0.0000E+00  0.0000E+00  0.0000E+00  0.0000E+00  0.0000E+00
     -4.894  0.1514E-12  0.0000E+00  0.4458E-03  0.0000E+00  0.6081E-03  0.0000E+00  0.5968E-04  0.0000E+00
     -4.867  0.3984E-10  0.1770E-13  0.1173E+00  0.2888E-05  0.1601E+00  0.8013E-03  0.1571E-01  0.1294E-05
     -4.839  0.5233E-11  0.2490E-09  0.2682E-01  0.4051E-01  0.1959E+00  0.1518E+02  0.4222E-02  0.1960E-01
     -4.812  0.8334E-11  0.1080E-12  0.4270E-01  0.8080E-03  0.3120E+00  0.1010E-02  0.6723E-02  0.9959E-04
     -4.785  0.0000E+00  0.1689E-10  0.0000E+00  0.1264E+00  0.0000E+00  0.1581E+00  0.0000E+00  0.1558E-01
     -4.757  0.0000E+00  0.2540E-11  0.0000E+00  0.1951E-01  0.0000E+00  0.3264E+00  0.0000E+00  0.5007E-02
     -4.730  0.0000E+00  0.3707E-11  0.0000E+00  0.2848E-01  0.0000E+00  0.4764E+00  0.0000E+00  0.7308E-02
     -4.703  0.0000E+00  0.0000E+00  0.0000E+00  0.0000E+00  0.0000E+00  0.0000E+00  0.0000E+00  0.0000E+00
     -4.675  0.0000E+00  0.0000E+00  0.0000E+00  0.0000E+00  0.0000E+00  0.0000E+00  0.0000E+00  0.0000E+00
     -4.648  0.0000E+00  0.0000E+00  0.0000E+00  0.0000E+00  0.0000E+00  0.0000E+00  0.0000E+00  0.0000E+00
     -4.621  0.0000E+00  0.0000E+00  0.0000E+00  0.0000E+00  0.0000E+00  0.0000E+00  0.0000E+00  0.0000E+00
     -4.593  0.0000E+00  0.0000E+00  0.0000E+00  0.0000E+00  0.0000E+00  0.0000E+00  0.0000E+00  0.0000E+00
     -4.566  0.0000E+00  0.0000E+00  0.0000E+00  0.0000E+00  0.0000E+00  0.0000E+00  0.0000E+00  0.0000E+00
     -4.539  0.0000E+00  0.0000E+00  0.0000E+00  0.0000E+00  0.0000E+00  0.0000E+00  0.0000E+00  0.0000E+00
     -4.511  0.7301E-19  0.0000E+00  0.1714E-17  0.0000E+00  0.5926E-08  0.0000E+00  0.7810E-11  0.0000E+00
     -4.484  0.1030E-09  0.0000E+00  0.2417E-08  0.0000E+00  0.8358E+01  0.0000E+00  0.1102E-01  0.0000E+00
     -4.457  0.1992E-01  0.0000E+00  0.5400E-01  0.0000E+00  0.6399E+01  0.0000E+00  0.9251E-02  0.0000E+00
     -4.429  0.7921E-02  0.0000E+00  0.2147E-01  0.0000E+00  0.2379E+01  0.0000E+00  0.3460E-02  0.0000E+00
     -4.402  0.3240E-08  0.0000E+00  0.1095E+00  0.0000E+00  0.3540E+01  0.0000E+00  0.2034E-02  0.0000E+00
     -4.375  0.7195E-07  0.0000E+00  0.6473E-01  0.0000E+00  0.2093E+01  0.0000E+00  0.1203E-02  0.0000E+00
     -4.347  0.1116E+00  0.0000E+00  0.3204E+00  0.0000E+00  0.1348E+02  0.0000E+00  0.5351E-01  0.0000E+00
     -4.320  0.2104E-02  0.9034E-13  0.2037E+00  0.1294E-11  0.8592E+01  0.9220E-02  0.2638E-01  0.1155E-04
     -4.293  0.1015E-11  0.3151E-09  0.2894E-03  0.1786E-08  0.1207E-01  0.8742E+01  0.3754E-04  0.1094E-01
     -4.265  0.0000E+00  0.3031E-01  0.0000E+00  0.7452E-01  0.0000E+00  0.1045E+02  0.0000E+00  0.1395E-01
     -4.238  0.0000E+00  0.5979E-03  0.0000E+00  0.1470E-02  0.0000E+00  0.1613E+00  0.0000E+00  0.2332E-03
     -4.211  0.0000E+00  0.2448E-01  0.0000E+00  0.2672E-01  0.0000E+00  0.2454E+01  0.0000E+00  0.4221E-02
     -4.183  0.0000E+00  0.1205E-04  0.0000E+00  0.7888E-04  0.0000E+00  0.2992E-02  0.0000E+00  0.3232E-05
     -4.156  0.0000E+00  0.3485E-09  0.0000E+00  0.1915E+00  0.0000E+00  0.5197E+01  0.0000E+00  0.3365E-02
     -4.129  0.0000E+00  0.0000E+00  0.0000E+00  0.0000E+00  0.0000E+00  0.0000E+00  0.0000E+00  0.0000E+00
     -4.101  0.0000E+00  0.0000E+00  0.0000E+00  0.0000E+00  0.0000E+00  0.0000E+00  0.0000E+00  0.0000E+00
     -4.074  0.0000E+00  0.0000E+00  0.0000E+00  0.0000E+00  0.0000E+00  0.0000E+00  0.0000E+00  0.0000E+00
     -4.047  0.0000E+00  0.3073E-06  0.0000E+00  0.1735E-03  0.0000E+00  0.8396E-02  0.0000E+00  0.3165E-04
     -4.019  0.0000E+00  0.4249E-03  0.0000E+00  0.1842E+00  0.0000E+00  0.1007E+02  0.0000E+00  0.4231E-01
     -3.992  0.3310E-24  0.0000E+00  0.1124E-15  0.0000E+00  0.3549E-14  0.0000E+00  0.8561E-17  0.0000E+00
     -3.965  0.2348E-09  0.0000E+00  0.8650E-01  0.0000E+00  0.2720E+01  0.0000E+00  0.6579E-02  0.0000E+00
     -3.937  0.3710E-09  0.0000E+00  0.1384E+00  0.0000E+00  0.4350E+01  0.0000E+00  0.1053E-01  0.0000E+00
     -3.910  0.1051E-08  0.0000E+00  0.5897E-08  0.0000E+00  0.9902E-05  0.0000E+00  0.4233E-07  0.0000E+00
     -3.883  0.5668E-03  0.0000E+00  0.3179E-02  0.0000E+00  0.5339E+01  0.0000E+00  0.2282E-01  0.0000E+00
     -3.855  0.5404E-06  0.7766E-11  0.3031E-05  0.3810E-02  0.5089E-02  0.1338E+00  0.2176E-04  0.2849E-03
     -3.828  0.0000E+00  0.4250E-09  0.0000E+00  0.2132E+00  0.0000E+00  0.7488E+01  0.0000E+00  0.1594E-01
     -3.801  0.0000E+00  0.0000E+00  0.0000E+00  0.0000E+00  0.0000E+00  0.0000E+00  0.0000E+00  0.0000E+00
     -3.773  0.0000E+00  0.0000E+00  0.0000E+00  0.0000E+00  0.0000E+00  0.0000E+00  0.0000E+00  0.0000E+00
     -3.746  0.0000E+00  0.4193E-11  0.0000E+00  0.3832E-02  0.0000E+00  0.1577E+00  0.0000E+00  0.4653E-03
     -3.718  0.0000E+00  0.2169E-09  0.0000E+00  0.1982E+00  0.0000E+00  0.8156E+01  0.0000E+00  0.2407E-01
     -3.691  0.0000E+00  0.0000E+00  0.0000E+00  0.0000E+00  0.0000E+00  0.0000E+00  0.0000E+00  0.0000E+00
     -3.664  0.0000E+00  0.0000E+00  0.0000E+00  0.0000E+00  0.0000E+00  0.0000E+00  0.0000E+00  0.0000E+00
     -3.636  0.0000E+00  0.0000E+00  0.0000E+00  0.0000E+00  0.0000E+00  0.0000E+00  0.0000E+00  0.0000E+00
     -3.609  0.0000E+00  0.0000E+00  0.0000E+00  0.0000E+00  0.0000E+00  0.0000E+00  0.0000E+00  0.0000E+00
     -3.582  0.0000E+00  0.0000E+00  0.0000E+00  0.0000E+00  0.0000E+00  0.0000E+00  0.0000E+00  0.0000E+00
     -3.554  0.0000E+00  0.0000E+00  0.0000E+00  0.0000E+00  0.0000E+00  0.0000E+00  0.0000E+00  0.0000E+00
     -3.527  0.0000E+00  0.0000E+00  0.0000E+00  0.0000E+00  0.0000E+00  0.0000E+00  0.0000E+00  0.0000E+00
     -3.500  0.0000E+00  0.2465E-08  0.0000E+00  0.8085E-07  0.0000E+00  0.1755E-03  0.0000E+00  0.7046E-06
     -3.472  0.0000E+00  0.7623E-04  0.0000E+00  0.2500E-02  0.0000E+00  0.5426E+01  0.0000E+00  0.2179E-01
     -3.445  0.0000E+00  0.0000E+00  0.0000E+00  0.0000E+00  0.0000E+00  0.0000E+00  0.0000E+00  0.0000E+00
     -3.418  0.0000E+00  0.0000E+00  0.0000E+00  0.0000E+00  0.0000E+00  0.0000E+00  0.0000E+00  0.0000E+00
     -3.390  0.0000E+00  0.0000E+00  0.0000E+00  0.0000E+00  0.0000E+00  0.0000E+00  0.0000E+00  0.0000E+00
     -3.363  0.0000E+00  0.0000E+00  0.0000E+00  0.0000E+00  0.0000E+00  0.0000E+00  0.0000E+00  0.0000E+00
     -3.336  0.0000E+00  0.0000E+00  0.0000E+00  0.0000E+00  0.0000E+00  0.0000E+00  0.0000E+00  0.0000E+00
     -3.308  0.0000E+00  0.0000E+00  0.0000E+00  0.0000E+00  0.0000E+00  0.0000E+00  0.0000E+00  0.0000E+00
     -3.281  0.0000E+00  0.0000E+00  0.0000E+00  0.0000E+00  0.0000E+00  0.0000E+00  0.0000E+00  0.0000E+00
     -3.254  0.0000E+00  0.0000E+00  0.0000E+00  0.0000E+00  0.0000E+00  0.0000E+00  0.0000E+00  0.0000E+00
     -3.226  0.0000E+00  0.0000E+00  0.0000E+00  0.0000E+00  0.0000E+00  0.0000E+00  0.0000E+00  0.0000E+00
     -3.199  0.0000E+00  0.0000E+00  0.0000E+00  0.0000E+00  0.0000E+00  0.0000E+00  0.0000E+00  0.0000E+00
     -3.172  0.0000E+00  0.0000E+00  0.0000E+00  0.0000E+00  0.0000E+00  0.0000E+00  0.0000E+00  0.0000E+00
     -3.144  0.0000E+00  0.0000E+00  0.0000E+00  0.0000E+00  0.0000E+00  0.0000E+00  0.0000E+00  0.0000E+00
     -3.117  0.2450E-07  0.0000E+00  0.8776E-08  0.0000E+00  0.1063E-07  0.0000E+00  0.2700E-10  0.0000E+00
     -3.090  0.3717E+01  0.0000E+00  0.9650E+00  0.0000E+00  0.1201E+01  0.0000E+00  0.2646E-02  0.0000E+00
     -3.062  0.7758E-01  0.1493E-18  0.2766E+00  0.2060E-11  0.4855E+00  0.4212E-11  0.1259E-02  0.9125E-14
     -3.035  0.2315E-06  0.3533E-07  0.3796E+00  0.4875E+00  0.6791E+00  0.9968E+00  0.1779E-02  0.2159E-02
     -3.008  0.0000E+00  0.8391E-08  0.0000E+00  0.1158E+00  0.0000E+00  0.2368E+00  0.0000E+00  0.5129E-03
     -2.980  0.0000E+00  0.1154E+00  0.0000E+00  0.3720E-01  0.0000E+00  0.6729E-01  0.0000E+00  0.9630E-04
     -2.953  0.0000E+00  0.3465E+01  0.0000E+00  0.9951E+00  0.0000E+00  0.1789E+01  0.0000E+00  0.2433E-02
     -2.926  0.0000E+00  0.0000E+00  0.0000E+00  0.0000E+00  0.0000E+00  0.0000E+00  0.0000E+00  0.0000E+00
     -2.898  0.0000E+00  0.0000E+00  0.0000E+00  0.0000E+00  0.0000E+00  0.0000E+00  0.0000E+00  0.0000E+00
     -2.871  0.0000E+00  0.0000E+00  0.0000E+00  0.0000E+00  0.0000E+00  0.0000E+00  0.0000E+00  0.0000E+00
     -2.844  0.0000E+00  0.0000E+00  0.0000E+00  0.0000E+00  0.0000E+00  0.0000E+00  0.0000E+00  0.0000E+00
     -2.816  0.0000E+00  0.0000E+00  0.0000E+00  0.0000E+00  0.0000E+00  0.0000E+00  0.0000E+00  0.0000E+00
     -2.789  0.0000E+00  0.0000E+00  0.0000E+00  0.0000E+00  0.0000E+00  0.0000E+00  0.0000E+00  0.0000E+00
     -2.762  0.0000E+00  0.0000E+00  0.0000E+00  0.0000E+00  0.0000E+00  0.0000E+00  0.0000E+00  0.0000E+00
     -2.734  0.0000E+00  0.0000E+00  0.0000E+00  0.0000E+00  0.0000E+00  0.0000E+00  0.0000E+00  0.0000E+00
     -2.707  0.0000E+00  0.0000E+00  0.0000E+00  0.0000E+00  0.0000E+00  0.0000E+00  0.0000E+00  0.0000E+00
     -2.680  0.0000E+00  0.0000E+00  0.0000E+00  0.0000E+00  0.0000E+00  0.0000E+00  0.0000E+00  0.0000E+00
     -2.652  0.0000E+00  0.0000E+00  0.0000E+00  0.0000E+00  0.0000E+00  0.0000E+00  0.0000E+00  0.0000E+00
     -2.625  0.0000E+00  0.0000E+00  0.0000E+00  0.0000E+00  0.0000E+00  0.0000E+00  0.0000E+00  0.0000E+00
     -2.598  0.0000E+00  0.0000E+00  0.0000E+00  0.0000E+00  0.0000E+00  0.0000E+00  0.0000E+00  0.0000E+00
     -2.570  0.0000E+00  0.0000E+00  0.0000E+00  0.0000E+00  0.0000E+00  0.0000E+00  0.0000E+00  0.0000E+00
     -2.543  0.0000E+00  0.0000E+00  0.0000E+00  0.0000E+00  0.0000E+00  0.0000E+00  0.0000E+00  0.0000E+00
     -2.516  0.0000E+00  0.0000E+00  0.0000E+00  0.0000E+00  0.0000E+00  0.0000E+00  0.0000E+00  0.0000E+00
     -2.488  0.0000E+00  0.0000E+00  0.0000E+00  0.0000E+00  0.0000E+00  0.0000E+00  0.0000E+00  0.0000E+00
     -2.461  0.0000E+00  0.0000E+00  0.0000E+00  0.0000E+00  0.0000E+00  0.0000E+00  0.0000E+00  0.0000E+00
     -2.434  0.0000E+00  0.0000E+00  0.0000E+00  0.0000E+00  0.0000E+00  0.0000E+00  0.0000E+00  0.0000E+00
     -2.406  0.0000E+00  0.0000E+00  0.0000E+00  0.0000E+00  0.0000E+00  0.0000E+00  0.0000E+00  0.0000E+00
     -2.379  0.0000E+00  0.0000E+00  0.0000E+00  0.0000E+00  0.0000E+00  0.0000E+00  0.0000E+00  0.0000E+00
     -2.352  0.0000E+00  0.0000E+00  0.0000E+00  0.0000E+00  0.0000E+00  0.0000E+00  0.0000E+00  0.0000E+00
     -2.324  0.0000E+00  0.0000E+00  0.0000E+00  0.0000E+00  0.0000E+00  0.0000E+00  0.0000E+00  0.0000E+00
     -2.297  0.0000E+00  0.0000E+00  0.0000E+00  0.0000E+00  0.0000E+00  0.0000E+00  0.0000E+00  0.0000E+00
     -2.270  0.0000E+00  0.0000E+00  0.0000E+00  0.0000E+00  0.0000E+00  0.0000E+00  0.0000E+00  0.0000E+00
     -2.242  0.0000E+00  0.0000E+00  0.0000E+00  0.0000E+00  0.0000E+00  0.0000E+00  0.0000E+00  0.0000E+00
     -2.215  0.0000E+00  0.0000E+00  0.0000E+00  0.0000E+00  0.0000E+00  0.0000E+00  0.0000E+00  0.0000E+00
     -2.188  0.0000E+00  0.0000E+00  0.0000E+00  0.0000E+00  0.0000E+00  0.0000E+00  0.0000E+00  0.0000E+00
     -2.160  0.0000E+00  0.0000E+00  0.0000E+00  0.0000E+00  0.0000E+00  0.0000E+00  0.0000E+00  0.0000E+00
     -2.133  0.0000E+00  0.0000E+00  0.0000E+00  0.0000E+00  0.0000E+00  0.0000E+00  0.0000E+00  0.0000E+00
     -2.106  0.0000E+00  0.0000E+00  0.0000E+00  0.0000E+00  0.0000E+00  0.0000E+00  0.0000E+00  0.0000E+00
     -2.078  0.0000E+00  0.0000E+00  0.0000E+00  0.0000E+00  0.0000E+00  0.0000E+00  0.0000E+00  0.0000E+00
     -2.051  0.0000E+00  0.0000E+00  0.0000E+00  0.0000E+00  0.0000E+00  0.0000E+00  0.0000E+00  0.0000E+00
     -2.024  0.0000E+00  0.0000E+00  0.0000E+00  0.0000E+00  0.0000E+00  0.0000E+00  0.0000E+00  0.0000E+00
     -1.996  0.0000E+00  0.0000E+00  0.0000E+00  0.0000E+00  0.0000E+00  0.0000E+00  0.0000E+00  0.0000E+00
     -1.969  0.0000E+00  0.0000E+00  0.0000E+00  0.0000E+00  0.0000E+00  0.0000E+00  0.0000E+00  0.0000E+00
     -1.942  0.0000E+00  0.0000E+00  0.0000E+00  0.0000E+00  0.0000E+00  0.0000E+00  0.0000E+00  0.0000E+00
     -1.914  0.0000E+00  0.0000E+00  0.0000E+00  0.0000E+00  0.0000E+00  0.0000E+00  0.0000E+00  0.0000E+00
     -1.887  0.0000E+00  0.0000E+00  0.0000E+00  0.0000E+00  0.0000E+00  0.0000E+00  0.0000E+00  0.0000E+00
     -1.860  0.0000E+00  0.0000E+00  0.0000E+00  0.0000E+00  0.0000E+00  0.0000E+00  0.0000E+00  0.0000E+00
     -1.832  0.0000E+00  0.0000E+00  0.0000E+00  0.0000E+00  0.0000E+00  0.0000E+00  0.0000E+00  0.0000E+00
     -1.805  0.0000E+00  0.0000E+00  0.0000E+00  0.0000E+00  0.0000E+00  0.0000E+00  0.0000E+00  0.0000E+00
     -1.778  0.0000E+00  0.0000E+00  0.0000E+00  0.0000E+00  0.0000E+00  0.0000E+00  0.0000E+00  0.0000E+00
     -1.750  0.0000E+00  0.0000E+00  0.0000E+00  0.0000E+00  0.0000E+00  0.0000E+00  0.0000E+00  0.0000E+00
     -1.723  0.0000E+00  0.0000E+00  0.0000E+00  0.0000E+00  0.0000E+00  0.0000E+00  0.0000E+00  0.0000E+00
     -1.696  0.0000E+00  0.0000E+00  0.0000E+00  0.0000E+00  0.0000E+00  0.0000E+00  0.0000E+00  0.0000E+00
     -1.668  0.0000E+00  0.0000E+00  0.0000E+00  0.0000E+00  0.0000E+00  0.0000E+00  0.0000E+00  0.0000E+00
     -1.641  0.0000E+00  0.0000E+00  0.0000E+00  0.0000E+00  0.0000E+00  0.0000E+00  0.0000E+00  0.0000E+00
     -1.614  0.0000E+00  0.0000E+00  0.0000E+00  0.0000E+00  0.0000E+00  0.0000E+00  0.0000E+00  0.0000E+00
     -1.586  0.0000E+00  0.0000E+00  0.0000E+00  0.0000E+00  0.0000E+00  0.0000E+00  0.0000E+00  0.0000E+00
     -1.559  0.0000E+00  0.0000E+00  0.0000E+00  0.0000E+00  0.0000E+00  0.0000E+00  0.0000E+00  0.0000E+00
     -1.532  0.0000E+00  0.0000E+00  0.0000E+00  0.0000E+00  0.0000E+00  0.0000E+00  0.0000E+00  0.0000E+00
     -1.504  0.0000E+00  0.0000E+00  0.0000E+00  0.0000E+00  0.0000E+00  0.0000E+00  0.0000E+00  0.0000E+00
     -1.477  0.0000E+00  0.0000E+00  0.0000E+00  0.0000E+00  0.0000E+00  0.0000E+00  0.0000E+00  0.0000E+00
     -1.450  0.0000E+00  0.0000E+00  0.0000E+00  0.0000E+00  0.0000E+00  0.0000E+00  0.0000E+00  0.0000E+00
     -1.422  0.0000E+00  0.0000E+00  0.0000E+00  0.0000E+00  0.0000E+00  0.0000E+00  0.0000E+00  0.0000E+00
     -1.395  0.0000E+00  0.0000E+00  0.0000E+00  0.0000E+00  0.0000E+00  0.0000E+00  0.0000E+00  0.0000E+00
     -1.368  0.0000E+00  0.0000E+00  0.0000E+00  0.0000E+00  0.0000E+00  0.0000E+00  0.0000E+00  0.0000E+00
     -1.340  0.0000E+00  0.0000E+00  0.0000E+00  0.0000E+00  0.0000E+00  0.0000E+00  0.0000E+00  0.0000E+00
     -1.313  0.0000E+00  0.0000E+00  0.0000E+00  0.0000E+00  0.0000E+00  0.0000E+00  0.0000E+00  0.0000E+00
     -1.286  0.0000E+00  0.0000E+00  0.0000E+00  0.0000E+00  0.0000E+00  0.0000E+00  0.0000E+00  0.0000E+00
     -1.258  0.0000E+00  0.0000E+00  0.0000E+00  0.0000E+00  0.0000E+00  0.0000E+00  0.0000E+00  0.0000E+00
     -1.231  0.0000E+00  0.0000E+00  0.0000E+00  0.0000E+00  0.0000E+00  0.0000E+00  0.0000E+00  0.0000E+00
     -1.204  0.6109E-06  0.0000E+00  0.1634E-06  0.0000E+00  0.4926E-06  0.0000E+00  0.2981E-08  0.0000E+00
     -1.176  0.5955E+00  0.8826E-15  0.1593E+00  0.6022E-16  0.4802E+00  0.7488E-15  0.2906E-02  0.4049E-17
     -1.149  0.1295E+01  0.2760E+00  0.4711E+00  0.1883E-01  0.2316E+00  0.2342E+00  0.4491E-02  0.1266E-02
     -1.122  0.5608E+00  0.3600E+00  0.2041E+00  0.2456E-01  0.1001E+00  0.3054E+00  0.1945E-02  0.1651E-02
     -1.094  0.0000E+00  0.0000E+00  0.0000E+00  0.0000E+00  0.0000E+00  0.0000E+00  0.0000E+00  0.0000E+00
     -1.067  0.0000E+00  0.0000E+00  0.0000E+00  0.0000E+00  0.0000E+00  0.0000E+00  0.0000E+00  0.0000E+00
     -1.040  0.0000E+00  0.4322E-10  0.0000E+00  0.1611E-10  0.0000E+00  0.9486E-11  0.0000E+00  0.1313E-12
     -1.012  0.0000E+00  0.1513E+01  0.0000E+00  0.5639E+00  0.0000E+00  0.3321E+00  0.0000E+00  0.4598E-02
     -0.985  0.0000E+00  0.2118E+00  0.0000E+00  0.7891E-01  0.0000E+00  0.4647E-01  0.0000E+00  0.6434E-03
     -0.958  0.0000E+00  0.0000E+00  0.0000E+00  0.0000E+00  0.0000E+00  0.0000E+00  0.0000E+00  0.0000E+00
     -0.930  0.1354E-10  0.0000E+00  0.2898E-09  0.0000E+00  0.2687E-10  0.0000E+00  0.7662E-13  0.0000E+00
     -0.903  0.5847E-01  0.1857E-16  0.1251E+01  0.1707E-14  0.1161E+00  0.1459E-15  0.3309E-03  0.3750E-18
     -0.876  0.4276E-02  0.6473E-02  0.9151E-01  0.5951E+00  0.8487E-02  0.5086E-01  0.2420E-04  0.1307E-03
     -0.848  0.0000E+00  0.8735E-02  0.0000E+00  0.8030E+00  0.0000E+00  0.6862E-01  0.0000E+00  0.1764E-03
     -0.821  0.0000E+00  0.0000E+00  0.0000E+00  0.0000E+00  0.0000E+00  0.0000E+00  0.0000E+00  0.0000E+00
     -0.793  0.0000E+00  0.0000E+00  0.0000E+00  0.0000E+00  0.0000E+00  0.0000E+00  0.0000E+00  0.0000E+00
     -0.766  0.0000E+00  0.0000E+00  0.0000E+00  0.0000E+00  0.0000E+00  0.0000E+00  0.0000E+00  0.0000E+00
     -0.739  0.0000E+00  0.0000E+00  0.0000E+00  0.0000E+00  0.0000E+00  0.0000E+00  0.0000E+00  0.0000E+00
     -0.711  0.0000E+00  0.0000E+00  0.0000E+00  0.0000E+00  0.0000E+00  0.0000E+00  0.0000E+00  0.0000E+00
     -0.684  0.0000E+00  0.0000E+00  0.0000E+00  0.0000E+00  0.0000E+00  0.0000E+00  0.0000E+00  0.0000E+00
     -0.657  0.0000E+00  0.0000E+00  0.0000E+00  0.0000E+00  0.0000E+00  0.0000E+00  0.0000E+00  0.0000E+00
     -0.629  0.0000E+00  0.0000E+00  0.0000E+00  0.0000E+00  0.0000E+00  0.0000E+00  0.0000E+00  0.0000E+00
     -0.602  0.0000E+00  0.0000E+00  0.0000E+00  0.0000E+00  0.0000E+00  0.0000E+00  0.0000E+00  0.0000E+00
     -0.575  0.0000E+00  0.0000E+00  0.0000E+00  0.0000E+00  0.0000E+00  0.0000E+00  0.0000E+00  0.0000E+00
     -0.547  0.3647E-14  0.0000E+00  0.6772E-04  0.0000E+00  0.1596E-06  0.0000E+00  0.1954E-06  0.0000E+00
     -0.520  0.1040E-09  0.0000E+00  0.1930E+01  0.0000E+00  0.4550E-02  0.0000E+00  0.5569E-02  0.0000E+00
     -0.493  0.0000E+00  0.0000E+00  0.0000E+00  0.0000E+00  0.0000E+00  0.0000E+00  0.0000E+00  0.0000E+00
     -0.465  0.0000E+00  0.1669E-11  0.0000E+00  0.5592E-01  0.0000E+00  0.5320E-04  0.0000E+00  0.1594E-03
     -0.438  0.2813E-10  0.1962E-08  0.4179E-02  0.2020E+01  0.1964E-02  0.1057E+00  0.5134E-04  0.7710E-02
     -0.411  0.1135E-07  0.1322E-07  0.1684E+01  0.1445E+01  0.7535E+00  0.7009E+00  0.1992E-01  0.1729E-01
     -0.383  0.0000E+00  0.0000E+00  0.0000E+00  0.0000E+00  0.0000E+00  0.0000E+00  0.0000E+00  0.0000E+00
     -0.356  0.0000E+00  0.0000E+00  0.0000E+00  0.0000E+00  0.0000E+00  0.0000E+00  0.0000E+00  0.0000E+00
     -0.329  0.0000E+00  0.0000E+00  0.0000E+00  0.0000E+00  0.0000E+00  0.0000E+00  0.0000E+00  0.0000E+00
     -0.301  0.0000E+00  0.0000E+00  0.0000E+00  0.0000E+00  0.0000E+00  0.0000E+00  0.0000E+00  0.0000E+00
     -0.274  0.0000E+00  0.0000E+00  0.0000E+00  0.0000E+00  0.0000E+00  0.0000E+00  0.0000E+00  0.0000E+00
     -0.247  0.0000E+00  0.0000E+00  0.0000E+00  0.0000E+00  0.0000E+00  0.0000E+00  0.0000E+00  0.0000E+00
     -0.219  0.0000E+00  0.0000E+00  0.0000E+00  0.0000E+00  0.0000E+00  0.0000E+00  0.0000E+00  0.0000E+00
     -0.192  0.0000E+00  0.0000E+00  0.0000E+00  0.0000E+00  0.0000E+00  0.0000E+00  0.0000E+00  0.0000E+00
     -0.165  0.0000E+00  0.0000E+00  0.0000E+00  0.0000E+00  0.0000E+00  0.0000E+00  0.0000E+00  0.0000E+00
     -0.137  0.0000E+00  0.0000E+00  0.0000E+00  0.0000E+00  0.0000E+00  0.0000E+00  0.0000E+00  0.0000E+00
     -0.110  0.0000E+00  0.0000E+00  0.0000E+00  0.0000E+00  0.0000E+00  0.0000E+00  0.0000E+00  0.0000E+00
     -0.083  0.0000E+00  0.0000E+00  0.0000E+00  0.0000E+00  0.0000E+00  0.0000E+00  0.0000E+00  0.0000E+00
     -0.055  0.0000E+00  0.0000E+00  0.0000E+00  0.0000E+00  0.0000E+00  0.0000E+00  0.0000E+00  0.0000E+00
     -0.05541529     -8.25634583  301     -3.82100923      1.00000000
     -8.256  0.0000E+00  0.0000E+00  0.0000E+00  0.0000E+00  0.0000E+00  0.0000E+00  0.0000E+00  0.0000E+00
     -8.229  0.0000E+00  0.0000E+00  0.0000E+00  0.0000E+00  0.0000E+00  0.0000E+00  0.0000E+00  0.0000E+00
     -8.202  0.0000E+00  0.0000E+00  0.0000E+00  0.0000E+00  0.0000E+00  0.0000E+00  0.0000E+00  0.0000E+00
     -8.174  0.0000E+00  0.0000E+00  0.0000E+00  0.0000E+00  0.0000E+00  0.0000E+00  0.0000E+00  0.0000E+00
     -8.147  0.0000E+00  0.0000E+00  0.0000E+00  0.0000E+00  0.0000E+00  0.0000E+00  0.0000E+00  0.0000E+00
     -8.120  0.0000E+00  0.0000E+00  0.0000E+00  0.0000E+00  0.0000E+00  0.0000E+00  0.0000E+00  0.0000E+00
     -8.092  0.0000E+00  0.0000E+00  0.0000E+00  0.0000E+00  0.0000E+00  0.0000E+00  0.0000E+00  0.0000E+00
     -8.065  0.0000E+00  0.0000E+00  0.0000E+00  0.0000E+00  0.0000E+00  0.0000E+00  0.0000E+00  0.0000E+00
     -8.038  0.0000E+00  0.0000E+00  0.0000E+00  0.0000E+00  0.0000E+00  0.0000E+00  0.0000E+00  0.0000E+00
     -8.010  0.0000E+00  0.0000E+00  0.0000E+00  0.0000E+00  0.0000E+00  0.0000E+00  0.0000E+00  0.0000E+00
     -7.983  0.0000E+00  0.0000E+00  0.0000E+00  0.0000E+00  0.0000E+00  0.0000E+00  0.0000E+00  0.0000E+00
     -7.956  0.0000E+00  0.0000E+00  0.0000E+00  0.0000E+00  0.0000E+00  0.0000E+00  0.0000E+00  0.0000E+00
     -7.928  0.0000E+00  0.0000E+00  0.0000E+00  0.0000E+00  0.0000E+00  0.0000E+00  0.0000E+00  0.0000E+00
     -7.901  0.5125E-06  0.0000E+00  0.2205E-06  0.0000E+00  0.1187E-05  0.0000E+00  0.5640E-08  0.0000E+00
     -7.874  0.1183E+01  0.0000E+00  0.5091E+00  0.0000E+00  0.2742E+01  0.0000E+00  0.1302E-01  0.0000E+00
     -7.846  0.2924E-02  0.0000E+00  0.1258E-02  0.0000E+00  0.6774E-02  0.0000E+00  0.3218E-04  0.0000E+00
     -7.819  0.0000E+00  0.2956E+00  0.0000E+00  0.1205E+00  0.0000E+00  0.6222E+00  0.0000E+00  0.2817E-02
     -7.792  0.0000E+00  0.1012E+01  0.0000E+00  0.4124E+00  0.0000E+00  0.2130E+01  0.0000E+00  0.9641E-02
     -7.764  0.0000E+00  0.0000E+00  0.0000E+00  0.0000E+00  0.0000E+00  0.0000E+00  0.0000E+00  0.0000E+00
     -7.737  0.0000E+00  0.0000E+00  0.0000E+00  0.0000E+00  0.0000E+00  0.0000E+00  0.0000E+00  0.0000E+00
     -7.710  0.0000E+00  0.0000E+00  0.0000E+00  0.0000E+00  0.0000E+00  0.0000E+00  0.0000E+00  0.0000E+00
     -7.682  0.0000E+00  0.0000E+00  0.0000E+00  0.0000E+00  0.0000E+00  0.0000E+00  0.0000E+00  0.0000E+00
     -7.655  0.0000E+00  0.0000E+00  0.0000E+00  0.0000E+00  0.0000E+00  0.0000E+00  0.0000E+00  0.0000E+00
     -7.628  0.0000E+00  0.0000E+00  0.0000E+00  0.0000E+00  0.0000E+00  0.0000E+00  0.0000E+00  0.0000E+00
     -7.600  0.0000E+00  0.0000E+00  0.0000E+00  0.0000E+00  0.0000E+00  0.0000E+00  0.0000E+00  0.0000E+00
     -7.573  0.0000E+00  0.0000E+00  0.0000E+00  0.0000E+00  0.0000E+00  0.0000E+00  0.0000E+00  0.0000E+00
     -7.546  0.0000E+00  0.0000E+00  0.0000E+00  0.0000E+00  0.0000E+00  0.0000E+00  0.0000E+00  0.0000E+00
     -7.518  0.0000E+00  0.0000E+00  0.0000E+00  0.0000E+00  0.0000E+00  0.0000E+00  0.0000E+00  0.0000E+00
     -7.491  0.0000E+00  0.0000E+00  0.0000E+00  0.0000E+00  0.0000E+00  0.0000E+00  0.0000E+00  0.0000E+00
     -7.464  0.0000E+00  0.0000E+00  0.0000E+00  0.0000E+00  0.0000E+00  0.0000E+00  0.0000E+00  0.0000E+00
     -7.436  0.0000E+00  0.0000E+00  0.0000E+00  0.0000E+00  0.0000E+00  0.0000E+00  0.0000E+00  0.0000E+00
     -7.409  0.0000E+00  0.0000E+00  0.0000E+00  0.0000E+00  0.0000E+00  0.0000E+00  0.0000E+00  0.0000E+00
     -7.382  0.0000E+00  0.0000E+00  0.0000E+00  0.0000E+00  0.0000E+00  0.0000E+00  0.0000E+00  0.0000E+00
     -7.354  0.0000E+00  0.0000E+00  0.0000E+00  0.0000E+00  0.0000E+00  0.0000E+00  0.0000E+00  0.0000E+00
     -7.327  0.0000E+00  0.0000E+00  0.0000E+00  0.0000E+00  0.0000E+00  0.0000E+00  0.0000E+00  0.0000E+00
     -7.300  0.0000E+00  0.0000E+00  0.0000E+00  0.0000E+00  0.0000E+00  0.0000E+00  0.0000E+00  0.0000E+00
     -7.272  0.0000E+00  0.0000E+00  0.0000E+00  0.0000E+00  0.0000E+00  0.0000E+00  0.0000E+00  0.0000E+00
     -7.245  0.0000E+00  0.0000E+00  0.0000E+00  0.0000E+00  0.0000E+00  0.0000E+00  0.0000E+00  0.0000E+00
     -7.218  0.0000E+00  0.0000E+00  0.0000E+00  0.0000E+00  0.0000E+00  0.0000E+00  0.0000E+00  0.0000E+00
     -7.190  0.0000E+00  0.0000E+00  0.0000E+00  0.0000E+00  0.0000E+00  0.0000E+00  0.0000E+00  0.0000E+00
     -7.163  0.0000E+00  0.0000E+00  0.0000E+00  0.0000E+00  0.0000E+00  0.0000E+00  0.0000E+00  0.0000E+00
     -7.136  0.0000E+00  0.0000E+00  0.0000E+00  0.0000E+00  0.0000E+00  0.0000E+00  0.0000E+00  0.0000E+00
     -7.108  0.1450E-09  0.0000E+00  0.5265E-08  0.0000E+00  0.1681E+00  0.0000E+00  0.3477E-02  0.0000E+00
     -7.081  0.5913E-09  0.0000E+00  0.2148E-07  0.0000E+00  0.6857E+00  0.0000E+00  0.1418E-01  0.0000E+00
     -7.054  0.0000E+00  0.0000E+00  0.0000E+00  0.0000E+00  0.0000E+00  0.0000E+00  0.0000E+00  0.0000E+00
     -7.026  0.0000E+00  0.0000E+00  0.0000E+00  0.0000E+00  0.0000E+00  0.0000E+00  0.0000E+00  0.0000E+00
     -6.999  0.0000E+00  0.0000E+00  0.0000E+00  0.0000E+00  0.0000E+00  0.0000E+00  0.0000E+00  0.0000E+00
     -6.972  0.0000E+00  0.0000E+00  0.0000E+00  0.0000E+00  0.0000E+00  0.0000E+00  0.0000E+00  0.0000E+00
     -6.944  0.0000E+00  0.0000E+00  0.0000E+00  0.0000E+00  0.0000E+00  0.0000E+00  0.0000E+00  0.0000E+00
     -6.917  0.0000E+00  0.0000E+00  0.0000E+00  0.0000E+00  0.0000E+00  0.0000E+00  0.0000E+00  0.0000E+00
     -6.890  0.0000E+00  0.0000E+00  0.0000E+00  0.0000E+00  0.0000E+00  0.0000E+00  0.0000E+00  0.0000E+00
     -6.862  0.0000E+00  0.0000E+00  0.0000E+00  0.0000E+00  0.0000E+00  0.0000E+00  0.0000E+00  0.0000E+00
     -6.835  0.2742E-01  0.0000E+00  0.6127E-02  0.0000E+00  0.1740E-01  0.0000E+00  0.4515E-04  0.0000E+00
     -6.808  0.1767E+01  0.0000E+00  0.3947E+00  0.0000E+00  0.1121E+01  0.0000E+00  0.2909E-02  0.0000E+00
     -6.780  0.3984E-16  0.0000E+00  0.1807E-08  0.0000E+00  0.4836E-07  0.0000E+00  0.2210E-09  0.0000E+00
     -6.753  0.8227E-08  0.0000E+00  0.2277E+00  0.0000E+00  0.6094E+01  0.0000E+00  0.2784E-01  0.0000E+00
     -6.726  0.1954E-09  0.3180E-06  0.4603E-02  0.6755E-07  0.1232E+00  0.2015E-06  0.5628E-03  0.5149E-09
     -6.698  0.0000E+00  0.1896E+01  0.0000E+00  0.4027E+00  0.0000E+00  0.1201E+01  0.0000E+00  0.3069E-02
     -6.671  0.0000E+00  0.8157E-02  0.0000E+00  0.1733E-02  0.0000E+00  0.1069E-01  0.0000E+00  0.9003E-04
     -6.643  0.1166E-10  0.3067E-10  0.4911E-05  0.1072E-06  0.1426E-03  0.1355E+01  0.3428E-06  0.1886E-01
     -6.616  0.1017E-05  0.0000E+00  0.4096E+00  0.0000E+00  0.1189E+02  0.0000E+00  0.2859E-01  0.0000E+00
     -6.589  0.2391E-09  0.0000E+00  0.9286E-04  0.0000E+00  0.2695E-02  0.0000E+00  0.6482E-05  0.0000E+00
     -6.561  0.0000E+00  0.0000E+00  0.0000E+00  0.0000E+00  0.0000E+00  0.0000E+00  0.0000E+00  0.0000E+00
     -6.534  0.0000E+00  0.3515E-11  0.0000E+00  0.1256E-05  0.0000E+00  0.3854E-04  0.0000E+00  0.8479E-07
     -6.507  0.3771E-13  0.1204E-05  0.2314E-14  0.4120E+00  0.7358E-15  0.1264E+02  0.5209E-17  0.2781E-01
     -6.479  0.3710E-01  0.8545E-09  0.2277E-02  0.3806E-03  0.7240E-03  0.1166E-01  0.5125E-05  0.2761E-04
     -6.452  0.1270E-01  0.1106E-06  0.7795E-03  0.3284E+00  0.2478E-03  0.1001E+02  0.1755E-05  0.2814E-01
     -6.425  0.2563E-23  0.0000E+00  0.1288E-22  0.0000E+00  0.1210E-14  0.0000E+00  0.5981E-17  0.0000E+00
     -6.397  0.2833E-08  0.0000E+00  0.1424E-07  0.0000E+00  0.1338E+01  0.0000E+00  0.6611E-02  0.0000E+00
     -6.370  0.4862E-08  0.0000E+00  0.2444E-07  0.0000E+00  0.2296E+01  0.0000E+00  0.1135E-01  0.0000E+00
     -6.343  0.0000E+00  0.0000E+00  0.0000E+00  0.0000E+00  0.0000E+00  0.0000E+00  0.0000E+00  0.0000E+00
     -6.315  0.0000E+00  0.0000E+00  0.0000E+00  0.0000E+00  0.0000E+00  0.0000E+00  0.0000E+00  0.0000E+00
     -6.288  0.0000E+00  0.6952E-09  0.0000E+00  0.3047E-08  0.0000E+00  0.3253E+00  0.0000E+00  0.1445E-02
     -6.261  0.0000E+00  0.5020E+00  0.0000E+00  0.2304E-01  0.0000E+00  0.3810E+01  0.0000E+00  0.1798E-01
     -6.233  0.0000E+00  0.2296E+00  0.0000E+00  0.1054E-01  0.0000E+00  0.6194E-01  0.0000E+00  0.7585E-03
     -6.206  0.0000E+00  0.0000E+00  0.0000E+00  0.0000E+00  0.0000E+00  0.0000E+00  0.0000E+00  0.0000E+00
     -6.179  0.2519E-10  0.0000E+00  0.1144E-11  0.0000E+00  0.1281E-10  0.0000E+00  0.1268E-12  0.0000E+00
     -6.151  0.2125E+01  0.0000E+00  0.9646E-01  0.0000E+00  0.1081E+01  0.0000E+00  0.1070E-01  0.0000E+00
     -6.124  0.3818E+00  0.0000E+00  0.1733E-01  0.0000E+00  0.1942E+00  0.0000E+00  0.1922E-02  0.0000E+00
     -6.097  0.0000E+00  0.0000E+00  0.0000E+00  0.0000E+00  0.0000E+00  0.0000E+00  0.0000E+00  0.0000E+00
     -6.069  0.0000E+00  0.0000E+00  0.0000E+00  0.0000E+00  0.0000E+00  0.0000E+00  0.0000E+00  0.0000E+00
     -6.042  0.0000E+00  0.0000E+00  0.0000E+00  0.0000E+00  0.0000E+00  0.0000E+00  0.0000E+00  0.0000E+00
     -6.015  0.6283E-07  0.0000E+00  0.8183E-08  0.0000E+00  0.2103E+00  0.0000E+00  0.3179E-03  0.0000E+00
     -5.987  0.2735E-05  0.2762E-07  0.3562E-06  0.1045E-08  0.9153E+01  0.2258E-07  0.1384E-01  0.1703E-09
     -5.960  0.1971E-15  0.1732E+01  0.9330E-10  0.6556E-01  0.3161E-08  0.1416E+01  0.4554E-11  0.1068E-01
     -5.933  0.3659E-06  0.2450E-01  0.2512E+00  0.9274E-03  0.8509E+01  0.2003E-01  0.1226E-01  0.1511E-03
     -5.905  0.2009E-07  0.0000E+00  0.1652E-01  0.0000E+00  0.5597E+00  0.0000E+00  0.8065E-03  0.0000E+00
     -5.878  0.0000E+00  0.0000E+00  0.0000E+00  0.0000E+00  0.0000E+00  0.0000E+00  0.0000E+00  0.0000E+00
     -5.851  0.0000E+00  0.0000E+00  0.0000E+00  0.0000E+00  0.0000E+00  0.0000E+00  0.0000E+00  0.0000E+00
     -5.823  0.0000E+00  0.0000E+00  0.0000E+00  0.0000E+00  0.0000E+00  0.0000E+00  0.0000E+00  0.0000E+00
     -5.796  0.0000E+00  0.0000E+00  0.0000E+00  0.0000E+00  0.0000E+00  0.0000E+00  0.0000E+00  0.0000E+00
     -5.769  0.0000E+00  0.0000E+00  0.0000E+00  0.0000E+00  0.0000E+00  0.0000E+00  0.0000E+00  0.0000E+00
     -5.741  0.0000E+00  0.0000E+00  0.0000E+00  0.0000E+00  0.0000E+00  0.0000E+00  0.0000E+00  0.0000E+00
     -5.714  0.0000E+00  0.8296E-08  0.0000E+00  0.2341E-08  0.0000E+00  0.9295E-01  0.0000E+00  0.1448E-03
     -5.687  0.0000E+00  0.8389E-06  0.0000E+00  0.2367E-06  0.0000E+00  0.9398E+01  0.0000E+00  0.1465E-01
     -5.659  0.0000E+00  0.1673E-09  0.0000E+00  0.1366E-03  0.0000E+00  0.6264E-02  0.0000E+00  0.1171E-04
     -5.632  0.0000E+00  0.1486E-06  0.0000E+00  0.1612E+00  0.0000E+00  0.7392E+01  0.0000E+00  0.1381E-01
     -5.605  0.0000E+00  0.0000E+00  0.0000E+00  0.0000E+00  0.0000E+00  0.0000E+00  0.0000E+00  0.0000E+00
     -5.577  0.0000E+00  0.0000E+00  0.0000E+00  0.0000E+00  0.0000E+00  0.0000E+00  0.0000E+00  0.0000E+00
     -5.550  0.0000E+00  0.0000E+00  0.0000E+00  0.0000E+00  0.0000E+00  0.0000E+00  0.0000E+00  0.0000E+00
     -5.523  0.3878E-08  0.0000E+00  0.1610E-09  0.0000E+00  0.2931E+01  0.0000E+00  0.3462E-02  0.0000E+00
     -5.495  0.1143E-07  0.0000E+00  0.4744E-09  0.0000E+00  0.8639E+01  0.0000E+00  0.1020E-01  0.0000E+00
     -5.468  0.0000E+00  0.0000E+00  0.0000E+00  0.0000E+00  0.0000E+00  0.0000E+00  0.0000E+00  0.0000E+00
     -5.441  0.0000E+00  0.0000E+00  0.0000E+00  0.0000E+00  0.0000E+00  0.0000E+00  0.0000E+00  0.0000E+00
     -5.413  0.0000E+00  0.0000E+00  0.0000E+00  0.0000E+00  0.0000E+00  0.0000E+00  0.0000E+00  0.0000E+00
     -5.386  0.0000E+00  0.0000E+00  0.0000E+00  0.0000E+00  0.0000E+00  0.0000E+00  0.0000E+00  0.0000E+00
     -5.359  0.2704E-11  0.0000E+00  0.1427E-04  0.0000E+00  0.5895E-04  0.0000E+00  0.1651E-05  0.0000E+00
     -5.331  0.3265E-07  0.0000E+00  0.1749E+00  0.0000E+00  0.7227E+00  0.0000E+00  0.2024E-01  0.0000E+00
     -5.304  0.0000E+00  0.0000E+00  0.0000E+00  0.0000E+00  0.0000E+00  0.0000E+00  0.0000E+00  0.0000E+00
     -5.277  0.0000E+00  0.4311E-16  0.0000E+00  0.3653E-18  0.0000E+00  0.1198E-07  0.0000E+00  0.1827E-10
     -5.249  0.0000E+00  0.3714E-07  0.0000E+00  0.3147E-09  0.0000E+00  0.1032E+02  0.0000E+00  0.1574E-01
     -5.222  0.0000E+00  0.1544E-08  0.0000E+00  0.1308E-10  0.0000E+00  0.4288E+00  0.0000E+00  0.6543E-03
     -5.195  0.0000E+00  0.5462E-11  0.0000E+00  0.3740E-04  0.0000E+00  0.1690E-03  0.0000E+00  0.4600E-05
     -5.167  0.0000E+00  0.2673E-07  0.0000E+00  0.1824E+00  0.0000E+00  0.8239E+00  0.0000E+00  0.2243E-01
     -5.140  0.0000E+00  0.0000E+00  0.0000E+00  0.0000E+00  0.0000E+00  0.0000E+00  0.0000E+00  0.0000E+00
     -5.113  0.0000E+00  0.0000E+00  0.0000E+00  0.0000E+00  0.0000E+00  0.0000E+00  0.0000E+00  0.0000E+00
     -5.085  0.0000E+00  0.0000E+00  0.0000E+00  0.0000E+00  0.0000E+00  0.0000E+00  0.0000E+00  0.0000E+00
     -5.058  0.0000E+00  0.0000E+00  0.0000E+00  0.0000E+00  0.0000E+00  0.0000E+00  0.0000E+00  0.0000E+00
     -5.031  0.6531E-15  0.0000E+00  0.6346E-09  0.0000E+00  0.4708E-07  0.0000E+00  0.3342E-09  0.0000E+00
     -5.003  0.3052E-07  0.0000E+00  0.3687E-01  0.0000E+00  0.2736E+01  0.0000E+00  0.1942E-01  0.0000E+00
     -4.976  0.3774E-09  0.0000E+00  0.5142E-03  0.0000E+00  0.3815E-01  0.0000E+00  0.2708E-03  0.0000E+00
     -4.949  0.0000E+00  0.0000E+00  0.0000E+00  0.0000E+00  0.0000E+00  0.0000E+00  0.0000E+00  0.0000E+00
     -4.921  0.0000E+00  0.0000E+00  0.0000E+00  0.0000E+00  0.0000E+00  0.0000E+00  0.0000E+00  0.0000E+00
     -4.894  0.2368E-02  0.0000E+00  0.1355E-03  0.0000E+00  0.5650E-01  0.0000E+00  0.4051E-06  0.0000E+00
     -4.867  0.6232E+00  0.1260E-10  0.3566E-01  0.3087E-05  0.1487E+02  0.1920E-03  0.1066E-03  0.1184E-05
     -4.839  0.2835E-09  0.1772E-06  0.2527E-09  0.5097E-01  0.5975E+01  0.3171E+01  0.2211E-03  0.1955E-01
     -4.812  0.4515E-09  0.4126E-02  0.4024E-09  0.2413E-03  0.9514E+01  0.9400E-01  0.3521E-03  0.6982E-06
     -4.785  0.0000E+00  0.6454E+00  0.0000E+00  0.3775E-01  0.0000E+00  0.1470E+02  0.0000E+00  0.1092E-03
     -4.757  0.0000E+00  0.2982E-09  0.0000E+00  0.3547E-09  0.0000E+00  0.6090E+01  0.0000E+00  0.5076E-03
     -4.730  0.0000E+00  0.4353E-09  0.0000E+00  0.5177E-09  0.0000E+00  0.8888E+01  0.0000E+00  0.7408E-03
     -4.703  0.0000E+00  0.0000E+00  0.0000E+00  0.0000E+00  0.0000E+00  0.0000E+00  0.0000E+00  0.0000E+00
     -4.675  0.0000E+00  0.0000E+00  0.0000E+00  0.0000E+00  0.0000E+00  0.0000E+00  0.0000E+00  0.0000E+00
     -4.648  0.0000E+00  0.0000E+00  0.0000E+00  0.0000E+00  0.0000E+00  0.0000E+00  0.0000E+00  0.0000E+00
     -4.621  0.0000E+00  0.0000E+00  0.0000E+00  0.0000E+00  0.0000E+00  0.0000E+00  0.0000E+00  0.0000E+00
     -4.593  0.0000E+00  0.0000E+00  0.0000E+00  0.0000E+00  0.0000E+00  0.0000E+00  0.0000E+00  0.0000E+00
     -4.566  0.0000E+00  0.0000E+00  0.0000E+00  0.0000E+00  0.0000E+00  0.0000E+00  0.0000E+00  0.0000E+00
     -4.539  0.0000E+00  0.0000E+00  0.0000E+00  0.0000E+00  0.0000E+00  0.0000E+00  0.0000E+00  0.0000E+00
     -4.511  0.9044E-20  0.0000E+00  0.1615E-17  0.0000E+00  0.1310E-13  0.0000E+00  0.2760E-17  0.0000E+00
     -4.484  0.1276E-10  0.0000E+00  0.2278E-08  0.0000E+00  0.1847E-04  0.0000E+00  0.3893E-08  0.0000E+00
     -4.457  0.3709E-07  0.0000E+00  0.9976E-07  0.0000E+00  0.1709E+00  0.0000E+00  0.4788E-03  0.0000E+00
     -4.429  0.1475E-07  0.0000E+00  0.3962E-07  0.0000E+00  0.6797E-01  0.0000E+00  0.1904E-03  0.0000E+00
     -4.402  0.1507E-06  0.0000E+00  0.2333E-07  0.0000E+00  0.3170E+01  0.0000E+00  0.1524E-01  0.0000E+00
     -4.375  0.8908E-07  0.0000E+00  0.1631E-06  0.0000E+00  0.1876E+01  0.0000E+00  0.9007E-02  0.0000E+00
     -4.347  0.5893E-02  0.0000E+00  0.2073E+00  0.0000E+00  0.3803E+02  0.0000E+00  0.2084E-01  0.0000E+00
     -4.320  0.7331E-03  0.1798E-16  0.5099E-02  0.2290E-11  0.1410E+01  0.5264E-06  0.1127E-02  0.3176E-09
     -4.293  0.2908E-13  0.3372E-13  0.8004E-10  0.2174E-08  0.6035E-08  0.1260E+00  0.2677E-11  0.8880E-04
     -4.265  0.0000E+00  0.3785E-06  0.0000E+00  0.8716E-06  0.0000E+00  0.1314E+02  0.0000E+00  0.9995E-02
     -4.238  0.0000E+00  0.8726E-07  0.0000E+00  0.2673E-06  0.0000E+00  0.4094E-02  0.0000E+00  0.1728E-04
     -4.211  0.0000E+00  0.1747E-01  0.0000E+00  0.5475E-01  0.0000E+00  0.1216E+02  0.0000E+00  0.1146E-01
     -4.183  0.0000E+00  0.8595E-05  0.0000E+00  0.2694E-04  0.0000E+00  0.7963E-02  0.0000E+00  0.1326E-04
     -4.156  0.0000E+00  0.1494E-06  0.0000E+00  0.2625E-07  0.0000E+00  0.5759E+01  0.0000E+00  0.2220E-01
     -4.129  0.0000E+00  0.0000E+00  0.0000E+00  0.0000E+00  0.0000E+00  0.0000E+00  0.0000E+00  0.0000E+00
     -4.101  0.0000E+00  0.0000E+00  0.0000E+00  0.0000E+00  0.0000E+00  0.0000E+00  0.0000E+00  0.0000E+00
     -4.074  0.0000E+00  0.0000E+00  0.0000E+00  0.0000E+00  0.0000E+00  0.0000E+00  0.0000E+00  0.0000E+00
     -4.047  0.0000E+00  0.2178E-11  0.0000E+00  0.3145E-03  0.0000E+00  0.1021E-01  0.0000E+00  0.5120E-05
     -4.019  0.0000E+00  0.2996E-08  0.0000E+00  0.3773E+00  0.0000E+00  0.1224E+02  0.0000E+00  0.6142E-02
     -3.992  0.8386E-25  0.0000E+00  0.1707E-15  0.0000E+00  0.1563E-13  0.0000E+00  0.2931E-16  0.0000E+00
     -3.965  0.4113E-10  0.0000E+00  0.8564E-01  0.0000E+00  0.7844E+01  0.0000E+00  0.1471E-01  0.0000E+00
     -3.937  0.6037E-10  0.0000E+00  0.1264E+00  0.0000E+00  0.1158E+02  0.0000E+00  0.2172E-01  0.0000E+00
     -3.910  0.5615E-13  0.0000E+00  0.4887E-14  0.0000E+00  0.1301E-04  0.0000E+00  0.3736E-07  0.0000E+00
     -3.883  0.3027E-07  0.0000E+00  0.2635E-08  0.0000E+00  0.7014E+01  0.0000E+00  0.2014E-01  0.0000E+00
     -3.855  0.2886E-10  0.2163E-11  0.2512E-11  0.4613E-02  0.6687E-02  0.3652E+00  0.1920E-04  0.8024E-03
     -3.828  0.0000E+00  0.1010E-09  0.0000E+00  0.2261E+00  0.0000E+00  0.1790E+02  0.0000E+00  0.3933E-01
     -3.801  0.0000E+00  0.0000E+00  0.0000E+00  0.0000E+00  0.0000E+00  0.0000E+00  0.0000E+00  0.0000E+00
     -3.773  0.0000E+00  0.0000E+00  0.0000E+00  0.0000E+00  0.0000E+00  0.0000E+00  0.0000E+00  0.0000E+00
     -3.746  0.0000E+00  0.1896E-12  0.0000E+00  0.2307E-10  0.0000E+00  0.8798E-09  0.0000E+00  0.1014E-10
     -3.718  0.0000E+00  0.9809E-11  0.0000E+00  0.1193E-08  0.0000E+00  0.4551E-07  0.0000E+00  0.5247E-09
     -3.691  0.0000E+00  0.0000E+00  0.0000E+00  0.0000E+00  0.0000E+00  0.0000E+00  0.0000E+00  0.0000E+00
     -3.664  0.0000E+00  0.0000E+00  0.0000E+00  0.0000E+00  0.0000E+00  0.0000E+00  0.0000E+00  0.0000E+00
     -3.636  0.0000E+00  0.0000E+00  0.0000E+00  0.0000E+00  0.0000E+00  0.0000E+00  0.0000E+00  0.0000E+00
     -3.609  0.0000E+00  0.0000E+00  0.0000E+00  0.0000E+00  0.0000E+00  0.0000E+00  0.0000E+00  0.0000E+00
     -3.582  0.0000E+00  0.0000E+00  0.0000E+00  0.0000E+00  0.0000E+00  0.0000E+00  0.0000E+00  0.0000E+00
     -3.554  0.0000E+00  0.0000E+00  0.0000E+00  0.0000E+00  0.0000E+00  0.0000E+00  0.0000E+00  0.0000E+00
     -3.527  0.0000E+00  0.0000E+00  0.0000E+00  0.0000E+00  0.0000E+00  0.0000E+00  0.0000E+00  0.0000E+00
     -3.500  0.0000E+00  0.9704E-12  0.0000E+00  0.6458E-13  0.0000E+00  0.2217E-03  0.0000E+00  0.7041E-06
     -3.472  0.0000E+00  0.3000E-07  0.0000E+00  0.1997E-08  0.0000E+00  0.6855E+01  0.0000E+00  0.2177E-01
     -3.445  0.0000E+00  0.0000E+00  0.0000E+00  0.0000E+00  0.0000E+00  0.0000E+00  0.0000E+00  0.0000E+00
     -3.418  0.0000E+00  0.0000E+00  0.0000E+00  0.0000E+00  0.0000E+00  0.0000E+00  0.0000E+00  0.0000E+00
     -3.390  0.0000E+00  0.0000E+00  0.0000E+00  0.0000E+00  0.0000E+00  0.0000E+00  0.0000E+00  0.0000E+00
     -3.363  0.0000E+00  0.0000E+00  0.0000E+00  0.0000E+00  0.0000E+00  0.0000E+00  0.0000E+00  0.0000E+00
     -3.336  0.0000E+00  0.0000E+00  0.0000E+00  0.0000E+00  0.0000E+00  0.0000E+00  0.0000E+00  0.0000E+00
     -3.308  0.0000E+00  0.0000E+00  0.0000E+00  0.0000E+00  0.0000E+00  0.0000E+00  0.0000E+00  0.0000E+00
     -3.281  0.0000E+00  0.0000E+00  0.0000E+00  0.0000E+00  0.0000E+00  0.0000E+00  0.0000E+00  0.0000E+00
     -3.254  0.0000E+00  0.0000E+00  0.0000E+00  0.0000E+00  0.0000E+00  0.0000E+00  0.0000E+00  0.0000E+00
     -3.226  0.0000E+00  0.0000E+00  0.0000E+00  0.0000E+00  0.0000E+00  0.0000E+00  0.0000E+00  0.0000E+00
     -3.199  0.0000E+00  0.0000E+00  0.0000E+00  0.0000E+00  0.0000E+00  0.0000E+00  0.0000E+00  0.0000E+00
     -3.172  0.0000E+00  0.0000E+00  0.0000E+00  0.0000E+00  0.0000E+00  0.0000E+00  0.0000E+00  0.0000E+00
     -3.144  0.0000E+00  0.0000E+00  0.0000E+00  0.0000E+00  0.0000E+00  0.0000E+00  0.0000E+00  0.0000E+00
     -3.117  0.3027E-14  0.0000E+00  0.1056E-07  0.0000E+00  0.3162E-07  0.0000E+00  0.4563E-10  0.0000E+00
     -3.090  0.4426E-06  0.0000E+00  0.1223E+01  0.0000E+00  0.3661E+01  0.0000E+00  0.5283E-02  0.0000E+00
     -3.062  0.1590E+01  0.1280E-10  0.1289E+00  0.9897E-12  0.4466E+00  0.3265E-11  0.4200E-03  0.2633E-14
     -3.035  0.2332E+01  0.3029E+01  0.1552E+00  0.2342E+00  0.5535E+00  0.7725E+00  0.4696E-03  0.6232E-03
     -3.008  0.0000E+00  0.7196E+00  0.0000E+00  0.5563E-01  0.0000E+00  0.1835E+00  0.0000E+00  0.1480E-03
     -2.980  0.0000E+00  0.1720E-08  0.0000E+00  0.3938E-01  0.0000E+00  0.9456E-01  0.0000E+00  0.1461E-03
     -2.953  0.0000E+00  0.5100E-07  0.0000E+00  0.1076E+01  0.0000E+00  0.2585E+01  0.0000E+00  0.3994E-02
     -2.926  0.0000E+00  0.0000E+00  0.0000E+00  0.0000E+00  0.0000E+00  0.0000E+00  0.0000E+00  0.0000E+00
     -2.898  0.0000E+00  0.0000E+00  0.0000E+00  0.0000E+00  0.0000E+00  0.0000E+00  0.0000E+00  0.0000E+00
     -2.871  0.0000E+00  0.0000E+00  0.0000E+00  0.0000E+00  0.0000E+00  0.0000E+00  0.0000E+00  0.0000E+00
     -2.844  0.0000E+00  0.0000E+00  0.0000E+00  0.0000E+00  0.0000E+00  0.0000E+00  0.0000E+00  0.0000E+00
     -2.816  0.0000E+00  0.0000E+00  0.0000E+00  0.0000E+00  0.0000E+00  0.0000E+00  0.0000E+00  0.0000E+00
     -2.789  0.0000E+00  0.0000E+00  0.0000E+00  0.0000E+00  0.0000E+00  0.0000E+00  0.0000E+00  0.0000E+00
     -2.762  0.0000E+00  0.0000E+00  0.0000E+00  0.0000E+00  0.0000E+00  0.0000E+00  0.0000E+00  0.0000E+00
     -2.734  0.0000E+00  0.0000E+00  0.0000E+00  0.0000E+00  0.0000E+00  0.0000E+00  0.0000E+00  0.0000E+00
     -2.707  0.0000E+00  0.0000E+00  0.0000E+00  0.0000E+00  0.0000E+00  0.0000E+00  0.0000E+00  0.0000E+00
     -2.680  0.0000E+00  0.0000E+00  0.0000E+00  0.0000E+00  0.0000E+00  0.0000E+00  0.0000E+00  0.0000E+00
     -2.652  0.0000E+00  0.0000E+00  0.0000E+00  0.0000E+00  0.0000E+00  0.0000E+00  0.0000E+00  0.0000E+00
     -2.625  0.0000E+00  0.0000E+00  0.0000E+00  0.0000E+00  0.0000E+00  0.0000E+00  0.0000E+00  0.0000E+00
     -2.598  0.0000E+00  0.0000E+00  0.0000E+00  0.0000E+00  0.0000E+00  0.0000E+00  0.0000E+00  0.0000E+00
     -2.570  0.0000E+00  0.0000E+00  0.0000E+00  0.0000E+00  0.0000E+00  0.0000E+00  0.0000E+00  0.0000E+00
     -2.543  0.0000E+00  0.0000E+00  0.0000E+00  0.0000E+00  0.0000E+00  0.0000E+00  0.0000E+00  0.0000E+00
     -2.516  0.0000E+00  0.0000E+00  0.0000E+00  0.0000E+00  0.0000E+00  0.0000E+00  0.0000E+00  0.0000E+00
     -2.488  0.0000E+00  0.0000E+00  0.0000E+00  0.0000E+00  0.0000E+00  0.0000E+00  0.0000E+00  0.0000E+00
     -2.461  0.0000E+00  0.0000E+00  0.0000E+00  0.0000E+00  0.0000E+00  0.0000E+00  0.0000E+00  0.0000E+00
     -2.434  0.0000E+00  0.0000E+00  0.0000E+00  0.0000E+00  0.0000E+00  0.0000E+00  0.0000E+00  0.0000E+00
     -2.406  0.0000E+00  0.0000E+00  0.0000E+00  0.0000E+00  0.0000E+00  0.0000E+00  0.0000E+00  0.0000E+00
     -2.379  0.0000E+00  0.0000E+00  0.0000E+00  0.0000E+00  0.0000E+00  0.0000E+00  0.0000E+00  0.0000E+00
     -2.352  0.0000E+00  0.0000E+00  0.0000E+00  0.0000E+00  0.0000E+00  0.0000E+00  0.0000E+00  0.0000E+00
     -2.324  0.0000E+00  0.0000E+00  0.0000E+00  0.0000E+00  0.0000E+00  0.0000E+00  0.0000E+00  0.0000E+00
     -2.297  0.0000E+00  0.0000E+00  0.0000E+00  0.0000E+00  0.0000E+00  0.0000E+00  0.0000E+00  0.0000E+00
     -2.270  0.0000E+00  0.0000E+00  0.0000E+00  0.0000E+00  0.0000E+00  0.0000E+00  0.0000E+00  0.0000E+00
     -2.242  0.0000E+00  0.0000E+00  0.0000E+00  0.0000E+00  0.0000E+00  0.0000E+00  0.0000E+00  0.0000E+00
     -2.215  0.0000E+00  0.0000E+00  0.0000E+00  0.0000E+00  0.0000E+00  0.0000E+00  0.0000E+00  0.0000E+00
     -2.188  0.0000E+00  0.0000E+00  0.0000E+00  0.0000E+00  0.0000E+00  0.0000E+00  0.0000E+00  0.0000E+00
     -2.160  0.0000E+00  0.0000E+00  0.0000E+00  0.0000E+00  0.0000E+00  0.0000E+00  0.0000E+00  0.0000E+00
     -2.133  0.0000E+00  0.0000E+00  0.0000E+00  0.0000E+00  0.0000E+00  0.0000E+00  0.0000E+00  0.0000E+00
     -2.106  0.0000E+00  0.0000E+00  0.0000E+00  0.0000E+00  0.0000E+00  0.0000E+00  0.0000E+00  0.0000E+00
     -2.078  0.0000E+00  0.0000E+00  0.0000E+00  0.0000E+00  0.0000E+00  0.0000E+00  0.0000E+00  0.0000E+00
     -2.051  0.0000E+00  0.0000E+00  0.0000E+00  0.0000E+00  0.0000E+00  0.0000E+00  0.0000E+00  0.0000E+00
     -2.024  0.0000E+00  0.0000E+00  0.0000E+00  0.0000E+00  0.0000E+00  0.0000E+00  0.0000E+00  0.0000E+00
     -1.996  0.0000E+00  0.0000E+00  0.0000E+00  0.0000E+00  0.0000E+00  0.0000E+00  0.0000E+00  0.0000E+00
     -1.969  0.0000E+00  0.0000E+00  0.0000E+00  0.0000E+00  0.0000E+00  0.0000E+00  0.0000E+00  0.0000E+00
     -1.942  0.0000E+00  0.0000E+00  0.0000E+00  0.0000E+00  0.0000E+00  0.0000E+00  0.0000E+00  0.0000E+00
     -1.914  0.0000E+00  0.0000E+00  0.0000E+00  0.0000E+00  0.0000E+00  0.0000E+00  0.0000E+00  0.0000E+00
     -1.887  0.0000E+00  0.0000E+00  0.0000E+00  0.0000E+00  0.0000E+00  0.0000E+00  0.0000E+00  0.0000E+00
     -1.860  0.0000E+00  0.0000E+00  0.0000E+00  0.0000E+00  0.0000E+00  0.0000E+00  0.0000E+00  0.0000E+00
     -1.832  0.0000E+00  0.0000E+00  0.0000E+00  0.0000E+00  0.0000E+00  0.0000E+00  0.0000E+00  0.0000E+00
     -1.805  0.0000E+00  0.0000E+00  0.0000E+00  0.0000E+00  0.0000E+00  0.0000E+00  0.0000E+00  0.0000E+00
     -1.778  0.0000E+00  0.0000E+00  0.0000E+00  0.0000E+00  0.0000E+00  0.0000E+00  0.0000E+00  0.0000E+00
     -1.750  0.0000E+00  0.0000E+00  0.0000E+00  0.0000E+00  0.0000E+00  0.0000E+00  0.0000E+00  0.0000E+00
     -1.723  0.0000E+00  0.0000E+00  0.0000E+00  0.0000E+00  0.0000E+00  0.0000E+00  0.0000E+00  0.0000E+00
     -1.696  0.0000E+00  0.0000E+00  0.0000E+00  0.0000E+00  0.0000E+00  0.0000E+00  0.0000E+00  0.0000E+00
     -1.668  0.0000E+00  0.0000E+00  0.0000E+00  0.0000E+00  0.0000E+00  0.0000E+00  0.0000E+00  0.0000E+00
     -1.641  0.0000E+00  0.0000E+00  0.0000E+00  0.0000E+00  0.0000E+00  0.0000E+00  0.0000E+00  0.0000E+00
     -1.614  0.0000E+00  0.0000E+00  0.0000E+00  0.0000E+00  0.0000E+00  0.0000E+00  0.0000E+00  0.0000E+00
     -1.586  0.0000E+00  0.0000E+00  0.0000E+00  0.0000E+00  0.0000E+00  0.0000E+00  0.0000E+00  0.0000E+00
     -1.559  0.0000E+00  0.0000E+00  0.0000E+00  0.0000E+00  0.0000E+00  0.0000E+00  0.0000E+00  0.0000E+00
     -1.532  0.0000E+00  0.0000E+00  0.0000E+00  0.0000E+00  0.0000E+00  0.0000E+00  0.0000E+00  0.0000E+00
     -1.504  0.0000E+00  0.0000E+00  0.0000E+00  0.0000E+00  0.0000E+00  0.0000E+00  0.0000E+00  0.0000E+00
     -1.477  0.0000E+00  0.0000E+00  0.0000E+00  0.0000E+00  0.0000E+00  0.0000E+00  0.0000E+00  0.0000E+00
     -1.450  0.0000E+00  0.0000E+00  0.0000E+00  0.0000E+00  0.0000E+00  0.0000E+00  0.0000E+00  0.0000E+00
     -1.422  0.0000E+00  0.0000E+00  0.0000E+00  0.0000E+00  0.0000E+00  0.0000E+00  0.0000E+00  0.0000E+00
     -1.395  0.0000E+00  0.0000E+00  0.0000E+00  0.0000E+00  0.0000E+00  0.0000E+00  0.0000E+00  0.0000E+00
     -1.368  0.0000E+00  0.0000E+00  0.0000E+00  0.0000E+00  0.0000E+00  0.0000E+00  0.0000E+00  0.0000E+00
     -1.340  0.0000E+00  0.0000E+00  0.0000E+00  0.0000E+00  0.0000E+00  0.0000E+00  0.0000E+00  0.0000E+00
     -1.313  0.0000E+00  0.0000E+00  0.0000E+00  0.0000E+00  0.0000E+00  0.0000E+00  0.0000E+00  0.0000E+00
     -1.286  0.0000E+00  0.0000E+00  0.0000E+00  0.0000E+00  0.0000E+00  0.0000E+00  0.0000E+00  0.0000E+00
     -1.258  0.0000E+00  0.0000E+00  0.0000E+00  0.0000E+00  0.0000E+00  0.0000E+00  0.0000E+00  0.0000E+00
     -1.231  0.0000E+00  0.0000E+00  0.0000E+00  0.0000E+00  0.0000E+00  0.0000E+00  0.0000E+00  0.0000E+00
     -1.204  0.2704E-05  0.0000E+00  0.9645E-06  0.0000E+00  0.1623E-06  0.0000E+00  0.4849E-08  0.0000E+00
     -1.176  0.2636E+01  0.3224E-14  0.9402E+00  0.1747E-14  0.1582E+00  0.1748E-15  0.4726E-02  0.5716E-17
     -1.149  0.3802E-02  0.1008E+01  0.1363E-02  0.5461E+00  0.4255E+00  0.5467E-01  0.3149E-02  0.1787E-02
     -1.122  0.1696E-04  0.1315E+01  0.9118E-05  0.7124E+00  0.1843E+00  0.7131E-01  0.1362E-02  0.2332E-02
     -1.094  0.0000E+00  0.0000E+00  0.0000E+00  0.0000E+00  0.0000E+00  0.0000E+00  0.0000E+00  0.0000E+00
     -1.067  0.0000E+00  0.0000E+00  0.0000E+00  0.0000E+00  0.0000E+00  0.0000E+00  0.0000E+00  0.0000E+00
     -1.040  0.0000E+00  0.1393E-16  0.0000E+00  0.1587E-15  0.0000E+00  0.1573E-10  0.0000E+00  0.8903E-13
     -1.012  0.0000E+00  0.4878E-06  0.0000E+00  0.5557E-05  0.0000E+00  0.5506E+00  0.0000E+00  0.3117E-02
     -0.985  0.0000E+00  0.6826E-07  0.0000E+00  0.7776E-06  0.0000E+00  0.7705E-01  0.0000E+00  0.4362E-03
     -0.958  0.0000E+00  0.0000E+00  0.0000E+00  0.0000E+00  0.0000E+00  0.0000E+00  0.0000E+00  0.0000E+00
     -0.930  0.2101E-10  0.0000E+00  0.2299E-09  0.0000E+00  0.5624E-10  0.0000E+00  0.2755E-12  0.0000E+00
     -0.903  0.9071E-01  0.3705E-15  0.9926E+00  0.8937E-15  0.2429E+00  0.3802E-15  0.1190E-02  0.2361E-17
     -0.876  0.6633E-02  0.1291E+00  0.7259E-01  0.3115E+00  0.1776E-01  0.1325E+00  0.8701E-04  0.8228E-03
     -0.848  0.0000E+00  0.1743E+00  0.0000E+00  0.4203E+00  0.0000E+00  0.1788E+00  0.0000E+00  0.1110E-02
     -0.821  0.0000E+00  0.0000E+00  0.0000E+00  0.0000E+00  0.0000E+00  0.0000E+00  0.0000E+00  0.0000E+00
     -0.793  0.0000E+00  0.0000E+00  0.0000E+00  0.0000E+00  0.0000E+00  0.0000E+00  0.0000E+00  0.0000E+00
     -0.766  0.0000E+00  0.0000E+00  0.0000E+00  0.0000E+00  0.0000E+00  0.0000E+00  0.0000E+00  0.0000E+00
     -0.739  0.0000E+00  0.0000E+00  0.0000E+00  0.0000E+00  0.0000E+00  0.0000E+00  0.0000E+00  0.0000E+00
     -0.711  0.0000E+00  0.0000E+00  0.0000E+00  0.0000E+00  0.0000E+00  0.0000E+00  0.0000E+00  0.0000E+00
     -0.684  0.0000E+00  0.0000E+00  0.0000E+00  0.0000E+00  0.0000E+00  0.0000E+00  0.0000E+00  0.0000E+00
     -0.657  0.0000E+00  0.0000E+00  0.0000E+00  0.0000E+00  0.0000E+00  0.0000E+00  0.0000E+00  0.0000E+00
     -0.629  0.0000E+00  0.0000E+00  0.0000E+00  0.0000E+00  0.0000E+00  0.0000E+00  0.0000E+00  0.0000E+00
     -0.602  0.0000E+00  0.0000E+00  0.0000E+00  0.0000E+00  0.0000E+00  0.0000E+00  0.0000E+00  0.0000E+00
     -0.575  0.0000E+00  0.0000E+00  0.0000E+00  0.0000E+00  0.0000E+00  0.0000E+00  0.0000E+00  0.0000E+00
     -0.547  0.6546E-13  0.0000E+00  0.3332E-13  0.0000E+00  0.2716E-04  0.0000E+00  0.5094E-06  0.0000E+00
     -0.520  0.1866E-08  0.0000E+00  0.9497E-09  0.0000E+00  0.7743E+00  0.0000E+00  0.1452E-01  0.0000E+00
     -0.493  0.0000E+00  0.0000E+00  0.0000E+00  0.0000E+00  0.0000E+00  0.0000E+00  0.0000E+00  0.0000E+00
     -0.465  0.0000E+00  0.7960E-10  0.0000E+00  0.2954E-09  0.0000E+00  0.2317E-01  0.0000E+00  0.4228E-03
     -0.438  0.1708E-10  0.3783E-08  0.9258E-02  0.4581E+00  0.1283E-05  0.7504E+00  0.1642E-04  0.1445E-01
     -0.411  0.6890E-08  0.8359E-08  0.3637E+01  0.3130E+01  0.5041E-03  0.8689E-04  0.6451E-02  0.5169E-02
     -0.383  0.0000E+00  0.0000E+00  0.0000E+00  0.0000E+00  0.0000E+00  0.0000E+00  0.0000E+00  0.0000E+00
     -0.356  0.0000E+00  0.0000E+00  0.0000E+00  0.0000E+00  0.0000E+00  0.0000E+00  0.0000E+00  0.0000E+00
     -0.329  0.0000E+00  0.0000E+00  0.0000E+00  0.0000E+00  0.0000E+00  0.0000E+00  0.0000E+00  0.0000E+00
     -0.301  0.0000E+00  0.0000E+00  0.0000E+00  0.0000E+00  0.0000E+00  0.0000E+00  0.0000E+00  0.0000E+00
     -0.274  0.0000E+00  0.0000E+00  0.0000E+00  0.0000E+00  0.0000E+00  0.0000E+00  0.0000E+00  0.0000E+00
     -0.247  0.0000E+00  0.0000E+00  0.0000E+00  0.0000E+00  0.0000E+00  0.0000E+00  0.0000E+00  0.0000E+00
     -0.219  0.0000E+00  0.0000E+00  0.0000E+00  0.0000E+00  0.0000E+00  0.0000E+00  0.0000E+00  0.0000E+00
     -0.192  0.0000E+00  0.0000E+00  0.0000E+00  0.0000E+00  0.0000E+00  0.0000E+00  0.0000E+00  0.0000E+00
     -0.165  0.0000E+00  0.0000E+00  0.0000E+00  0.0000E+00  0.0000E+00  0.0000E+00  0.0000E+00  0.0000E+00
     -0.137  0.0000E+00  0.0000E+00  0.0000E+00  0.0000E+00  0.0000E+00  0.0000E+00  0.0000E+00  0.0000E+00
     -0.110  0.0000E+00  0.0000E+00  0.0000E+00  0.0000E+00  0.0000E+00  0.0000E+00  0.0000E+00  0.0000E+00
     -0.083  0.0000E+00  0.0000E+00  0.0000E+00  0.0000E+00  0.0000E+00  0.0000E+00  0.0000E+00  0.0000E+00
     -0.055  0.0000E+00  0.0000E+00  0.0000E+00  0.0000E+00  0.0000E+00  0.0000E+00  0.0000E+00  0.0000E+00
     -0.05541529     -8.25634583  301     -3.82100923      1.00000000
     -8.256  0.0000E+00  0.0000E+00  0.0000E+00  0.0000E+00  0.0000E+00  0.0000E+00  0.0000E+00  0.0000E+00
     -8.229  0.0000E+00  0.0000E+00  0.0000E+00  0.0000E+00  0.0000E+00  0.0000E+00  0.0000E+00  0.0000E+00
     -8.202  0.0000E+00  0.0000E+00  0.0000E+00  0.0000E+00  0.0000E+00  0.0000E+00  0.0000E+00  0.0000E+00
     -8.174  0.0000E+00  0.0000E+00  0.0000E+00  0.0000E+00  0.0000E+00  0.0000E+00  0.0000E+00  0.0000E+00
     -8.147  0.0000E+00  0.0000E+00  0.0000E+00  0.0000E+00  0.0000E+00  0.0000E+00  0.0000E+00  0.0000E+00
     -8.120  0.0000E+00  0.0000E+00  0.0000E+00  0.0000E+00  0.0000E+00  0.0000E+00  0.0000E+00  0.0000E+00
     -8.092  0.0000E+00  0.0000E+00  0.0000E+00  0.0000E+00  0.0000E+00  0.0000E+00  0.0000E+00  0.0000E+00
     -8.065  0.0000E+00  0.0000E+00  0.0000E+00  0.0000E+00  0.0000E+00  0.0000E+00  0.0000E+00  0.0000E+00
     -8.038  0.0000E+00  0.0000E+00  0.0000E+00  0.0000E+00  0.0000E+00  0.0000E+00  0.0000E+00  0.0000E+00
     -8.010  0.0000E+00  0.0000E+00  0.0000E+00  0.0000E+00  0.0000E+00  0.0000E+00  0.0000E+00  0.0000E+00
     -7.983  0.0000E+00  0.0000E+00  0.0000E+00  0.0000E+00  0.0000E+00  0.0000E+00  0.0000E+00  0.0000E+00
     -7.956  0.0000E+00  0.0000E+00  0.0000E+00  0.0000E+00  0.0000E+00  0.0000E+00  0.0000E+00  0.0000E+00
     -7.928  0.0000E+00  0.0000E+00  0.0000E+00  0.0000E+00  0.0000E+00  0.0000E+00  0.0000E+00  0.0000E+00
     -7.901  0.6383E-06  0.0000E+00  0.2545E-06  0.0000E+00  0.1727E-05  0.0000E+00  0.4729E-08  0.0000E+00
     -7.874  0.1474E+01  0.0000E+00  0.5877E+00  0.0000E+00  0.3986E+01  0.0000E+00  0.1092E-01  0.0000E+00
     -7.846  0.3641E-02  0.0000E+00  0.1452E-02  0.0000E+00  0.9850E-02  0.0000E+00  0.2698E-04  0.0000E+00
     -7.819  0.0000E+00  0.3526E+00  0.0000E+00  0.1415E+00  0.0000E+00  0.8520E+00  0.0000E+00  0.2473E-02
     -7.792  0.0000E+00  0.1207E+01  0.0000E+00  0.4843E+00  0.0000E+00  0.2916E+01  0.0000E+00  0.8464E-02
     -7.764  0.0000E+00  0.0000E+00  0.0000E+00  0.0000E+00  0.0000E+00  0.0000E+00  0.0000E+00  0.0000E+00
     -7.737  0.0000E+00  0.0000E+00  0.0000E+00  0.0000E+00  0.0000E+00  0.0000E+00  0.0000E+00  0.0000E+00
     -7.710  0.0000E+00  0.0000E+00  0.0000E+00  0.0000E+00  0.0000E+00  0.0000E+00  0.0000E+00  0.0000E+00
     -7.682  0.0000E+00  0.0000E+00  0.0000E+00  0.0000E+00  0.0000E+00  0.0000E+00  0.0000E+00  0.0000E+00
     -7.655  0.0000E+00  0.0000E+00  0.0000E+00  0.0000E+00  0.0000E+00  0.0000E+00  0.0000E+00  0.0000E+00
     -7.628  0.0000E+00  0.0000E+00  0.0000E+00  0.0000E+00  0.0000E+00  0.0000E+00  0.0000E+00  0.0000E+00
     -7.600  0.0000E+00  0.0000E+00  0.0000E+00  0.0000E+00  0.0000E+00  0.0000E+00  0.0000E+00  0.0000E+00
     -7.573  0.0000E+00  0.0000E+00  0.0000E+00  0.0000E+00  0.0000E+00  0.0000E+00  0.0000E+00  0.0000E+00
     -7.546  0.0000E+00  0.0000E+00  0.0000E+00  0.0000E+00  0.0000E+00  0.0000E+00  0.0000E+00  0.0000E+00
     -7.518  0.0000E+00  0.0000E+00  0.0000E+00  0.0000E+00  0.0000E+00  0.0000E+00  0.0000E+00  0.0000E+00
     -7.491  0.0000E+00  0.0000E+00  0.0000E+00  0.0000E+00  0.0000E+00  0.0000E+00  0.0000E+00  0.0000E+00
     -7.464  0.0000E+00  0.0000E+00  0.0000E+00  0.0000E+00  0.0000E+00  0.0000E+00  0.0000E+00  0.0000E+00
     -7.436  0.0000E+00  0.0000E+00  0.0000E+00  0.0000E+00  0.0000E+00  0.0000E+00  0.0000E+00  0.0000E+00
     -7.409  0.0000E+00  0.0000E+00  0.0000E+00  0.0000E+00  0.0000E+00  0.0000E+00  0.0000E+00  0.0000E+00
     -7.382  0.0000E+00  0.0000E+00  0.0000E+00  0.0000E+00  0.0000E+00  0.0000E+00  0.0000E+00  0.0000E+00
     -7.354  0.0000E+00  0.0000E+00  0.0000E+00  0.0000E+00  0.0000E+00  0.0000E+00  0.0000E+00  0.0000E+00
     -7.327  0.0000E+00  0.0000E+00  0.0000E+00  0.0000E+00  0.0000E+00  0.0000E+00  0.0000E+00  0.0000E+00
     -7.300  0.0000E+00  0.0000E+00  0.0000E+00  0.0000E+00  0.0000E+00  0.0000E+00  0.0000E+00  0.0000E+00
     -7.272  0.0000E+00  0.0000E+00  0.0000E+00  0.0000E+00  0.0000E+00  0.0000E+00  0.0000E+00  0.0000E+00
     -7.245  0.0000E+00  0.0000E+00  0.0000E+00  0.0000E+00  0.0000E+00  0.0000E+00  0.0000E+00  0.0000E+00
     -7.218  0.0000E+00  0.0000E+00  0.0000E+00  0.0000E+00  0.0000E+00  0.0000E+00  0.0000E+00  0.0000E+00
     -7.190  0.0000E+00  0.0000E+00  0.0000E+00  0.0000E+00  0.0000E+00  0.0000E+00  0.0000E+00  0.0000E+00
     -7.163  0.0000E+00  0.0000E+00  0.0000E+00  0.0000E+00  0.0000E+00  0.0000E+00  0.0000E+00  0.0000E+00
     -7.136  0.0000E+00  0.0000E+00  0.0000E+00  0.0000E+00  0.0000E+00  0.0000E+00  0.0000E+00  0.0000E+00
     -7.108  0.6641E-09  0.0000E+00  0.3839E-01  0.0000E+00  0.1644E+01  0.0000E+00  0.2640E-02  0.0000E+00
     -7.081  0.2709E-08  0.0000E+00  0.1566E+00  0.0000E+00  0.6708E+01  0.0000E+00  0.1077E-01  0.0000E+00
     -7.054  0.0000E+00  0.0000E+00  0.0000E+00  0.0000E+00  0.0000E+00  0.0000E+00  0.0000E+00  0.0000E+00
     -7.026  0.0000E+00  0.0000E+00  0.0000E+00  0.0000E+00  0.0000E+00  0.0000E+00  0.0000E+00  0.0000E+00
     -6.999  0.0000E+00  0.0000E+00  0.0000E+00  0.0000E+00  0.0000E+00  0.0000E+00  0.0000E+00  0.0000E+00
     -6.972  0.0000E+00  0.0000E+00  0.0000E+00  0.0000E+00  0.0000E+00  0.0000E+00  0.0000E+00  0.0000E+00
     -6.944  0.0000E+00  0.0000E+00  0.0000E+00  0.0000E+00  0.0000E+00  0.0000E+00  0.0000E+00  0.0000E+00
     -6.917  0.0000E+00  0.0000E+00  0.0000E+00  0.0000E+00  0.0000E+00  0.0000E+00  0.0000E+00  0.0000E+00
     -6.890  0.0000E+00  0.0000E+00  0.0000E+00  0.0000E+00  0.0000E+00  0.0000E+00  0.0000E+00  0.0000E+00
     -6.862  0.0000E+00  0.0000E+00  0.0000E+00  0.0000E+00  0.0000E+00  0.0000E+00  0.0000E+00  0.0000E+00
     -6.835  0.8423E-11  0.0000E+00  0.2911E-02  0.0000E+00  0.1038E+00  0.0000E+00  0.2738E-03  0.0000E+00
     -6.808  0.5426E-09  0.0000E+00  0.1876E+00  0.0000E+00  0.6685E+01  0.0000E+00  0.1764E-01  0.0000E+00
     -6.780  0.9746E-08  0.0000E+00  0.3821E-08  0.0000E+00  0.1195E-06  0.0000E+00  0.1785E-09  0.0000E+00
     -6.753  0.1994E+01  0.0000E+00  0.5324E+00  0.0000E+00  0.1146E+02  0.0000E+00  0.2485E-01  0.0000E+00
     -6.726  0.4725E-01  0.2418E-16  0.1122E-01  0.3481E-07  0.1992E+00  0.1112E-05  0.5239E-03  0.3189E-08
     -6.698  0.0000E+00  0.1441E-09  0.0000E+00  0.2075E+00  0.0000E+00  0.6631E+01  0.0000E+00  0.1901E-01
     -6.671  0.0000E+00  0.5573E-10  0.0000E+00  0.1881E-02  0.0000E+00  0.6111E-01  0.0000E+00  0.1422E-03
     -6.643  0.5427E-12  0.1353E-07  0.2506E-05  0.2425E+00  0.1310E-03  0.7997E+01  0.3769E-06  0.1484E-01
     -6.616  0.4747E-07  0.0000E+00  0.2180E+00  0.0000E+00  0.1111E+02  0.0000E+00  0.3066E-01  0.0000E+00
     -6.589  0.1118E-10  0.0000E+00  0.5114E-04  0.0000E+00  0.2552E-02  0.0000E+00  0.6800E-05  0.0000E+00
     -6.561  0.0000E+00  0.0000E+00  0.0000E+00  0.0000E+00  0.0000E+00  0.0000E+00  0.0000E+00  0.0000E+00
     -6.534  0.0000E+00  0.1059E-11  0.0000E+00  0.6915E-06  0.0000E+00  0.3215E-04  0.0000E+00  0.1024E-06
     -6.507  0.9088E-12  0.3613E-06  0.4156E-13  0.2361E+00  0.5017E-11  0.1071E+02  0.1044E-13  0.3279E-01
     -6.479  0.8942E+00  0.5495E-03  0.4089E-01  0.3513E-03  0.4937E+01  0.1087E-01  0.1028E-01  0.3053E-04
     -6.452  0.3061E+00  0.2406E+01  0.1400E-01  0.6249E+00  0.1690E+01  0.9089E+01  0.3518E-02  0.2824E-01
     -6.425  0.1431E-26  0.0000E+00  0.2026E-24  0.0000E+00  0.2102E-14  0.0000E+00  0.5092E-17  0.0000E+00
     -6.397  0.1582E-11  0.0000E+00  0.2239E-09  0.0000E+00  0.2323E+01  0.0000E+00  0.5628E-02  0.0000E+00
     -6.370  0.2715E-11  0.0000E+00  0.3843E-09  0.0000E+00  0.3987E+01  0.0000E+00  0.9659E-02  0.0000E+00
     -6.343  0.0000E+00  0.0000E+00  0.0000E+00  0.0000E+00  0.0000E+00  0.0000E+00  0.0000E+00  0.0000E+00
     -6.315  0.0000E+00  0.0000E+00  0.0000E+00  0.0000E+00  0.0000E+00  0.0000E+00  0.0000E+00  0.0000E+00
     -6.288  0.0000E+00  0.2381E-11  0.0000E+00  0.1004E-09  0.0000E+00  0.4963E+00  0.0000E+00  0.1363E-02
     -6.261  0.0000E+00  0.1444E+01  0.0000E+00  0.6180E-01  0.0000E+00  0.8538E+01  0.0000E+00  0.2511E-01
     -6.233  0.0000E+00  0.6602E+00  0.0000E+00  0.2826E-01  0.0000E+00  0.1341E+01  0.0000E+00  0.4437E-02
     -6.206  0.0000E+00  0.0000E+00  0.0000E+00  0.0000E+00  0.0000E+00  0.0000E+00  0.0000E+00  0.0000E+00
     -6.179  0.1285E-10  0.0000E+00  0.4124E-12  0.0000E+00  0.3441E-10  0.0000E+00  0.6044E-13  0.0000E+00
     -6.151  0.1084E+01  0.0000E+00  0.3479E-01  0.0000E+00  0.2902E+01  0.0000E+00  0.5099E-02  0.0000E+00
     -6.124  0.1948E+00  0.0000E+00  0.6250E-02  0.0000E+00  0.5215E+00  0.0000E+00  0.9160E-03  0.0000E+00
     -6.097  0.0000E+00  0.0000E+00  0.0000E+00  0.0000E+00  0.0000E+00  0.0000E+00  0.0000E+00  0.0000E+00
     -6.069  0.0000E+00  0.0000E+00  0.0000E+00  0.0000E+00  0.0000E+00  0.0000E+00  0.0000E+00  0.0000E+00
     -6.042  0.0000E+00  0.0000E+00  0.0000E+00  0.0000E+00  0.0000E+00  0.0000E+00  0.0000E+00  0.0000E+00
     -6.015  0.6048E-02  0.0000E+00  0.2407E-03  0.0000E+00  0.7560E-01  0.0000E+00  0.5129E-04  0.0000E+00
     -5.987  0.2632E+00  0.4070E-08  0.1048E-01  0.3798E-10  0.3291E+01  0.9004E-07  0.2232E-02  0.1386E-09
     -5.960  0.7062E-10  0.2553E+00  0.1375E-10  0.2382E-02  0.6266E-08  0.5647E+01  0.1056E-10  0.8694E-02
     -5.933  0.1309E+00  0.3611E-02  0.4317E-01  0.3370E-04  0.1196E+02  0.7989E-01  0.2998E-01  0.1230E-03
     -5.905  0.7180E-02  0.0000E+00  0.2988E-02  0.0000E+00  0.6679E+00  0.0000E+00  0.2009E-02  0.0000E+00
     -5.878  0.0000E+00  0.0000E+00  0.0000E+00  0.0000E+00  0.0000E+00  0.0000E+00  0.0000E+00  0.0000E+00
     -5.851  0.0000E+00  0.0000E+00  0.0000E+00  0.0000E+00  0.0000E+00  0.0000E+00  0.0000E+00  0.0000E+00
     -5.823  0.0000E+00  0.0000E+00  0.0000E+00  0.0000E+00  0.0000E+00  0.0000E+00  0.0000E+00  0.0000E+00
     -5.796  0.0000E+00  0.0000E+00  0.0000E+00  0.0000E+00  0.0000E+00  0.0000E+00  0.0000E+00  0.0000E+00
     -5.769  0.0000E+00  0.0000E+00  0.0000E+00  0.0000E+00  0.0000E+00  0.0000E+00  0.0000E+00  0.0000E+00
     -5.741  0.0000E+00  0.0000E+00  0.0000E+00  0.0000E+00  0.0000E+00  0.0000E+00  0.0000E+00  0.0000E+00
     -5.714  0.0000E+00  0.2964E-02  0.0000E+00  0.8830E-04  0.0000E+00  0.3152E-01  0.0000E+00  0.2530E-04
     -5.687  0.0000E+00  0.2997E+00  0.0000E+00  0.8928E-02  0.0000E+00  0.3187E+01  0.0000E+00  0.2558E-02
     -5.659  0.0000E+00  0.1409E-04  0.0000E+00  0.3940E-04  0.0000E+00  0.1439E-01  0.0000E+00  0.3245E-04
     -5.632  0.0000E+00  0.1251E-01  0.0000E+00  0.6917E-01  0.0000E+00  0.1369E+02  0.0000E+00  0.3722E-01
     -5.605  0.0000E+00  0.0000E+00  0.0000E+00  0.0000E+00  0.0000E+00  0.0000E+00  0.0000E+00  0.0000E+00
     -5.577  0.0000E+00  0.0000E+00  0.0000E+00  0.0000E+00  0.0000E+00  0.0000E+00  0.0000E+00  0.0000E+00
     -5.550  0.0000E+00  0.0000E+00  0.0000E+00  0.0000E+00  0.0000E+00  0.0000E+00  0.0000E+00  0.0000E+00
     -5.523  0.1252E-10  0.0000E+00  0.1096E-01  0.0000E+00  0.7365E+00  0.0000E+00  0.3150E-02  0.0000E+00
     -5.495  0.3691E-10  0.0000E+00  0.3229E-01  0.0000E+00  0.2170E+01  0.0000E+00  0.9283E-02  0.0000E+00
     -5.468  0.0000E+00  0.0000E+00  0.0000E+00  0.0000E+00  0.0000E+00  0.0000E+00  0.0000E+00  0.0000E+00
     -5.441  0.0000E+00  0.0000E+00  0.0000E+00  0.0000E+00  0.0000E+00  0.0000E+00  0.0000E+00  0.0000E+00
     -5.413  0.0000E+00  0.0000E+00  0.0000E+00  0.0000E+00  0.0000E+00  0.0000E+00  0.0000E+00  0.0000E+00
     -5.386  0.0000E+00  0.0000E+00  0.0000E+00  0.0000E+00  0.0000E+00  0.0000E+00  0.0000E+00  0.0000E+00
     -5.359  0.3275E-04  0.0000E+00  0.1295E-04  0.0000E+00  0.1289E-02  0.0000E+00  0.1641E-05  0.0000E+00
     -5.331  0.3942E+00  0.0000E+00  0.1608E+00  0.0000E+00  0.1551E+02  0.0000E+00  0.2048E-01  0.0000E+00
     -5.304  0.0000E+00  0.0000E+00  0.0000E+00  0.0000E+00  0.0000E+00  0.0000E+00  0.0000E+00  0.0000E+00
     -5.277  0.0000E+00  0.6922E-18  0.0000E+00  0.4356E-10  0.0000E+00  0.3706E-08  0.0000E+00  0.1413E-10
     -5.249  0.0000E+00  0.5963E-09  0.0000E+00  0.3752E-01  0.0000E+00  0.3192E+01  0.0000E+00  0.1217E-01
     -5.222  0.0000E+00  0.2479E-10  0.0000E+00  0.1560E-02  0.0000E+00  0.1327E+00  0.0000E+00  0.5061E-03
     -5.195  0.0000E+00  0.7676E-04  0.0000E+00  0.3128E-04  0.0000E+00  0.3164E-02  0.0000E+00  0.4383E-05
     -5.167  0.0000E+00  0.3743E+00  0.0000E+00  0.1525E+00  0.0000E+00  0.1543E+02  0.0000E+00  0.2137E-01
     -5.140  0.0000E+00  0.0000E+00  0.0000E+00  0.0000E+00  0.0000E+00  0.0000E+00  0.0000E+00  0.0000E+00
     -5.113  0.0000E+00  0.0000E+00  0.0000E+00  0.0000E+00  0.0000E+00  0.0000E+00  0.0000E+00  0.0000E+00
     -5.085  0.0000E+00  0.0000E+00  0.0000E+00  0.0000E+00  0.0000E+00  0.0000E+00  0.0000E+00  0.0000E+00
     -5.058  0.0000E+00  0.0000E+00  0.0000E+00  0.0000E+00  0.0000E+00  0.0000E+00  0.0000E+00  0.0000E+00
     -5.031  0.5967E-17  0.0000E+00  0.8699E-09  0.0000E+00  0.2176E-06  0.0000E+00  0.3727E-09  0.0000E+00
     -5.003  0.2786E-09  0.0000E+00  0.4061E-01  0.0000E+00  0.1521E+02  0.0000E+00  0.1962E-01  0.0000E+00
     -4.976  0.3443E-11  0.0000E+00  0.5017E-03  0.0000E+00  0.2288E+00  0.0000E+00  0.2604E-03  0.0000E+00
     -4.949  0.0000E+00  0.0000E+00  0.0000E+00  0.0000E+00  0.0000E+00  0.0000E+00  0.0000E+00  0.0000E+00
     -4.921  0.0000E+00  0.0000E+00  0.0000E+00  0.0000E+00  0.0000E+00  0.0000E+00  0.0000E+00  0.0000E+00
     -4.894  0.8780E-12  0.0000E+00  0.4459E-03  0.0000E+00  0.6067E-03  0.0000E+00  0.5966E-04  0.0000E+00
     -4.867  0.2311E-09  0.1443E-13  0.1174E+00  0.2876E-05  0.1597E+00  0.8012E-03  0.1570E-01  0.1293E-05
     -4.839  0.1477E-10  0.2030E-09  0.2681E-01  0.4033E-01  0.1958E+00  0.1518E+02  0.4221E-02  0.1960E-01
     -4.812  0.2353E-10  0.1680E-11  0.4269E-01  0.8087E-03  0.3119E+00  0.1004E-02  0.6722E-02  0.9956E-04
     -4.785  0.0000E+00  0.2628E-09  0.0000E+00  0.1265E+00  0.0000E+00  0.1570E+00  0.0000E+00  0.1558E-01
     -4.757  0.0000E+00  0.1521E-10  0.0000E+00  0.1951E-01  0.0000E+00  0.3263E+00  0.0000E+00  0.5006E-02
     -4.730  0.0000E+00  0.2219E-10  0.0000E+00  0.2848E-01  0.0000E+00  0.4763E+00  0.0000E+00  0.7306E-02
     -4.703  0.0000E+00  0.0000E+00  0.0000E+00  0.0000E+00  0.0000E+00  0.0000E+00  0.0000E+00  0.0000E+00
     -4.675  0.0000E+00  0.0000E+00  0.0000E+00  0.0000E+00  0.0000E+00  0.0000E+00  0.0000E+00  0.0000E+00
     -4.648  0.0000E+00  0.0000E+00  0.0000E+00  0.0000E+00  0.0000E+00  0.0000E+00  0.0000E+00  0.0000E+00
     -4.621  0.0000E+00  0.0000E+00  0.0000E+00  0.0000E+00  0.0000E+00  0.0000E+00  0.0000E+00  0.0000E+00
     -4.593  0.0000E+00  0.0000E+00  0.0000E+00  0.0000E+00  0.0000E+00  0.0000E+00  0.0000E+00  0.0000E+00
     -4.566  0.0000E+00  0.0000E+00  0.0000E+00  0.0000E+00  0.0000E+00  0.0000E+00  0.0000E+00  0.0000E+00
     -4.539  0.0000E+00  0.0000E+00  0.0000E+00  0.0000E+00  0.0000E+00  0.0000E+00  0.0000E+00  0.0000E+00
     -4.511  0.1014E-18  0.0000E+00  0.2020E-17  0.0000E+00  0.5930E-08  0.0000E+00  0.7814E-11  0.0000E+00
     -4.484  0.1430E-09  0.0000E+00  0.2850E-08  0.0000E+00  0.8364E+01  0.0000E+00  0.1102E-01  0.0000E+00
     -4.457  0.1990E-01  0.0000E+00  0.5401E-01  0.0000E+00  0.6401E+01  0.0000E+00  0.9254E-02  0.0000E+00
     -4.429  0.7913E-02  0.0000E+00  0.2147E-01  0.0000E+00  0.2380E+01  0.0000E+00  0.3461E-02  0.0000E+00
     -4.402  0.2866E-08  0.0000E+00  0.1095E+00  0.0000E+00  0.3540E+01  0.0000E+00  0.2034E-02  0.0000E+00
     -4.375  0.7175E-07  0.0000E+00  0.6471E-01  0.0000E+00  0.2092E+01  0.0000E+00  0.1203E-02  0.0000E+00
     -4.347  0.1116E+00  0.0000E+00  0.3196E+00  0.0000E+00  0.1346E+02  0.0000E+00  0.5346E-01  0.0000E+00
     -4.320  0.2101E-02  0.9036E-13  0.2044E+00  0.1273E-11  0.8614E+01  0.9227E-02  0.2642E-01  0.1155E-04
     -4.293  0.1911E-13  0.3149E-09  0.2905E-03  0.1765E-08  0.1210E-01  0.8748E+01  0.3761E-04  0.1095E-01
     -4.265  0.0000E+00  0.3029E-01  0.0000E+00  0.7454E-01  0.0000E+00  0.1045E+02  0.0000E+00  0.1395E-01
     -4.238  0.0000E+00  0.5975E-03  0.0000E+00  0.1470E-02  0.0000E+00  0.1614E+00  0.0000E+00  0.2332E-03
     -4.211  0.0000E+00  0.2447E-01  0.0000E+00  0.2672E-01  0.0000E+00  0.2455E+01  0.0000E+00  0.4222E-02
     -4.183  0.0000E+00  0.1204E-04  0.0000E+00  0.7884E-04  0.0000E+00  0.2992E-02  0.0000E+00  0.3232E-05
     -4.156  0.0000E+00  0.3103E-09  0.0000E+00  0.1914E+00  0.0000E+00  0.5196E+01  0.0000E+00  0.3364E-02
     -4.129  0.0000E+00  0.0000E+00  0.0000E+00  0.0000E+00  0.0000E+00  0.0000E+00  0.0000E+00  0.0000E+00
     -4.101  0.0000E+00  0.0000E+00  0.0000E+00  0.0000E+00  0.0000E+00  0.0000E+00  0.0000E+00  0.0000E+00
     -4.074  0.0000E+00  0.0000E+00  0.0000E+00  0.0000E+00  0.0000E+00  0.0000E+00  0.0000E+00  0.0000E+00
     -4.047  0.0000E+00  0.3078E-06  0.0000E+00  0.1734E-03  0.0000E+00  0.8395E-02  0.0000E+00  0.3164E-04
     -4.019  0.0000E+00  0.4257E-03  0.0000E+00  0.1842E+00  0.0000E+00  0.1007E+02  0.0000E+00  0.4230E-01
     -3.992  0.2147E-24  0.0000E+00  0.1124E-15  0.0000E+00  0.3550E-14  0.0000E+00  0.8563E-17  0.0000E+00
     -3.965  0.1447E-09  0.0000E+00  0.8650E-01  0.0000E+00  0.2721E+01  0.0000E+00  0.6580E-02  0.0000E+00
     -3.937  0.2268E-09  0.0000E+00  0.1384E+00  0.0000E+00  0.4351E+01  0.0000E+00  0.1053E-01  0.0000E+00
     -3.910  0.1050E-08  0.0000E+00  0.5898E-08  0.0000E+00  0.9904E-05  0.0000E+00  0.4234E-07  0.0000E+00
     -3.883  0.5663E-03  0.0000E+00  0.3180E-02  0.0000E+00  0.5340E+01  0.0000E+00  0.2283E-01  0.0000E+00
     -3.855  0.5398E-06  0.8499E-11  0.3031E-05  0.3811E-02  0.5090E-02  0.1339E+00  0.2176E-04  0.2850E-03
     -3.828  0.0000E+00  0.4660E-09  0.0000E+00  0.2132E+00  0.0000E+00  0.7490E+01  0.0000E+00  0.1594E-01
     -3.801  0.0000E+00  0.0000E+00  0.0000E+00  0.0000E+00  0.0000E+00  0.0000E+00  0.0000E+00  0.0000E+00
     -3.773  0.0000E+00  0.0000E+00  0.0000E+00  0.0000E+00  0.0000E+00  0.0000E+00  0.0000E+00  0.0000E+00
     -3.746  0.0000E+00  0.9290E-11  0.0000E+00  0.3833E-02  0.0000E+00  0.1577E+00  0.0000E+00  0.4654E-03
     -3.718  0.0000E+00  0.4806E-09  0.0000E+00  0.1983E+00  0.0000E+00  0.8159E+01  0.0000E+00  0.2408E-01
     -3.691  0.0000E+00  0.0000E+00  0.0000E+00  0.0000E+00  0.0000E+00  0.0000E+00  0.0000E+00  0.0000E+00
     -3.664  0.0000E+00  0.0000E+00  0.0000E+00  0.0000E+00  0.0000E+00  0.0000E+00  0.0000E+00  0.0000E+00
     -3.636  0.0000E+00  0.0000E+00  0.0000E+00  0.0000E+00  0.0000E+00  0.0000E+00  0.0000E+00  0.0000E+00
     -3.609  0.0000E+00  0.0000E+00  0.0000E+00  0.0000E+00  0.0000E+00  0.0000E+00  0.0000E+00  0.0000E+00
     -3.582  0.0000E+00  0.0000E+00  0.0000E+00  0.0000E+00  0.0000E+00  0.0000E+00  0.0000E+00  0.0000E+00
     -3.554  0.0000E+00  0.0000E+00  0.0000E+00  0.0000E+00  0.0000E+00  0.0000E+00  0.0000E+00  0.0000E+00
     -3.527  0.0000E+00  0.0000E+00  0.0000E+00  0.0000E+00  0.0000E+00  0.0000E+00  0.0000E+00  0.0000E+00
     -3.500  0.0000E+00  0.2481E-08  0.0000E+00  0.8085E-07  0.0000E+00  0.1755E-03  0.0000E+00  0.7047E-06
     -3.472  0.0000E+00  0.7672E-04  0.0000E+00  0.2500E-02  0.0000E+00  0.5427E+01  0.0000E+00  0.2179E-01
     -3.445  0.0000E+00  0.0000E+00  0.0000E+00  0.0000E+00  0.0000E+00  0.0000E+00  0.0000E+00  0.0000E+00
     -3.418  0.0000E+00  0.0000E+00  0.0000E+00  0.0000E+00  0.0000E+00  0.0000E+00  0.0000E+00  0.0000E+00
     -3.390  0.0000E+00  0.0000E+00  0.0000E+00  0.0000E+00  0.0000E+00  0.0000E+00  0.0000E+00  0.0000E+00
     -3.363  0.0000E+00  0.0000E+00  0.0000E+00  0.0000E+00  0.0000E+00  0.0000E+00  0.0000E+00  0.0000E+00
     -3.336  0.0000E+00  0.0000E+00  0.0000E+00  0.0000E+00  0.0000E+00  0.0000E+00  0.0000E+00  0.0000E+00
     -3.308  0.0000E+00  0.0000E+00  0.0000E+00  0.0000E+00  0.0000E+00  0.0000E+00  0.0000E+00  0.0000E+00
     -3.281  0.0000E+00  0.0000E+00  0.0000E+00  0.0000E+00  0.0000E+00  0.0000E+00  0.0000E+00  0.0000E+00
     -3.254  0.0000E+00  0.0000E+00  0.0000E+00  0.0000E+00  0.0000E+00  0.0000E+00  0.0000E+00  0.0000E+00
     -3.226  0.0000E+00  0.0000E+00  0.0000E+00  0.0000E+00  0.0000E+00  0.0000E+00  0.0000E+00  0.0000E+00
     -3.199  0.0000E+00  0.0000E+00  0.0000E+00  0.0000E+00  0.0000E+00  0.0000E+00  0.0000E+00  0.0000E+00
     -3.172  0.0000E+00  0.0000E+00  0.0000E+00  0.0000E+00  0.0000E+00  0.0000E+00  0.0000E+00  0.0000E+00
     -3.144  0.0000E+00  0.0000E+00  0.0000E+00  0.0000E+00  0.0000E+00  0.0000E+00  0.0000E+00  0.0000E+00
     -3.117  0.2451E-07  0.0000E+00  0.8776E-08  0.0000E+00  0.1063E-07  0.0000E+00  0.2700E-10  0.0000E+00
     -3.090  0.3718E+01  0.0000E+00  0.9649E+00  0.0000E+00  0.1201E+01  0.0000E+00  0.2647E-02  0.0000E+00
     -3.062  0.7760E-01  0.1474E-18  0.2765E+00  0.2060E-11  0.4855E+00  0.4213E-11  0.1260E-02  0.9127E-14
     -3.035  0.2329E-06  0.3489E-07  0.3795E+00  0.4874E+00  0.6791E+00  0.9968E+00  0.1780E-02  0.2160E-02
     -3.008  0.0000E+00  0.8288E-08  0.0000E+00  0.1158E+00  0.0000E+00  0.2368E+00  0.0000E+00  0.5130E-03
     -2.980  0.0000E+00  0.1155E+00  0.0000E+00  0.3720E-01  0.0000E+00  0.6729E-01  0.0000E+00  0.9633E-04
     -2.953  0.0000E+00  0.3465E+01  0.0000E+00  0.9951E+00  0.0000E+00  0.1789E+01  0.0000E+00  0.2434E-02
     -2.926  0.0000E+00  0.0000E+00  0.0000E+00  0.0000E+00  0.0000E+00  0.0000E+00  0.0000E+00  0.0000E+00
     -2.898  0.0000E+00  0.0000E+00  0.0000E+00  0.0000E+00  0.0000E+00  0.0000E+00  0.0000E+00  0.0000E+00
     -2.871  0.0000E+00  0.0000E+00  0.0000E+00  0.0000E+00  0.0000E+00  0.0000E+00  0.0000E+00  0.0000E+00
     -2.844  0.0000E+00  0.0000E+00  0.0000E+00  0.0000E+00  0.0000E+00  0.0000E+00  0.0000E+00  0.0000E+00
     -2.816  0.0000E+00  0.0000E+00  0.0000E+00  0.0000E+00  0.0000E+00  0.0000E+00  0.0000E+00  0.0000E+00
     -2.789  0.0000E+00  0.0000E+00  0.0000E+00  0.0000E+00  0.0000E+00  0.0000E+00  0.0000E+00  0.0000E+00
     -2.762  0.0000E+00  0.0000E+00  0.0000E+00  0.0000E+00  0.0000E+00  0.0000E+00  0.0000E+00  0.0000E+00
     -2.734  0.0000E+00  0.0000E+00  0.0000E+00  0.0000E+00  0.0000E+00  0.0000E+00  0.0000E+00  0.0000E+00
     -2.707  0.0000E+00  0.0000E+00  0.0000E+00  0.0000E+00  0.0000E+00  0.0000E+00  0.0000E+00  0.0000E+00
     -2.680  0.0000E+00  0.0000E+00  0.0000E+00  0.0000E+00  0.0000E+00  0.0000E+00  0.0000E+00  0.0000E+00
     -2.652  0.0000E+00  0.0000E+00  0.0000E+00  0.0000E+00  0.0000E+00  0.0000E+00  0.0000E+00  0.0000E+00
     -2.625  0.0000E+00  0.0000E+00  0.0000E+00  0.0000E+00  0.0000E+00  0.0000E+00  0.0000E+00  0.0000E+00
     -2.598  0.0000E+00  0.0000E+00  0.0000E+00  0.0000E+00  0.0000E+00  0.0000E+00  0.0000E+00  0.0000E+00
     -2.570  0.0000E+00  0.0000E+00  0.0000E+00  0.0000E+00  0.0000E+00  0.0000E+00  0.0000E+00  0.0000E+00
     -2.543  0.0000E+00  0.0000E+00  0.0000E+00  0.0000E+00  0.0000E+00  0.0000E+00  0.0000E+00  0.0000E+00
     -2.516  0.0000E+00  0.0000E+00  0.0000E+00  0.0000E+00  0.0000E+00  0.0000E+00  0.0000E+00  0.0000E+00
     -2.488  0.0000E+00  0.0000E+00  0.0000E+00  0.0000E+00  0.0000E+00  0.0000E+00  0.0000E+00  0.0000E+00
     -2.461  0.0000E+00  0.0000E+00  0.0000E+00  0.0000E+00  0.0000E+00  0.0000E+00  0.0000E+00  0.0000E+00
     -2.434  0.0000E+00  0.0000E+00  0.0000E+00  0.0000E+00  0.0000E+00  0.0000E+00  0.0000E+00  0.0000E+00
     -2.406  0.0000E+00  0.0000E+00  0.0000E+00  0.0000E+00  0.0000E+00  0.0000E+00  0.0000E+00  0.0000E+00
     -2.379  0.0000E+00  0.0000E+00  0.0000E+00  0.0000E+00  0.0000E+00  0.0000E+00  0.0000E+00  0.0000E+00
     -2.352  0.0000E+00  0.0000E+00  0.0000E+00  0.0000E+00  0.0000E+00  0.0000E+00  0.0000E+00  0.0000E+00
     -2.324  0.0000E+00  0.0000E+00  0.0000E+00  0.0000E+00  0.0000E+00  0.0000E+00  0.0000E+00  0.0000E+00
     -2.297  0.0000E+00  0.0000E+00  0.0000E+00  0.0000E+00  0.0000E+00  0.0000E+00  0.0000E+00  0.0000E+00
     -2.270  0.0000E+00  0.0000E+00  0.0000E+00  0.0000E+00  0.0000E+00  0.0000E+00  0.0000E+00  0.0000E+00
     -2.242  0.0000E+00  0.0000E+00  0.0000E+00  0.0000E+00  0.0000E+00  0.0000E+00  0.0000E+00  0.0000E+00
     -2.215  0.0000E+00  0.0000E+00  0.0000E+00  0.0000E+00  0.0000E+00  0.0000E+00  0.0000E+00  0.0000E+00
     -2.188  0.0000E+00  0.0000E+00  0.0000E+00  0.0000E+00  0.0000E+00  0.0000E+00  0.0000E+00  0.0000E+00
     -2.160  0.0000E+00  0.0000E+00  0.0000E+00  0.0000E+00  0.0000E+00  0.0000E+00  0.0000E+00  0.0000E+00
     -2.133  0.0000E+00  0.0000E+00  0.0000E+00  0.0000E+00  0.0000E+00  0.0000E+00  0.0000E+00  0.0000E+00
     -2.106  0.0000E+00  0.0000E+00  0.0000E+00  0.0000E+00  0.0000E+00  0.0000E+00  0.0000E+00  0.0000E+00
     -2.078  0.0000E+00  0.0000E+00  0.0000E+00  0.0000E+00  0.0000E+00  0.0000E+00  0.0000E+00  0.0000E+00
     -2.051  0.0000E+00  0.0000E+00  0.0000E+00  0.0000E+00  0.0000E+00  0.0000E+00  0.0000E+00  0.0000E+00
     -2.024  0.0000E+00  0.0000E+00  0.0000E+00  0.0000E+00  0.0000E+00  0.0000E+00  0.0000E+00  0.0000E+00
     -1.996  0.0000E+00  0.0000E+00  0.0000E+00  0.0000E+00  0.0000E+00  0.0000E+00  0.0000E+00  0.0000E+00
     -1.969  0.0000E+00  0.0000E+00  0.0000E+00  0.0000E+00  0.0000E+00  0.0000E+00  0.0000E+00  0.0000E+00
     -1.942  0.0000E+00  0.0000E+00  0.0000E+00  0.0000E+00  0.0000E+00  0.0000E+00  0.0000E+00  0.0000E+00
     -1.914  0.0000E+00  0.0000E+00  0.0000E+00  0.0000E+00  0.0000E+00  0.0000E+00  0.0000E+00  0.0000E+00
     -1.887  0.0000E+00  0.0000E+00  0.0000E+00  0.0000E+00  0.0000E+00  0.0000E+00  0.0000E+00  0.0000E+00
     -1.860  0.0000E+00  0.0000E+00  0.0000E+00  0.0000E+00  0.0000E+00  0.0000E+00  0.0000E+00  0.0000E+00
     -1.832  0.0000E+00  0.0000E+00  0.0000E+00  0.0000E+00  0.0000E+00  0.0000E+00  0.0000E+00  0.0000E+00
     -1.805  0.0000E+00  0.0000E+00  0.0000E+00  0.0000E+00  0.0000E+00  0.0000E+00  0.0000E+00  0.0000E+00
     -1.778  0.0000E+00  0.0000E+00  0.0000E+00  0.0000E+00  0.0000E+00  0.0000E+00  0.0000E+00  0.0000E+00
     -1.750  0.0000E+00  0.0000E+00  0.0000E+00  0.0000E+00  0.0000E+00  0.0000E+00  0.0000E+00  0.0000E+00
     -1.723  0.0000E+00  0.0000E+00  0.0000E+00  0.0000E+00  0.0000E+00  0.0000E+00  0.0000E+00  0.0000E+00
     -1.696  0.0000E+00  0.0000E+00  0.0000E+00  0.0000E+00  0.0000E+00  0.0000E+00  0.0000E+00  0.0000E+00
     -1.668  0.0000E+00  0.0000E+00  0.0000E+00  0.0000E+00  0.0000E+00  0.0000E+00  0.0000E+00  0.0000E+00
     -1.641  0.0000E+00  0.0000E+00  0.0000E+00  0.0000E+00  0.0000E+00  0.0000E+00  0.0000E+00  0.0000E+00
     -1.614  0.0000E+00  0.0000E+00  0.0000E+00  0.0000E+00  0.0000E+00  0.0000E+00  0.0000E+00  0.0000E+00
     -1.586  0.0000E+00  0.0000E+00  0.0000E+00  0.0000E+00  0.0000E+00  0.0000E+00  0.0000E+00  0.0000E+00
     -1.559  0.0000E+00  0.0000E+00  0.0000E+00  0.0000E+00  0.0000E+00  0.0000E+00  0.0000E+00  0.0000E+00
     -1.532  0.0000E+00  0.0000E+00  0.0000E+00  0.0000E+00  0.0000E+00  0.0000E+00  0.0000E+00  0.0000E+00
     -1.504  0.0000E+00  0.0000E+00  0.0000E+00  0.0000E+00  0.0000E+00  0.0000E+00  0.0000E+00  0.0000E+00
     -1.477  0.0000E+00  0.0000E+00  0.0000E+00  0.0000E+00  0.0000E+00  0.0000E+00  0.0000E+00  0.0000E+00
     -1.450  0.0000E+00  0.0000E+00  0.0000E+00  0.0000E+00  0.0000E+00  0.0000E+00  0.0000E+00  0.0000E+00
     -1.422  0.0000E+00  0.0000E+00  0.0000E+00  0.0000E+00  0.0000E+00  0.0000E+00  0.0000E+00  0.0000E+00
     -1.395  0.0000E+00  0.0000E+00  0.0000E+00  0.0000E+00  0.0000E+00  0.0000E+00  0.0000E+00  0.0000E+00
     -1.368  0.0000E+00  0.0000E+00  0.0000E+00  0.0000E+00  0.0000E+00  0.0000E+00  0.0000E+00  0.0000E+00
     -1.340  0.0000E+00  0.0000E+00  0.0000E+00  0.0000E+00  0.0000E+00  0.0000E+00  0.0000E+00  0.0000E+00
     -1.313  0.0000E+00  0.0000E+00  0.0000E+00  0.0000E+00  0.0000E+00  0.0000E+00  0.0000E+00  0.0000E+00
     -1.286  0.0000E+00  0.0000E+00  0.0000E+00  0.0000E+00  0.0000E+00  0.0000E+00  0.0000E+00  0.0000E+00
     -1.258  0.0000E+00  0.0000E+00  0.0000E+00  0.0000E+00  0.0000E+00  0.0000E+00  0.0000E+00  0.0000E+00
     -1.231  0.0000E+00  0.0000E+00  0.0000E+00  0.0000E+00  0.0000E+00  0.0000E+00  0.0000E+00  0.0000E+00
     -1.204  0.6108E-06  0.0000E+00  0.1634E-06  0.0000E+00  0.4926E-06  0.0000E+00  0.2981E-08  0.0000E+00
     -1.176  0.5954E+00  0.8824E-15  0.1593E+00  0.6021E-16  0.4801E+00  0.7488E-15  0.2906E-02  0.4048E-17
     -1.149  0.1294E+01  0.2759E+00  0.4711E+00  0.1883E-01  0.2317E+00  0.2341E+00  0.4491E-02  0.1266E-02
     -1.122  0.5607E+00  0.3599E+00  0.2041E+00  0.2456E-01  0.1001E+00  0.3054E+00  0.1945E-02  0.1651E-02
     -1.094  0.0000E+00  0.0000E+00  0.0000E+00  0.0000E+00  0.0000E+00  0.0000E+00  0.0000E+00  0.0000E+00
     -1.067  0.0000E+00  0.0000E+00  0.0000E+00  0.0000E+00  0.0000E+00  0.0000E+00  0.0000E+00  0.0000E+00
     -1.040  0.0000E+00  0.4322E-10  0.0000E+00  0.1611E-10  0.0000E+00  0.9487E-11  0.0000E+00  0.1313E-12
     -1.012  0.0000E+00  0.1513E+01  0.0000E+00  0.5639E+00  0.0000E+00  0.3322E+00  0.0000E+00  0.4598E-02
     -0.985  0.0000E+00  0.2118E+00  0.0000E+00  0.7892E-01  0.0000E+00  0.4648E-01  0.0000E+00  0.6434E-03
     -0.958  0.0000E+00  0.0000E+00  0.0000E+00  0.0000E+00  0.0000E+00  0.0000E+00  0.0000E+00  0.0000E+00
     -0.930  0.1354E-10  0.0000E+00  0.2898E-09  0.0000E+00  0.2687E-10  0.0000E+00  0.7666E-13  0.0000E+00
     -0.903  0.5847E-01  0.1857E-16  0.1251E+01  0.1707E-14  0.1160E+00  0.1459E-15  0.3310E-03  0.3752E-18
     -0.876  0.4276E-02  0.6474E-02  0.9151E-01  0.5951E+00  0.8485E-02  0.5085E-01  0.2421E-04  0.1308E-03
     -0.848  0.0000E+00  0.8736E-02  0.0000E+00  0.8030E+00  0.0000E+00  0.6861E-01  0.0000E+00  0.1764E-03
     -0.821  0.0000E+00  0.0000E+00  0.0000E+00  0.0000E+00  0.0000E+00  0.0000E+00  0.0000E+00  0.0000E+00
     -0.793  0.0000E+00  0.0000E+00  0.0000E+00  0.0000E+00  0.0000E+00  0.0000E+00  0.0000E+00  0.0000E+00
     -0.766  0.0000E+00  0.0000E+00  0.0000E+00  0.0000E+00  0.0000E+00  0.0000E+00  0.0000E+00  0.0000E+00
     -0.739  0.0000E+00  0.0000E+00  0.0000E+00  0.0000E+00  0.0000E+00  0.0000E+00  0.0000E+00  0.0000E+00
     -0.711  0.0000E+00  0.0000E+00  0.0000E+00  0.0000E+00  0.0000E+00  0.0000E+00  0.0000E+00  0.0000E+00
     -0.684  0.0000E+00  0.0000E+00  0.0000E+00  0.0000E+00  0.0000E+00  0.0000E+00  0.0000E+00  0.0000E+00
     -0.657  0.0000E+00  0.0000E+00  0.0000E+00  0.0000E+00  0.0000E+00  0.0000E+00  0.0000E+00  0.0000E+00
     -0.629  0.0000E+00  0.0000E+00  0.0000E+00  0.0000E+00  0.0000E+00  0.0000E+00  0.0000E+00  0.0000E+00
     -0.602  0.0000E+00  0.0000E+00  0.0000E+00  0.0000E+00  0.0000E+00  0.0000E+00  0.0000E+00  0.0000E+00
     -0.575  0.0000E+00  0.0000E+00  0.0000E+00  0.0000E+00  0.0000E+00  0.0000E+00  0.0000E+00  0.0000E+00
     -0.547  0.4544E-14  0.0000E+00  0.6772E-04  0.0000E+00  0.1597E-06  0.0000E+00  0.1954E-06  0.0000E+00
     -0.520  0.1295E-09  0.0000E+00  0.1930E+01  0.0000E+00  0.4553E-02  0.0000E+00  0.5569E-02  0.0000E+00
     -0.493  0.0000E+00  0.0000E+00  0.0000E+00  0.0000E+00  0.0000E+00  0.0000E+00  0.0000E+00  0.0000E+00
     -0.465  0.0000E+00  0.2354E-11  0.0000E+00  0.5592E-01  0.0000E+00  0.5325E-04  0.0000E+00  0.1594E-03
     -0.438  0.2339E-10  0.1697E-08  0.4179E-02  0.2020E+01  0.1964E-02  0.1057E+00  0.5134E-04  0.7710E-02
     -0.411  0.9438E-08  0.1123E-07  0.1684E+01  0.1445E+01  0.7535E+00  0.7009E+00  0.1992E-01  0.1729E-01
     -0.383  0.0000E+00  0.0000E+00  0.0000E+00  0.0000E+00  0.0000E+00  0.0000E+00  0.0000E+00  0.0000E+00
     -0.356  0.0000E+00  0.0000E+00  0.0000E+00  0.0000E+00  0.0000E+00  0.0000E+00  0.0000E+00  0.0000E+00
     -0.329  0.0000E+00  0.0000E+00  0.0000E+00  0.0000E+00  0.0000E+00  0.0000E+00  0.0000E+00  0.0000E+00
     -0.301  0.0000E+00  0.0000E+00  0.0000E+00  0.0000E+00  0.0000E+00  0.0000E+00  0.0000E+00  0.0000E+00
     -0.274  0.0000E+00  0.0000E+00  0.0000E+00  0.0000E+00  0.0000E+00  0.0000E+00  0.0000E+00  0.0000E+00
     -0.247  0.0000E+00  0.0000E+00  0.0000E+00  0.0000E+00  0.0000E+00  0.0000E+00  0.0000E+00  0.0000E+00
     -0.219  0.0000E+00  0.0000E+00  0.0000E+00  0.0000E+00  0.0000E+00  0.0000E+00  0.0000E+00  0.0000E+00
     -0.192  0.0000E+00  0.0000E+00  0.0000E+00  0.0000E+00  0.0000E+00  0.0000E+00  0.0000E+00  0.0000E+00
     -0.165  0.0000E+00  0.0000E+00  0.0000E+00  0.0000E+00  0.0000E+00  0.0000E+00  0.0000E+00  0.0000E+00
     -0.137  0.0000E+00  0.0000E+00  0.0000E+00  0.0000E+00  0.0000E+00  0.0000E+00  0.0000E+00  0.0000E+00
     -0.110  0.0000E+00  0.0000E+00  0.0000E+00  0.0000E+00  0.0000E+00  0.0000E+00  0.0000E+00  0.0000E+00
     -0.083  0.0000E+00  0.0000E+00  0.0000E+00  0.0000E+00  0.0000E+00  0.0000E+00  0.0000E+00  0.0000E+00
     -0.055  0.0000E+00  0.0000E+00  0.0000E+00  0.0000E+00  0.0000E+00  0.0000E+00  0.0000E+00  0.0000E+00
