    6    6  200    2
  0.8188333E+03  0.1700000E-08  0.1700000E-08  0.1700000E-08  0.5000000E-15
  1.000000000000000E-004
  CAR 
 CuPd                                    
     60      1     40
 
  0.0000000E+00  0.0000000E+00  0.0000000E+00  0.1000000E+01
    1       -7.883576     -7.816305
    2       -7.105201     -6.707463
    3       -6.827205     -6.661473
    4       -6.760386     -6.518202
    5       -6.759884     -6.518113
    6       -6.628607     -6.467655
    7       -6.628513     -6.467083
    8       -6.481807     -6.283186
    9       -6.396278     -6.262501
   10       -6.155070     -5.967859
   11       -6.007668     -5.705805
   12       -5.938500     -5.648586
   13       -5.937926     -5.647873
   14       -5.520355     -5.255531
   15       -5.345397     -5.182212
   16       -5.345309     -5.182131
   17       -5.011272     -4.853184
   18       -5.010951     -4.852864
   19       -4.884522     -4.803145
   20       -4.838265     -4.756446
   21       -4.489824     -4.309031
   22       -4.458595     -4.284285
   23       -4.403068     -4.272536
   24       -4.361849     -4.222204
   25       -4.357796     -4.171214
   26       -4.357537     -4.035550
   27       -4.351560     -4.035270
   28       -4.330430     -3.848088
   29       -3.963841     -3.847730
   30       -3.963488     -3.738496
   31       -3.893493     -3.485681
   32       -3.097285     -3.038165
   33       -3.096988     -2.974156
   34       -3.061577     -2.973876
   35       -1.186757     -1.148285
   36       -1.150703     -1.016296
   37       -0.908112     -0.874846
   38       -0.533415     -0.458810
   39       -0.428251     -0.434135
   40       -0.428185     -0.434073
