       N       E                     dE             d eps       ncg     rms          rms(c)
DAV:   1     0.566450896766E+03    0.56645E+03   -0.11051E+04   176   0.872E+02
DAV:   2     0.363769446693E+03   -0.20268E+03   -0.18596E+03   304   0.139E+02
DAV:   3     0.220758050024E+03   -0.14301E+03   -0.13187E+03   320   0.252E+02
DAV:   4     0.862685143404E+02   -0.13449E+03   -0.12761E+03   320   0.256E+02
DAV:   5     0.164566449461E+02   -0.69812E+02   -0.61590E+02   320   0.219E+02
DAV:   6    -0.842223615013E+01   -0.24879E+02   -0.21636E+02   320   0.110E+02
DAV:   7    -0.147538330420E+02   -0.63316E+01   -0.59268E+01   320   0.625E+01
DAV:   8    -0.216023717206E+02   -0.68485E+01   -0.28891E+01   312   0.267E+01    0.131E+01
DAV:   9    -0.225507540819E+02   -0.94838E+00   -0.11284E+01   320   0.184E+01    0.116E+01
DAV:  10    -0.223341034701E+02    0.21665E+00   -0.12682E+00   320   0.104E+01    0.106E+01
DAV:  11    -0.208596797341E+02    0.14744E+01   -0.74813E+00   304   0.351E+01    0.776E+00
DAV:  12    -0.208771583169E+02   -0.17479E-01   -0.62434E-01   312   0.420E+00    0.549E+00
DAV:  13    -0.208475092640E+02    0.29649E-01   -0.35418E-02   320   0.264E+00    0.522E+00
DAV:  14    -0.207786710472E+02    0.68838E-01   -0.82451E-01   296   0.950E+00    0.316E+00
DAV:  15    -0.208253566027E+02   -0.46686E-01   -0.16935E-01   320   0.421E+00    0.291E+00
DAV:  16    -0.207569268952E+02    0.68430E-01   -0.53987E-02   320   0.392E+00    0.201E+00
DAV:  17    -0.207195028178E+02    0.37424E-01   -0.74988E-02   312   0.430E+00    0.139E+00
DAV:  18    -0.207157094056E+02    0.37934E-02   -0.95426E-03   312   0.145E+00    0.119E+00
DAV:  19    -0.206929573574E+02    0.22752E-01   -0.64390E-02   312   0.388E+00    0.878E-01
DAV:  20    -0.206952812030E+02   -0.23238E-02   -0.32231E-03   272   0.611E-01    0.831E-01
DAV:  21    -0.206919177891E+02    0.33634E-02   -0.13491E-02   312   0.161E+00    0.678E-01
DAV:  22    -0.206928189801E+02   -0.90119E-03   -0.86592E-04   304   0.304E-01    0.662E-01
DAV:  23    -0.206916694586E+02    0.11495E-02   -0.18095E-03   256   0.355E-01    0.556E-01
DAV:  24    -0.206918305346E+02   -0.16108E-03   -0.91918E-04   304   0.270E-01    0.507E-01
DAV:  25    -0.206916700819E+02    0.16045E-03   -0.86199E-05   288   0.128E-01    0.496E-01
DAV:  26    -0.206911114234E+02    0.55866E-03   -0.48661E-04   320   0.315E-01    0.416E-01
DAV:  27    -0.206909477960E+02    0.16363E-03   -0.14387E-04   320   0.144E-01    0.378E-01
DAV:  28    -0.206905755267E+02    0.37227E-03   -0.19338E-04   296   0.984E-02    0.326E-01
DAV:  29    -0.206903139818E+02    0.26154E-03   -0.21262E-04   320   0.138E-01    0.293E-01
DAV:  30    -0.206902618043E+02    0.52178E-04   -0.30637E-05   312   0.595E-02    0.278E-01
DAV:  31    -0.206899613405E+02    0.30046E-03   -0.51706E-04   288   0.210E-01    0.151E-01
DAV:  32    -0.206899513695E+02    0.99710E-05   -0.69792E-05   312   0.110E-01    0.145E-01
DAV:  33    -0.206899464672E+02    0.49023E-05   -0.36294E-06   168   0.173E-02    0.141E-01
DAV:  34    -0.206899374113E+02    0.90560E-05   -0.23603E-05   280   0.403E-02    0.122E-01
DAV:  35    -0.206899094756E+02    0.27936E-04   -0.19628E-04   296   0.123E-01    0.508E-02
DAV:  36    -0.206899067923E+02    0.26834E-05   -0.37868E-05   304   0.865E-02    0.439E-02
DAV:  37    -0.206899076330E+02   -0.84073E-06   -0.57851E-06   128   0.263E-02
   1 F= -.20689908E+02 E0= -.20689908E+02  d E =-.206899E+02  mag=     1.9984
       N       E                     dE             d eps       ncg     rms          rms(c)
DAV:   1    -0.206862786584E+02    0.36281E-02   -0.24409E+00   240   0.387E+01    0.284E-01
DAV:   2    -0.206917525946E+02   -0.54739E-02   -0.55708E-02   248   0.491E+00    0.239E-01
DAV:   3    -0.206920242937E+02   -0.27170E-03   -0.23917E-03   240   0.101E+00    0.239E-01
DAV:   4    -0.206920344448E+02   -0.10151E-04   -0.20528E-04   272   0.246E-01    0.235E-01
DAV:   5    -0.206920264585E+02    0.79863E-05   -0.36169E-04   224   0.296E-01    0.159E-01
DAV:   6    -0.206919669830E+02    0.59476E-04   -0.37089E-04   240   0.306E-01    0.110E-01
DAV:   7    -0.206920868722E+02   -0.11989E-03   -0.66875E-05   264   0.142E-01    0.532E-02
DAV:   8    -0.206921087929E+02   -0.21921E-04   -0.20652E-05   288   0.623E-02    0.296E-02
DAV:   9    -0.206920953255E+02    0.13467E-04   -0.18095E-05   272   0.714E-02    0.211E-02
DAV:  10    -0.206920906231E+02    0.47024E-05   -0.52231E-06   160   0.447E-02    0.167E-02
DAV:  11    -0.206920881855E+02    0.24377E-05   -0.16926E-05   240   0.398E-02    0.111E-02
DAV:  12    -0.206920865221E+02    0.16634E-05   -0.10878E-06   104   0.341E-02    0.829E-03
DAV:  13    -0.206920866580E+02   -0.13587E-06   -0.13003E-05   160   0.383E-02    0.680E-03
DAV:  14    -0.206920868267E+02   -0.16873E-06   -0.10931E-06   104   0.302E-02
   2 F= -.20692087E+02 E0= -.20692087E+02  d E =-.217919E-02  mag=     2.0000
       N       E                     dE             d eps       ncg     rms          rms(c)
DAV:   1    -0.206920776902E+02    0.89678E-05   -0.16083E-02   240   0.314E+00    0.245E-02
DAV:   2    -0.206921131705E+02   -0.35480E-04   -0.36711E-04   256   0.399E-01    0.214E-02
DAV:   3    -0.206921143277E+02   -0.11572E-05   -0.15819E-05   224   0.817E-02    0.212E-02
DAV:   4    -0.206921142363E+02    0.91469E-07   -0.37309E-07   104   0.213E-02    0.202E-02
DAV:   5    -0.206921149041E+02   -0.66780E-06   -0.11598E-05   208   0.598E-02    0.877E-03
DAV:   6    -0.206921157383E+02   -0.83423E-06   -0.29549E-07    96   0.152E-02
   3 F= -.20692116E+02 E0= -.20692116E+02  d E =-.220811E-02  mag=     2.0000
