CuPd                                    
   1.00000000000000     
    17.0000000000000000    0.0000000000000000    0.0000000000000000
     0.0000000000000000   17.0000000000000000    0.0000000000000000
     0.0000000000000000    0.0000000000000000   17.0000000000000000
   Pd
     6
Direct
  0.0000005882352951  0.0000021939433272  0.1075372430866356
  0.9999995294117667  0.9999972766449086  0.8924626392663025
  0.8848248600859987  0.9999975882352956  0.0000005882352951
  0.0000017058823545  0.8924834512923798  0.0000004647189483
  0.1151748457963538  0.0000010588235284  0.9999994705882358
  0.9999984117647074  0.1075183134134985 -0.0000004647189484
 
  0.00000000E+00  0.00000000E+00  0.00000000E+00
  0.00000000E+00  0.00000000E+00  0.00000000E+00
  0.00000000E+00  0.00000000E+00  0.00000000E+00
  0.00000000E+00  0.00000000E+00  0.00000000E+00
  0.00000000E+00  0.00000000E+00  0.00000000E+00
  0.00000000E+00  0.00000000E+00  0.00000000E+00
