PROCAR new format
# of k-points:    1         # of bands:  40         # of ions:   6

 k-point    1 :    0.00000000 0.00000000 0.00000000     weight = 1.00000000

band   1 # energy   -7.88357626 # occ.  1.00000000
 
ion      s      p      d      f    tot
  1  0.040  0.016  0.109  0.000  0.166
  2  0.040  0.016  0.109  0.000  0.166
  3  0.032  0.014  0.075  0.000  0.122
  4  0.040  0.016  0.109  0.000  0.166
  5  0.032  0.014  0.075  0.000  0.122
  6  0.040  0.016  0.109  0.000  0.166
tot  0.226  0.092  0.587  0.002  0.908
 
band   2 # energy   -7.10520051 # occ.  1.00000000
 
ion      s      p      d      f    tot
  1  0.000  0.005  0.229  0.000  0.234
  2  0.000  0.005  0.229  0.000  0.234
  3  0.000  0.000  0.023  0.000  0.024
  4  0.000  0.005  0.229  0.000  0.235
  5  0.000  0.000  0.023  0.000  0.024
  6  0.000  0.005  0.228  0.000  0.234
tot  0.000  0.021  0.961  0.002  0.985
 
band   3 # energy   -6.82720510 # occ.  1.00000000
 
ion      s      p      d      f    tot
  1  0.000  0.005  0.186  0.000  0.192
  2  0.000  0.005  0.186  0.000  0.192
  3  0.049  0.011  0.031  0.000  0.091
  4  0.000  0.005  0.186  0.000  0.192
  5  0.049  0.011  0.031  0.000  0.091
  6  0.000  0.005  0.186  0.000  0.191
tot  0.098  0.043  0.806  0.002  0.949
 
band   4 # energy   -6.76038558 # occ.  1.00000000
 
ion      s      p      d      f    tot
  1  0.055  0.009  0.030  0.000  0.095
  2  0.055  0.009  0.030  0.000  0.095
  3  0.000  0.003  0.085  0.000  0.089
  4  0.000  0.006  0.288  0.000  0.294
  5  0.000  0.003  0.085  0.000  0.089
  6  0.000  0.006  0.289  0.000  0.295
tot  0.112  0.036  0.807  0.002  0.957
 
band   5 # energy   -6.75988383 # occ.  1.00000000
 
ion      s      p      d      f    tot
  1  0.000  0.006  0.288  0.000  0.295
  2  0.000  0.006  0.288  0.000  0.295
  3  0.000  0.003  0.085  0.000  0.088
  4  0.055  0.009  0.030  0.000  0.095
  5  0.000  0.003  0.085  0.000  0.089
  6  0.055  0.009  0.030  0.000  0.095
tot  0.112  0.036  0.807  0.002  0.957
 
band   6 # energy   -6.62860691 # occ.  1.00000000
 
ion      s      p      d      f    tot
  1  0.000  0.005  0.193  0.000  0.198
  2  0.000  0.005  0.193  0.000  0.198
  3  0.000  0.006  0.163  0.000  0.169
  4  0.000  0.001  0.111  0.001  0.112
  5  0.000  0.006  0.163  0.000  0.169
  6  0.000  0.001  0.111  0.001  0.112
tot  0.000  0.023  0.932  0.002  0.958
 
band   7 # energy   -6.62851266 # occ.  1.00000000
 
ion      s      p      d      f    tot
  1  0.000  0.001  0.110  0.001  0.112
  2  0.000  0.001  0.111  0.001  0.112
  3  0.000  0.006  0.163  0.000  0.169
  4  0.000  0.005  0.193  0.000  0.198
  5  0.000  0.006  0.163  0.000  0.169
  6  0.000  0.005  0.193  0.000  0.198
tot  0.000  0.023  0.932  0.002  0.958
 
band   8 # energy   -6.48180653 # occ.  1.00000000
 
ion      s      p      d      f    tot
  1  0.033  0.002  0.181  0.000  0.216
  2  0.033  0.002  0.181  0.000  0.216
  3  0.001  0.000  0.000  0.000  0.001
  4  0.033  0.001  0.181  0.000  0.216
  5  0.001  0.000  0.000  0.000  0.001
  6  0.033  0.002  0.181  0.000  0.216
tot  0.134  0.006  0.725  0.002  0.866
 
band   9 # energy   -6.39627762 # occ.  1.00000000
 
ion      s      p      d      f    tot
  1  0.000  0.000  0.172  0.000  0.173
  2  0.000  0.000  0.172  0.000  0.173
  3  0.000  0.000  0.099  0.000  0.100
  4  0.000  0.000  0.172  0.000  0.173
  5  0.000  0.000  0.099  0.000  0.100
  6  0.000  0.000  0.173  0.000  0.173
tot  0.000  0.000  0.888  0.003  0.891
 
band  10 # energy   -6.15506993 # occ.  1.00000000
 
ion      s      p      d      f    tot
  1  0.035  0.001  0.093  0.000  0.129
  2  0.035  0.001  0.093  0.000  0.129
  3  0.069  0.003  0.035  0.000  0.107
  4  0.035  0.001  0.094  0.000  0.130
  5  0.069  0.003  0.035  0.000  0.107
  6  0.035  0.001  0.094  0.000  0.130
tot  0.277  0.011  0.444  0.001  0.733
 
band  11 # energy   -6.00766798 # occ.  1.00000000
 
ion      s      p      d      f    tot
  1  0.007  0.000  0.093  0.000  0.101
  2  0.007  0.000  0.093  0.000  0.101
  3  0.000  0.000  0.256  0.000  0.256
  4  0.007  0.000  0.093  0.000  0.101
  5  0.000  0.000  0.256  0.000  0.256
  6  0.007  0.000  0.092  0.000  0.100
tot  0.030  0.001  0.883  0.001  0.914
 
band  12 # energy   -5.93850017 # occ.  1.00000000
 
ion      s      p      d      f    tot
  1  0.000  0.001  0.018  0.000  0.019
  2  0.000  0.001  0.018  0.000  0.019
  3  0.000  0.004  0.124  0.000  0.128
  4  0.004  0.000  0.326  0.000  0.331
  5  0.000  0.004  0.124  0.000  0.128
  6  0.004  0.000  0.327  0.000  0.332
tot  0.008  0.010  0.937  0.002  0.956
 
band  13 # energy   -5.93792636 # occ.  1.00000000
 
ion      s      p      d      f    tot
  1  0.004  0.000  0.327  0.000  0.331
  2  0.004  0.000  0.327  0.000  0.331
  3  0.000  0.004  0.124  0.000  0.128
  4  0.000  0.001  0.018  0.000  0.019
  5  0.000  0.004  0.124  0.000  0.128
  6  0.000  0.001  0.018  0.000  0.019
tot  0.007  0.010  0.937  0.002  0.956
 
band  14 # energy   -5.52035476 # occ.  1.00000000
 
ion      s      p      d      f    tot
  1  0.000  0.001  0.080  0.000  0.081
  2  0.000  0.001  0.080  0.000  0.081
  3  0.000  0.000  0.316  0.000  0.317
  4  0.000  0.001  0.079  0.000  0.081
  5  0.000  0.000  0.316  0.000  0.317
  6  0.000  0.001  0.079  0.000  0.081
tot  0.000  0.005  0.951  0.002  0.957
 
band  15 # energy   -5.34539685 # occ.  1.00000000
 
ion      s      p      d      f    tot
  1  0.003  0.003  0.132  0.000  0.138
  2  0.003  0.003  0.132  0.000  0.138
  3  0.000  0.002  0.010  0.000  0.013
  4  0.007  0.002  0.292  0.000  0.301
  5  0.000  0.002  0.010  0.000  0.013
  6  0.007  0.002  0.292  0.000  0.301
tot  0.022  0.014  0.867  0.002  0.904
 
band  16 # energy   -5.34530915 # occ.  1.00000000
 
ion      s      p      d      f    tot
  1  0.007  0.002  0.292  0.000  0.301
  2  0.007  0.002  0.292  0.000  0.301
  3  0.000  0.002  0.010  0.000  0.013
  4  0.003  0.003  0.132  0.000  0.138
  5  0.000  0.002  0.010  0.000  0.013
  6  0.003  0.003  0.132  0.000  0.138
tot  0.022  0.014  0.867  0.002  0.904
 
band  17 # energy   -5.01127196 # occ.  1.00000000
 
ion      s      p      d      f    tot
  1  0.000  0.000  0.352  0.000  0.353
  2  0.000  0.000  0.352  0.000  0.353
  3  0.000  0.001  0.038  0.000  0.039
  4  0.000  0.001  0.070  0.000  0.071
  5  0.000  0.001  0.038  0.000  0.039
  6  0.000  0.001  0.070  0.000  0.071
tot  0.000  0.003  0.920  0.002  0.925
 
band  18 # energy   -5.01095053 # occ.  1.00000000
 
ion      s      p      d      f    tot
  1  0.000  0.001  0.070  0.000  0.071
  2  0.000  0.001  0.070  0.000  0.071
  3  0.000  0.001  0.038  0.000  0.039
  4  0.000  0.000  0.352  0.000  0.353
  5  0.000  0.001  0.038  0.000  0.039
  6  0.000  0.000  0.352  0.000  0.352
tot  0.000  0.003  0.920  0.002  0.925
 
band  19 # energy   -4.88452204 # occ.  1.00000000
 
ion      s      p      d      f    tot
  1  0.000  0.003  0.004  0.000  0.008
  2  0.000  0.003  0.004  0.000  0.008
  3  0.017  0.001  0.408  0.000  0.426
  4  0.000  0.003  0.004  0.000  0.008
  5  0.017  0.001  0.408  0.000  0.426
  6  0.000  0.003  0.004  0.000  0.008
tot  0.034  0.015  0.834  0.002  0.884
 
band  20 # energy   -4.83826451 # occ.  1.00000000
 
ion      s      p      d      f    tot
  1  0.000  0.002  0.014  0.000  0.016
  2  0.000  0.002  0.014  0.000  0.016
  3  0.000  0.000  0.423  0.000  0.423
  4  0.000  0.002  0.014  0.000  0.016
  5  0.000  0.000  0.423  0.000  0.423
  6  0.000  0.002  0.014  0.000  0.016
tot  0.000  0.008  0.902  0.001  0.911
 
band  21 # energy   -4.48982448 # occ.  1.00000000
 
ion      s      p      d      f    tot
  1  0.000  0.000  0.241  0.000  0.241
  2  0.000  0.000  0.241  0.000  0.241
  3  0.000  0.000  0.000  0.000  0.000
  4  0.000  0.000  0.240  0.000  0.240
  5  0.000  0.000  0.000  0.000  0.000
  6  0.000  0.000  0.240  0.000  0.240
tot  0.000  0.000  0.961  0.001  0.962
 
band  22 # energy   -4.45859501 # occ.  1.00000000
 
ion      s      p      d      f    tot
  1  0.001  0.002  0.230  0.000  0.233
  2  0.001  0.002  0.230  0.000  0.233
  3  0.000  0.000  0.007  0.000  0.007
  4  0.001  0.002  0.229  0.000  0.232
  5  0.000  0.000  0.007  0.000  0.007
  6  0.001  0.002  0.229  0.000  0.232
tot  0.003  0.008  0.929  0.001  0.942
 
band  23 # energy   -4.40306787 # occ.  1.00000000
 
ion      s      p      d      f    tot
  1  0.000  0.005  0.154  0.000  0.159
  2  0.000  0.005  0.154  0.000  0.159
  3  0.000  0.000  0.138  0.001  0.139
  4  0.000  0.005  0.154  0.000  0.159
  5  0.000  0.000  0.138  0.001  0.139
  6  0.000  0.005  0.154  0.000  0.159
tot  0.000  0.019  0.892  0.002  0.912
 
band  24 # energy   -4.36184895 # occ.  1.00000000
 
ion      s      p      d      f    tot
  1  0.000  0.000  0.056  0.000  0.056
  2  0.000  0.000  0.056  0.000  0.056
  3  0.000  0.000  0.367  0.000  0.367
  4  0.000  0.000  0.056  0.000  0.056
  5  0.000  0.000  0.367  0.000  0.367
  6  0.000  0.000  0.056  0.000  0.056
tot  0.000  0.000  0.958  0.001  0.959
 
band  25 # energy   -4.35779621 # occ.  1.00000000
 
ion      s      p      d      f    tot
  1  0.003  0.000  0.125  0.001  0.129
  2  0.003  0.000  0.125  0.001  0.129
  3  0.000  0.002  0.184  0.000  0.186
  4  0.000  0.008  0.133  0.000  0.141
  5  0.000  0.002  0.184  0.000  0.186
  6  0.000  0.008  0.132  0.000  0.140
tot  0.005  0.021  0.882  0.003  0.910
 
band  26 # energy   -4.35753705 # occ.  1.00000000
 
ion      s      p      d      f    tot
  1  0.000  0.008  0.132  0.000  0.140
  2  0.000  0.008  0.132  0.000  0.140
  3  0.000  0.002  0.184  0.000  0.186
  4  0.003  0.000  0.125  0.001  0.129
  5  0.000  0.002  0.184  0.000  0.186
  6  0.003  0.000  0.125  0.001  0.129
tot  0.005  0.021  0.882  0.003  0.910
 
band  27 # energy   -4.35156021 # occ.  1.00000000
 
ion      s      p      d      f    tot
  1  0.000  0.001  0.061  0.000  0.063
  2  0.000  0.001  0.061  0.000  0.063
  3  0.000  0.001  0.343  0.000  0.345
  4  0.000  0.001  0.062  0.000  0.064
  5  0.000  0.001  0.343  0.000  0.345
  6  0.000  0.001  0.062  0.000  0.064
tot  0.002  0.006  0.934  0.001  0.943
 
band  28 # energy   -4.33042996 # occ.  1.00000000
 
ion      s      p      d      f    tot
  1  0.000  0.005  0.228  0.001  0.234
  2  0.000  0.005  0.228  0.001  0.234
  3  0.000  0.000  0.000  0.000  0.000
  4  0.000  0.005  0.228  0.001  0.234
  5  0.000  0.000  0.000  0.000  0.000
  6  0.000  0.005  0.229  0.001  0.235
tot  0.000  0.022  0.913  0.003  0.938
 
band  29 # energy   -3.96384082 # occ.  1.00000000
 
ion      s      p      d      f    tot
  1  0.000  0.006  0.193  0.000  0.199
  2  0.000  0.006  0.193  0.000  0.199
  3  0.000  0.003  0.265  0.000  0.269
  4  0.000  0.000  0.001  0.000  0.001
  5  0.000  0.003  0.265  0.000  0.269
  6  0.000  0.000  0.001  0.000  0.001
tot  0.000  0.018  0.917  0.002  0.938
 
band  30 # energy   -3.96348777 # occ.  1.00000000
 
ion      s      p      d      f    tot
  1  0.000  0.000  0.001  0.000  0.001
  2  0.000  0.000  0.001  0.000  0.001
  3  0.000  0.003  0.265  0.000  0.269
  4  0.000  0.006  0.193  0.000  0.199
  5  0.000  0.003  0.265  0.000  0.269
  6  0.000  0.006  0.193  0.000  0.199
tot  0.000  0.018  0.917  0.002  0.937
 
band  31 # energy   -3.89349293 # occ.  1.00000000
 
ion      s      p      d      f    tot
  1  0.000  0.000  0.146  0.001  0.147
  2  0.000  0.000  0.146  0.001  0.147
  3  0.000  0.000  0.192  0.001  0.192
  4  0.000  0.000  0.146  0.001  0.147
  5  0.000  0.000  0.192  0.001  0.192
  6  0.000  0.000  0.146  0.001  0.147
tot  0.000  0.000  0.968  0.004  0.972
 
band  32 # energy   -3.09728498 # occ.  0.00000000
 
ion      s      p      d      f    tot
  1  0.103  0.010  0.015  0.000  0.129
  2  0.103  0.010  0.015  0.000  0.129
  3  0.000  0.017  0.051  0.000  0.068
  4  0.000  0.016  0.018  0.000  0.035
  5  0.000  0.017  0.051  0.000  0.068
  6  0.000  0.016  0.018  0.000  0.035
tot  0.208  0.088  0.169  0.000  0.464
 
band  33 # energy   -3.09698757 # occ.  0.00000000
 
ion      s      p      d      f    tot
  1  0.000  0.016  0.018  0.000  0.035
  2  0.000  0.016  0.018  0.000  0.035
  3  0.000  0.017  0.051  0.000  0.068
  4  0.103  0.010  0.015  0.000  0.129
  5  0.000  0.017  0.051  0.000  0.068
  6  0.103  0.010  0.015  0.000  0.129
tot  0.207  0.088  0.169  0.000  0.464
 
band  34 # energy   -3.06157671 # occ.  0.00000000
 
ion      s      p      d      f    tot
  1  0.000  0.017  0.031  0.000  0.049
  2  0.000  0.017  0.031  0.000  0.049
  3  0.107  0.007  0.025  0.000  0.140
  4  0.000  0.017  0.031  0.000  0.049
  5  0.107  0.007  0.025  0.000  0.140
  6  0.000  0.017  0.031  0.000  0.049
tot  0.214  0.084  0.176  0.000  0.475
 
band  35 # energy   -1.18675690 # occ.  0.00000000
 
ion      s      p      d      f    tot
  1  0.017  0.005  0.013  0.000  0.035
  2  0.017  0.005  0.013  0.000  0.035
  3  0.072  0.026  0.004  0.000  0.102
  4  0.016  0.004  0.013  0.000  0.034
  5  0.072  0.026  0.004  0.000  0.102
  6  0.016  0.004  0.013  0.000  0.034
tot  0.211  0.069  0.061  0.001  0.342
 
band  36 # energy   -1.15070256 # occ.  0.00000000
 
ion      s      p      d      f    tot
  1  0.050  0.018  0.009  0.000  0.078
  2  0.050  0.018  0.009  0.000  0.078
  3  0.000  0.000  0.017  0.000  0.017
  4  0.051  0.018  0.009  0.000  0.078
  5  0.000  0.000  0.017  0.000  0.017
  6  0.051  0.018  0.009  0.000  0.078
tot  0.202  0.074  0.070  0.001  0.346
 
band  37 # energy   -0.90811185 # occ.  0.00000000
 
ion      s      p      d      f    tot
  1  0.002  0.037  0.003  0.000  0.042
  2  0.002  0.037  0.003  0.000  0.042
  3  0.003  0.029  0.007  0.000  0.039
  4  0.002  0.037  0.003  0.000  0.042
  5  0.003  0.029  0.007  0.000  0.039
  6  0.002  0.037  0.003  0.000  0.042
tot  0.012  0.205  0.028  0.000  0.245
 
band  38 # energy   -0.53341464 # occ.  0.00000000
 
ion      s      p      d      f    tot
  1  0.000  0.053  0.000  0.000  0.053
  2  0.000  0.053  0.000  0.000  0.053
  3  0.000  0.000  0.021  0.000  0.022
  4  0.000  0.053  0.000  0.000  0.053
  5  0.000  0.000  0.021  0.000  0.022
  6  0.000  0.053  0.000  0.000  0.053
tot  0.000  0.211  0.043  0.001  0.255
 
band  39 # energy   -0.42825138 # occ.  0.00000000
 
ion      s      p      d      f    tot
  1  0.000  0.043  0.002  0.000  0.045
  2  0.000  0.043  0.002  0.000  0.045
  3  0.000  0.050  0.000  0.000  0.050
  4  0.000  0.003  0.019  0.000  0.022
  5  0.000  0.050  0.000  0.000  0.050
  6  0.000  0.003  0.019  0.000  0.022
tot  0.000  0.192  0.041  0.001  0.235
 
band  40 # energy   -0.42818486 # occ.  0.00000000
 
ion      s      p      d      f    tot
  1  0.000  0.003  0.019  0.000  0.022
  2  0.000  0.003  0.019  0.000  0.022
  3  0.000  0.050  0.000  0.000  0.050
  4  0.000  0.043  0.002  0.000  0.045
  5  0.000  0.050  0.000  0.000  0.050
  6  0.000  0.043  0.002  0.000  0.045
tot  0.000  0.192  0.041  0.001  0.235
 
# of k-points:    1         # of bands:  40         # of ions:   6

 k-point    1 :    0.00000000 0.00000000 0.00000000     weight = 1.00000000

band   1 # energy   -7.81630512 # occ.  1.00000000
 
ion      s      p      d      f    tot
  1  0.043  0.017  0.103  0.000  0.163
  2  0.043  0.017  0.103  0.000  0.163
  3  0.036  0.015  0.075  0.000  0.126
  4  0.043  0.017  0.103  0.000  0.163
  5  0.036  0.015  0.075  0.000  0.126
  6  0.043  0.017  0.103  0.000  0.163
tot  0.242  0.098  0.563  0.002  0.904
 
band   2 # energy   -6.70746321 # occ.  1.00000000
 
ion      s      p      d      f    tot
  1  0.000  0.006  0.182  0.001  0.189
  2  0.000  0.006  0.182  0.001  0.189
  3  0.052  0.011  0.033  0.000  0.096
  4  0.000  0.006  0.183  0.001  0.189
  5  0.052  0.011  0.033  0.000  0.096
  6  0.000  0.006  0.182  0.001  0.188
tot  0.104  0.045  0.795  0.002  0.947
 
band   3 # energy   -6.66147286 # occ.  1.00000000
 
ion      s      p      d      f    tot
  1  0.000  0.007  0.220  0.000  0.227
  2  0.000  0.007  0.220  0.000  0.227
  3  0.000  0.000  0.037  0.001  0.038
  4  0.000  0.007  0.220  0.000  0.227
  5  0.000  0.000  0.037  0.001  0.038
  6  0.000  0.007  0.219  0.000  0.227
tot  0.000  0.027  0.954  0.003  0.983
 
band   4 # energy   -6.51820187 # occ.  1.00000000
 
ion      s      p      d      f    tot
  1  0.000  0.005  0.184  0.000  0.190
  2  0.000  0.005  0.184  0.000  0.189
  3  0.000  0.006  0.173  0.000  0.179
  4  0.000  0.001  0.109  0.001  0.111
  5  0.000  0.006  0.173  0.000  0.179
  6  0.000  0.001  0.109  0.001  0.111
tot  0.000  0.024  0.931  0.003  0.958
 
band   5 # energy   -6.51811322 # occ.  1.00000000
 
ion      s      p      d      f    tot
  1  0.000  0.001  0.109  0.001  0.110
  2  0.000  0.001  0.109  0.001  0.111
  3  0.000  0.006  0.173  0.000  0.179
  4  0.000  0.005  0.184  0.000  0.189
  5  0.000  0.006  0.173  0.000  0.179
  6  0.000  0.005  0.184  0.000  0.190
tot  0.000  0.024  0.931  0.003  0.958
 
band   6 # energy   -6.46765526 # occ.  1.00000000
 
ion      s      p      d      f    tot
  1  0.066  0.010  0.018  0.000  0.094
  2  0.066  0.010  0.018  0.000  0.094
  3  0.000  0.004  0.137  0.000  0.142
  4  0.000  0.007  0.230  0.000  0.237
  5  0.000  0.004  0.137  0.000  0.142
  6  0.000  0.007  0.230  0.000  0.238
tot  0.132  0.043  0.770  0.002  0.948
 
band   7 # energy   -6.46708306 # occ.  1.00000000
 
ion      s      p      d      f    tot
  1  0.000  0.007  0.230  0.000  0.237
  2  0.000  0.007  0.230  0.000  0.238
  3  0.000  0.004  0.137  0.000  0.142
  4  0.066  0.010  0.018  0.000  0.094
  5  0.000  0.004  0.137  0.000  0.142
  6  0.066  0.010  0.018  0.000  0.094
tot  0.132  0.043  0.770  0.002  0.947
 
band   8 # energy   -6.28318589 # occ.  1.00000000
 
ion      s      p      d      f    tot
  1  0.000  0.000  0.167  0.000  0.167
  2  0.000  0.000  0.167  0.000  0.167
  3  0.000  0.000  0.109  0.000  0.110
  4  0.000  0.000  0.167  0.000  0.167
  5  0.000  0.000  0.109  0.000  0.110
  6  0.000  0.000  0.167  0.000  0.167
tot  0.000  0.000  0.886  0.003  0.888
 
band   9 # energy   -6.26250098 # occ.  1.00000000
 
ion      s      p      d      f    tot
  1  0.057  0.002  0.117  0.000  0.177
  2  0.057  0.002  0.117  0.000  0.177
  3  0.020  0.001  0.005  0.000  0.026
  4  0.057  0.002  0.117  0.000  0.177
  5  0.020  0.001  0.005  0.000  0.026
  6  0.058  0.002  0.117  0.000  0.177
tot  0.270  0.012  0.478  0.002  0.761
 
band  10 # energy   -5.96785887 # occ.  1.00000000
 
ion      s      p      d      f    tot
  1  0.007  0.000  0.156  0.000  0.164
  2  0.007  0.000  0.156  0.000  0.164
  3  0.048  0.002  0.039  0.000  0.089
  4  0.007  0.000  0.157  0.000  0.164
  5  0.048  0.002  0.039  0.000  0.089
  6  0.007  0.000  0.157  0.000  0.164
tot  0.124  0.004  0.705  0.002  0.834
 
band  11 # energy   -5.70580480 # occ.  1.00000000
 
ion      s      p      d      f    tot
  1  0.008  0.000  0.089  0.000  0.097
  2  0.008  0.000  0.089  0.000  0.097
  3  0.000  0.000  0.259  0.000  0.260
  4  0.008  0.000  0.089  0.000  0.098
  5  0.000  0.000  0.259  0.000  0.260
  6  0.008  0.000  0.088  0.000  0.097
tot  0.033  0.001  0.873  0.001  0.909
 
band  12 # energy   -5.64858597 # occ.  1.00000000
 
ion      s      p      d      f    tot
  1  0.000  0.002  0.052  0.000  0.054
  2  0.000  0.002  0.052  0.000  0.054
  3  0.000  0.002  0.101  0.000  0.104
  4  0.000  0.000  0.321  0.001  0.322
  5  0.000  0.002  0.101  0.000  0.104
  6  0.000  0.000  0.323  0.001  0.324
tot  0.001  0.008  0.950  0.002  0.961
 
band  13 # energy   -5.64787323 # occ.  1.00000000
 
ion      s      p      d      f    tot
  1  0.000  0.000  0.322  0.001  0.323
  2  0.000  0.000  0.322  0.001  0.323
  3  0.000  0.002  0.101  0.000  0.103
  4  0.000  0.002  0.052  0.000  0.054
  5  0.000  0.002  0.101  0.000  0.103
  6  0.000  0.002  0.052  0.000  0.054
tot  0.001  0.008  0.950  0.002  0.961
 
band  14 # energy   -5.25553131 # occ.  1.00000000
 
ion      s      p      d      f    tot
  1  0.000  0.001  0.091  0.000  0.092
  2  0.000  0.001  0.091  0.000  0.092
  3  0.000  0.000  0.294  0.000  0.294
  4  0.000  0.001  0.091  0.000  0.092
  5  0.000  0.000  0.294  0.000  0.294
  6  0.000  0.001  0.091  0.000  0.092
tot  0.000  0.004  0.951  0.002  0.958
 
band  15 # energy   -5.18221188 # occ.  1.00000000
 
ion      s      p      d      f    tot
  1  0.005  0.002  0.211  0.000  0.218
  2  0.005  0.002  0.211  0.000  0.218
  3  0.000  0.002  0.011  0.000  0.014
  4  0.005  0.002  0.211  0.000  0.218
  5  0.000  0.002  0.011  0.000  0.014
  6  0.005  0.002  0.211  0.000  0.218
tot  0.020  0.013  0.866  0.002  0.902
 
band  16 # energy   -5.18213099 # occ.  1.00000000
 
ion      s      p      d      f    tot
  1  0.005  0.002  0.211  0.000  0.218
  2  0.005  0.002  0.211  0.000  0.218
  3  0.000  0.002  0.011  0.000  0.014
  4  0.005  0.002  0.211  0.000  0.218
  5  0.000  0.002  0.011  0.000  0.014
  6  0.005  0.002  0.211  0.000  0.218
tot  0.020  0.013  0.866  0.002  0.902
 
band  17 # energy   -4.85318363 # occ.  1.00000000
 
ion      s      p      d      f    tot
  1  0.000  0.000  0.354  0.000  0.354
  2  0.000  0.000  0.353  0.000  0.354
  3  0.000  0.001  0.043  0.000  0.044
  4  0.000  0.001  0.062  0.000  0.063
  5  0.000  0.001  0.043  0.000  0.044
  6  0.000  0.001  0.062  0.000  0.063
tot  0.000  0.004  0.917  0.002  0.922
 
band  18 # energy   -4.85286399 # occ.  1.00000000
 
ion      s      p      d      f    tot
  1  0.000  0.001  0.062  0.000  0.063
  2  0.000  0.001  0.062  0.000  0.063
  3  0.000  0.001  0.043  0.000  0.044
  4  0.000  0.000  0.353  0.000  0.354
  5  0.000  0.001  0.043  0.000  0.044
  6  0.000  0.000  0.353  0.000  0.353
tot  0.000  0.004  0.917  0.002  0.922
 
band  19 # energy   -4.80314453 # occ.  1.00000000
 
ion      s      p      d      f    tot
  1  0.000  0.003  0.004  0.000  0.008
  2  0.000  0.003  0.004  0.000  0.008
  3  0.018  0.001  0.405  0.000  0.423
  4  0.000  0.003  0.004  0.000  0.008
  5  0.018  0.001  0.405  0.000  0.423
  6  0.000  0.003  0.004  0.000  0.008
tot  0.036  0.016  0.826  0.002  0.880
 
band  20 # energy   -4.75644645 # occ.  1.00000000
 
ion      s      p      d      f    tot
  1  0.000  0.001  0.022  0.000  0.024
  2  0.000  0.001  0.022  0.000  0.024
  3  0.000  0.000  0.409  0.000  0.409
  4  0.000  0.001  0.022  0.000  0.024
  5  0.000  0.000  0.409  0.000  0.409
  6  0.000  0.001  0.022  0.000  0.024
tot  0.000  0.005  0.907  0.001  0.913
 
band  21 # energy   -4.30903115 # occ.  1.00000000
 
ion      s      p      d      f    tot
  1  0.000  0.000  0.242  0.000  0.242
  2  0.000  0.000  0.242  0.000  0.242
  3  0.000  0.000  0.000  0.000  0.000
  4  0.000  0.000  0.239  0.000  0.239
  5  0.000  0.000  0.000  0.000  0.000
  6  0.000  0.000  0.239  0.000  0.239
tot  0.000  0.000  0.961  0.001  0.962
 
band  22 # energy   -4.28428510 # occ.  1.00000000
 
ion      s      p      d      f    tot
  1  0.000  0.000  0.060  0.000  0.060
  2  0.000  0.000  0.060  0.000  0.060
  3  0.000  0.000  0.357  0.000  0.357
  4  0.000  0.000  0.063  0.000  0.063
  5  0.000  0.000  0.357  0.000  0.357
  6  0.000  0.000  0.063  0.000  0.063
tot  0.000  0.000  0.958  0.001  0.959
 
band  23 # energy   -4.27253611 # occ.  1.00000000
 
ion      s      p      d      f    tot
  1  0.001  0.002  0.230  0.000  0.233
  2  0.001  0.002  0.230  0.000  0.233
  3  0.000  0.000  0.006  0.000  0.006
  4  0.001  0.002  0.228  0.000  0.231
  5  0.000  0.000  0.006  0.000  0.006
  6  0.001  0.002  0.228  0.000  0.231
tot  0.003  0.008  0.927  0.001  0.940
 
band  24 # energy   -4.22220356 # occ.  1.00000000
 
ion      s      p      d      f    tot
  1  0.001  0.001  0.065  0.000  0.067
  2  0.001  0.001  0.065  0.000  0.067
  3  0.000  0.001  0.333  0.000  0.335
  4  0.001  0.001  0.067  0.000  0.069
  5  0.000  0.001  0.333  0.000  0.335
  6  0.001  0.001  0.067  0.000  0.069
tot  0.004  0.006  0.931  0.001  0.941
 
band  25 # energy   -4.17121390 # occ.  1.00000000
 
ion      s      p      d      f    tot
  1  0.000  0.005  0.142  0.000  0.147
  2  0.000  0.005  0.142  0.000  0.147
  3  0.000  0.000  0.157  0.001  0.158
  4  0.000  0.005  0.142  0.000  0.147
  5  0.000  0.000  0.157  0.001  0.158
  6  0.000  0.005  0.142  0.000  0.147
tot  0.000  0.021  0.883  0.002  0.906
 
band  26 # energy   -4.03555020 # occ.  1.00000000
 
ion      s      p      d      f    tot
  1  0.000  0.000  0.138  0.001  0.139
  2  0.000  0.000  0.138  0.001  0.139
  3  0.000  0.005  0.167  0.000  0.173
  4  0.000  0.005  0.138  0.000  0.143
  5  0.000  0.005  0.167  0.000  0.173
  6  0.000  0.005  0.138  0.000  0.143
tot  0.000  0.020  0.886  0.002  0.909
 
band  27 # energy   -4.03526983 # occ.  1.00000000
 
ion      s      p      d      f    tot
  1  0.000  0.005  0.138  0.000  0.143
  2  0.000  0.005  0.138  0.000  0.143
  3  0.000  0.005  0.167  0.000  0.173
  4  0.000  0.000  0.138  0.001  0.139
  5  0.000  0.005  0.167  0.000  0.173
  6  0.000  0.000  0.138  0.001  0.139
tot  0.000  0.020  0.886  0.002  0.909
 
band  28 # energy   -3.84808804 # occ.  1.00000000
 
ion      s      p      d      f    tot
  1  0.000  0.006  0.208  0.000  0.214
  2  0.000  0.006  0.208  0.000  0.214
  3  0.000  0.003  0.250  0.001  0.253
  4  0.000  0.000  0.000  0.000  0.000
  5  0.000  0.003  0.250  0.001  0.253
  6  0.000  0.000  0.000  0.000  0.000
tot  0.000  0.018  0.916  0.002  0.936
 
band  29 # energy   -3.84773020 # occ.  1.00000000
 
ion      s      p      d      f    tot
  1  0.000  0.000  0.000  0.000  0.000
  2  0.000  0.000  0.000  0.000  0.000
  3  0.000  0.003  0.250  0.001  0.253
  4  0.000  0.006  0.208  0.000  0.214
  5  0.000  0.003  0.250  0.001  0.253
  6  0.000  0.006  0.208  0.000  0.215
tot  0.000  0.018  0.916  0.002  0.936
 
band  30 # energy   -3.73849560 # occ.  0.00000000
 
ion      s      p      d      f    tot
  1  0.000  0.006  0.227  0.001  0.233
  2  0.000  0.006  0.227  0.001  0.233
  3  0.000  0.000  0.000  0.000  0.000
  4  0.000  0.006  0.227  0.001  0.233
  5  0.000  0.000  0.000  0.000  0.000
  6  0.000  0.006  0.227  0.001  0.234
tot  0.000  0.022  0.909  0.003  0.934
 
band  31 # energy   -3.48568145 # occ.  0.00000000
 
ion      s      p      d      f    tot
  1  0.000  0.000  0.148  0.001  0.149
  2  0.000  0.000  0.148  0.001  0.149
  3  0.000  0.000  0.187  0.001  0.188
  4  0.000  0.000  0.148  0.001  0.149
  5  0.000  0.000  0.187  0.001  0.188
  6  0.000  0.000  0.148  0.001  0.149
tot  0.000  0.000  0.968  0.004  0.972
 
band  32 # energy   -3.03816524 # occ.  0.00000000
 
ion      s      p      d      f    tot
  1  0.000  0.016  0.034  0.000  0.050
  2  0.000  0.016  0.034  0.000  0.050
  3  0.102  0.008  0.026  0.000  0.137
  4  0.000  0.016  0.034  0.000  0.050
  5  0.102  0.008  0.026  0.000  0.137
  6  0.000  0.016  0.034  0.000  0.050
tot  0.205  0.082  0.187  0.000  0.474
 
band  33 # energy   -2.97415645 # occ.  0.00000000
 
ion      s      p      d      f    tot
  1  0.097  0.011  0.018  0.000  0.126
  2  0.097  0.011  0.018  0.000  0.126
  3  0.000  0.015  0.037  0.000  0.052
  4  0.001  0.018  0.033  0.000  0.051
  5  0.000  0.015  0.037  0.000  0.052
  6  0.001  0.018  0.033  0.000  0.051
tot  0.196  0.087  0.175  0.000  0.458
 
band  34 # energy   -2.97387596 # occ.  0.00000000
 
ion      s      p      d      f    tot
  1  0.001  0.018  0.033  0.000  0.051
  2  0.001  0.018  0.033  0.000  0.051
  3  0.000  0.015  0.037  0.000  0.052
  4  0.097  0.011  0.018  0.000  0.126
  5  0.000  0.015  0.037  0.000  0.052
  6  0.097  0.011  0.018  0.000  0.126
tot  0.196  0.087  0.175  0.000  0.458
 
band  35 # energy   -1.14828458 # occ.  0.00000000
 
ion      s      p      d      f    tot
  1  0.018  0.001  0.015  0.000  0.034
  2  0.018  0.001  0.015  0.000  0.034
  3  0.064  0.034  0.003  0.000  0.101
  4  0.017  0.001  0.015  0.000  0.033
  5  0.064  0.034  0.003  0.000  0.101
  6  0.017  0.001  0.015  0.000  0.033
tot  0.197  0.074  0.066  0.001  0.337
 
band  36 # energy   -1.01629637 # occ.  0.00000000
 
ion      s      p      d      f    tot
  1  0.047  0.018  0.010  0.000  0.075
  2  0.047  0.018  0.010  0.000  0.075
  3  0.000  0.000  0.017  0.000  0.017
  4  0.047  0.018  0.010  0.000  0.075
  5  0.000  0.000  0.017  0.000  0.017
  6  0.047  0.018  0.010  0.000  0.075
tot  0.188  0.071  0.076  0.001  0.335
 
band  37 # energy   -0.87484560 # occ.  0.00000000
 
ion      s      p      d      f    tot
  1  0.000  0.038  0.003  0.000  0.042
  2  0.000  0.038  0.003  0.000  0.042
  3  0.008  0.020  0.009  0.000  0.037
  4  0.000  0.038  0.003  0.000  0.042
  5  0.008  0.020  0.009  0.000  0.037
  6  0.000  0.038  0.003  0.000  0.042
tot  0.018  0.193  0.030  0.000  0.241
 
band  38 # energy   -0.45880974 # occ.  0.00000000
 
ion      s      p      d      f    tot
  1  0.000  0.051  0.000  0.000  0.051
  2  0.000  0.051  0.000  0.000  0.051
  3  0.000  0.000  0.021  0.000  0.022
  4  0.000  0.051  0.000  0.000  0.051
  5  0.000  0.000  0.021  0.000  0.022
  6  0.000  0.051  0.000  0.000  0.051
tot  0.000  0.204  0.042  0.001  0.248
 
band  39 # energy   -0.43413467 # occ.  0.00000000
 
ion      s      p      d      f    tot
  1  0.000  0.042  0.002  0.000  0.044
  2  0.000  0.042  0.002  0.000  0.044
  3  0.000  0.049  0.000  0.000  0.049
  4  0.000  0.004  0.020  0.000  0.024
  5  0.000  0.049  0.000  0.000  0.049
  6  0.000  0.004  0.020  0.000  0.024
tot  0.000  0.188  0.044  0.001  0.234
 
band  40 # energy   -0.43407293 # occ.  0.00000000
 
ion      s      p      d      f    tot
  1  0.000  0.004  0.020  0.000  0.024
  2  0.000  0.004  0.020  0.000  0.024
  3  0.000  0.049  0.000  0.000  0.049
  4  0.000  0.042  0.002  0.000  0.044
  5  0.000  0.049  0.000  0.000  0.049
  6  0.000  0.042  0.002  0.000  0.044
tot  0.000  0.189  0.044  0.001  0.234
 
