CuPd                                    
           1
    17.000000    0.000000    0.000000
     0.000000   17.000000    0.000000
     0.000000    0.000000   17.000000
   Pd
   6
Direct configuration=     1
   0.00000059  0.00000353  0.10791359
   0.99999953  0.99999594  0.89208629
   0.88451847  0.99999759  0.00000059
   0.00000171  0.89212135  0.99999894
   0.11548124  0.00000106  0.99999947
   0.99999841  0.10788041  0.00000106
Direct configuration=     2
   0.00000059  0.00000229  0.10756548
   0.99999953  0.99999718  0.89243440
   0.88480187  0.99999759  0.00000059
   0.00000171  0.89245628  0.00000035
   0.11519783  0.00000106  0.99999947
   0.99999841  0.10754548 -0.00000035
Direct configuration=     3
   0.00000059  0.00000219  0.10753724
   0.99999953  0.99999728  0.89246264
   0.88482486  0.99999759  0.00000059
   0.00000171  0.89248345  0.00000046
   0.11517485  0.00000106  0.99999947
   0.99999841  0.10751831 -0.00000046
