    6    6  200    2
  0.8188333E+03  0.1700000E-08  0.1700000E-08  0.1700000E-08  0.5000000E-15
  1.000000000000000E-004
  CAR 
 Cd                                      
     72      1     46
 
  0.0000000E+00  0.0000000E+00  0.0000000E+00  0.1000000E+01
    1      -12.223835    -12.223835   1.000000   1.000000
    2      -12.222675    -12.222675   1.000000   1.000000
    3      -12.106946    -12.106946   1.000000   1.000000
    4      -12.038859    -12.038859   1.000000   1.000000
    5      -12.017469    -12.017469   1.000000   1.000000
    6      -12.006479    -12.006479   1.000000   1.000000
    7      -11.987569    -11.987569   1.000000   1.000000
    8      -11.903324    -11.903324   1.000000   1.000000
    9      -11.885013    -11.885013   1.000000   1.000000
   10      -11.862969    -11.862969   1.000000   1.000000
   11      -11.854285    -11.854285   1.000000   1.000000
   12      -11.796392    -11.796392   1.000000   1.000000
   13      -11.750989    -11.750989   1.000000   1.000000
   14      -11.742505    -11.742505   1.000000   1.000000
   15      -11.712126    -11.712126   1.000000   1.000000
   16      -11.710239    -11.710239   1.000000   1.000000
   17      -11.678715    -11.678715   1.000000   1.000000
   18      -11.668313    -11.668313   1.000000   1.000000
   19      -11.650654    -11.650654   1.000000   1.000000
   20      -11.644858    -11.644858   1.000000   1.000000
   21      -11.644429    -11.644429   1.000000   1.000000
   22      -11.627314    -11.627314   1.000000   1.000000
   23      -11.626457    -11.626457   1.000000   1.000000
   24      -11.615605    -11.615605   1.000000   1.000000
   25      -11.602138    -11.602138   1.000000   1.000000
   26      -11.593077    -11.593077   1.000000   1.000000
   27      -11.570317    -11.570317   1.000000   1.000000
   28      -11.548067    -11.548067   1.000000   1.000000
   29      -11.537375    -11.537375   1.000000   1.000000
   30      -11.506510    -11.506510   1.000000   1.000000
   31       -8.337292     -8.337292   1.000000   1.000000
   32       -6.689501     -6.689501   1.000000   1.000000
   33       -5.354413     -5.354413   1.000000   1.000000
   34       -5.203780     -5.203780   1.000000   1.000000
   35       -4.714707     -4.714707   1.000000   1.000000
   36       -4.693618     -4.693618   1.000000   1.000000
   37       -2.294473     -2.294473   0.000000   0.000000
   38       -2.087501     -2.087501   0.000000   0.000000
   39       -2.083003     -2.083004   0.000000   0.000000
   40       -1.853760     -1.853760   0.000000   0.000000
   41       -1.832917     -1.832917   0.000000   0.000000
   42       -1.534779     -1.534779   0.000000   0.000000
   43       -1.167585     -1.167585   0.000000   0.000000
   44       -0.643664     -0.643664   0.000000   0.000000
   45       -0.254018     -0.254018   0.000000   0.000000
   46        0.018022      0.018022   0.000000   0.000000
