       N       E                     dE             d eps       ncg     rms          rms(c)
DAV:   1     0.910679503191E+03    0.91068E+03   -0.15173E+04   184   0.919E+02
DAV:   2     0.332959501635E+03   -0.57772E+03   -0.53804E+03   352   0.278E+02
DAV:   3     0.482302994245E+02   -0.28473E+03   -0.27647E+03   272   0.162E+02
DAV:   4     0.886320676996E+01   -0.39367E+02   -0.39114E+02   288   0.102E+02
DAV:   5     0.814708379787E+01   -0.71612E+00   -0.71434E+00   264   0.175E+01
DAV:   6     0.812944070749E+01   -0.17643E-01   -0.17640E-01   282   0.281E+00
DAV:   7     0.812911603424E+01   -0.32467E-03   -0.32464E-03   272   0.410E-01
DAV:   8     0.812910310792E+01   -0.12926E-04   -0.12926E-04   296   0.814E-02    0.221E+01
DAV:   9     0.803133275861E+01   -0.97770E-01   -0.61337E-03   256   0.854E-01    0.212E+01
DAV:  10     0.801629720604E+01   -0.15036E-01   -0.10447E+00   256   0.109E+01    0.141E+01
DAV:  11     0.799484642699E+01   -0.21451E-01   -0.16614E+00   280   0.108E+01    0.514E+00
DAV:  12     0.783489415857E+01   -0.15995E+00   -0.34544E-01   288   0.403E+00    0.275E+00
DAV:  13     0.795743025704E+01    0.12254E+00   -0.15022E-01   230   0.347E+00    0.233E+00
DAV:  14     0.805876065990E+01    0.10133E+00   -0.30275E-01   268   0.530E+00    0.957E-01
DAV:  15     0.806607493152E+01    0.73143E-02   -0.67070E-02   280   0.176E+00    0.863E-01
DAV:  16     0.806535007434E+01   -0.72486E-03   -0.10308E-02   208   0.124E+00    0.512E-01
DAV:  17     0.807064066543E+01    0.52906E-02   -0.22869E-02   252   0.146E+00    0.313E-01
DAV:  18     0.807045642546E+01   -0.18424E-03   -0.35418E-03   232   0.386E-01    0.263E-01
DAV:  19     0.807133824833E+01    0.88182E-03   -0.30242E-03   254   0.691E-01    0.894E-02
DAV:  20     0.807132611926E+01   -0.12129E-04   -0.11354E-03   282   0.265E-01    0.867E-02
DAV:  21     0.807134338120E+01    0.17262E-04   -0.80187E-05   224   0.103E-01    0.759E-02
DAV:  22     0.807140580498E+01    0.62424E-04   -0.37775E-04   264   0.167E-01    0.369E-02
DAV:  23     0.807141571616E+01    0.99112E-05   -0.37754E-05   234   0.858E-02    0.278E-02
DAV:  24     0.807141818282E+01    0.24667E-05   -0.12013E-05   216   0.358E-02    0.286E-02
DAV:  25     0.807141979254E+01    0.16097E-05   -0.69986E-06   184   0.270E-02    0.213E-02
DAV:  26     0.807142012804E+01    0.33550E-06   -0.78973E-06   194   0.376E-02
   1 F= 0.80714201E+01 E0= 0.80714201E+01  d E =0.807142E+01  mag=    -0.0006
       N       E                     dE             d eps       ncg     rms          rms(c)
DAV:   1     0.130072198087E+03    0.12200E+03   -0.16750E+04   276   0.867E+02    0.195E+02
DAV:   2     0.289669045964E+01   -0.12718E+03   -0.12760E+03   216   0.219E+02    0.159E+01
DAV:   3    -0.910756584573E+00   -0.38074E+01   -0.37887E+01   288   0.474E+01    0.188E+01
DAV:   4    -0.948879440028E+00   -0.38123E-01   -0.46553E-01   256   0.521E+00    0.188E+01
DAV:   5    -0.724846489601E+00    0.22403E+00   -0.48748E-01   260   0.579E+00    0.142E+01
DAV:   6    -0.812372775518E+00   -0.87526E-01   -0.11559E+00   244   0.983E+00    0.680E+00
DAV:   7    -0.737994014095E+00    0.74379E-01   -0.18175E-01   208   0.454E+00    0.487E+00
DAV:   8    -0.654015428101E+00    0.83979E-01   -0.18811E-01   256   0.526E+00    0.248E+00
DAV:   9    -0.650919960322E+00    0.30955E-02   -0.86276E-02   256   0.223E+00    0.652E-01
DAV:  10    -0.651248124538E+00   -0.32816E-03   -0.10829E-02   208   0.110E+00    0.472E-01
DAV:  11    -0.646478808995E+00    0.47693E-02   -0.21529E-02   272   0.127E+00    0.440E-01
DAV:  12    -0.646128191266E+00    0.35062E-03   -0.48225E-03   208   0.656E-01    0.310E-01
DAV:  13    -0.646086594333E+00    0.41597E-04   -0.75166E-04   256   0.247E-01    0.294E-01
DAV:  14    -0.645854204924E+00    0.23239E-03   -0.75172E-04   272   0.283E-01    0.243E-01
DAV:  15    -0.645783658191E+00    0.70547E-04   -0.67238E-04   272   0.315E-01    0.151E-01
DAV:  16    -0.645779505046E+00    0.41531E-05   -0.15076E-04   208   0.110E-01    0.149E-01
DAV:  17    -0.645752875448E+00    0.26630E-04   -0.15268E-04   256   0.113E-01    0.767E-02
DAV:  18    -0.645759370663E+00   -0.64952E-05   -0.51633E-05   240   0.739E-02    0.409E-02
DAV:  19    -0.645759754311E+00   -0.38365E-06   -0.10435E-05   208   0.227E-02    0.365E-02
DAV:  20    -0.645753810472E+00    0.59438E-05   -0.29395E-05   224   0.741E-02    0.165E-02
DAV:  21    -0.645753138002E+00    0.67247E-06   -0.18377E-05   272   0.366E-02    0.770E-03
DAV:  22    -0.645753257059E+00   -0.11906E-06   -0.16814E-06   138   0.115E-02
   2 F= -.64575326E+00 E0= -.64575326E+00  d E =-.871717E+01  mag=    -0.0001
       N       E                     dE             d eps       ncg     rms          rms(c)
DAV:   1    -0.682526517888E+00   -0.36773E-01   -0.49107E+01   276   0.646E+01    0.310E-01
DAV:   2    -0.712893814050E+00   -0.30367E-01   -0.30567E-01   248   0.368E+00    0.244E-01
DAV:   3    -0.713360478702E+00   -0.46666E-03   -0.45292E-03   288   0.586E-01    0.231E-01
DAV:   4    -0.713264498311E+00    0.95980E-04   -0.13943E-04   288   0.896E-02    0.224E-01
DAV:   5    -0.713141821930E+00    0.12268E-03   -0.34004E-03   232   0.506E-01    0.154E-01
DAV:   6    -0.713201677669E+00   -0.59856E-04   -0.47989E-04   208   0.138E-01    0.146E-01
DAV:   7    -0.713116554754E+00    0.85123E-04   -0.62136E-05   208   0.770E-02    0.143E-01
DAV:   8    -0.713036069800E+00    0.80485E-04   -0.61504E-04   216   0.308E-01    0.312E-02
DAV:   9    -0.713045323479E+00   -0.92537E-05   -0.10829E-04   208   0.813E-02    0.284E-02
DAV:  10    -0.713048237025E+00   -0.29135E-05   -0.27192E-06   144   0.173E-02    0.291E-02
DAV:  11    -0.713028151542E+00    0.20085E-04   -0.40338E-05   288   0.768E-02    0.130E-02
DAV:  12    -0.713026434852E+00    0.17167E-05   -0.90769E-06   224   0.221E-02    0.870E-03
DAV:  13    -0.713026778876E+00   -0.34402E-06   -0.71550E-07   128   0.833E-03
   3 F= -.71302678E+00 E0= -.71302678E+00  d E =-.878445E+01  mag=     0.0000
       N       E                     dE             d eps       ncg     rms          rms(c)
DAV:   1    -0.639112378763E+00    0.73914E-01   -0.19673E+02   276   0.129E+02    0.107E+00
DAV:   2    -0.808818119528E+00   -0.16971E+00   -0.17095E+00   260   0.858E+00    0.455E-01
DAV:   3    -0.811629806843E+00   -0.28117E-02   -0.25675E-02   288   0.142E+00    0.418E-01
DAV:   4    -0.811447571150E+00    0.18224E-03   -0.74501E-04   288   0.188E-01    0.411E-01
DAV:   5    -0.810932720487E+00    0.51485E-03   -0.10149E-02   232   0.884E-01    0.273E-01
DAV:   6    -0.811156677309E+00   -0.22396E-03   -0.16033E-03   224   0.229E-01    0.264E-01
DAV:   7    -0.810907863825E+00    0.24881E-03   -0.19731E-04   224   0.141E-01    0.262E-01
DAV:   8    -0.810709780239E+00    0.19808E-03   -0.12971E-03   216   0.465E-01    0.531E-02
DAV:   9    -0.810731311431E+00   -0.21531E-04   -0.26234E-04   208   0.107E-01    0.494E-02
DAV:  10    -0.810737999410E+00   -0.66880E-05   -0.54148E-06   212   0.200E-02    0.508E-02
DAV:  11    -0.810689614214E+00    0.48385E-04   -0.14415E-04   288   0.109E-01    0.199E-02
DAV:  12    -0.810687468532E+00    0.21457E-05   -0.96908E-06   208   0.223E-02    0.174E-02
DAV:  13    -0.810687831219E+00   -0.36269E-06   -0.85753E-07   128   0.118E-02
   4 F= -.81068783E+00 E0= -.81068783E+00  d E =-.888211E+01  mag=    -0.0000
       N       E                     dE             d eps       ncg     rms          rms(c)
DAV:   1     0.104881585514E+00    0.91557E+00   -0.79681E+02   264   0.255E+02    0.458E+00
DAV:   2    -0.882071798042E+00   -0.98695E+00   -0.99596E+00   244   0.220E+01    0.793E-01
DAV:   3    -0.900439450292E+00   -0.18368E-01   -0.16225E-01   288   0.348E+00    0.679E-01
DAV:   4    -0.900517811264E+00   -0.78361E-04   -0.39999E-03   288   0.448E-01    0.688E-01
DAV:   5    -0.898524344385E+00    0.19935E-02   -0.17004E-02   256   0.119E+00    0.470E-01
DAV:   6    -0.899390258330E+00   -0.86591E-03   -0.44370E-03   224   0.335E-01    0.442E-01
DAV:   7    -0.898787556815E+00    0.60270E-03   -0.10050E-03   224   0.345E-01    0.436E-01
DAV:   8    -0.899351428448E+00   -0.56387E-03   -0.75669E-04   240   0.176E-01    0.189E-01
DAV:   9    -0.898724434981E+00    0.62699E-03   -0.24898E-03   208   0.630E-01    0.741E-02
DAV:  10    -0.898759377194E+00   -0.34942E-04   -0.66972E-04   208   0.132E-01    0.534E-02
DAV:  11    -0.898731438891E+00    0.27938E-04   -0.35741E-05   256   0.686E-02    0.457E-02
DAV:  12    -0.898694469816E+00    0.36969E-04   -0.13675E-04   288   0.132E-01    0.184E-02
DAV:  13    -0.898700938365E+00   -0.64685E-05   -0.26120E-05   208   0.607E-02    0.180E-02
DAV:  14    -0.898696685252E+00    0.42531E-05   -0.37939E-06   160   0.247E-02    0.141E-02
DAV:  15    -0.898689690225E+00    0.69950E-05   -0.27884E-05   272   0.680E-02    0.775E-03
DAV:  16    -0.898690057905E+00   -0.36768E-06   -0.35871E-06   192   0.124E-02
   5 F= -.89869006E+00 E0= -.89869006E+00  d E =-.897011E+01  mag=    -0.0000
       N       E                     dE             d eps       ncg     rms          rms(c)
DAV:   1    -0.858229728893E+00    0.40460E-01   -0.68709E+01   276   0.758E+01    0.429E-01
DAV:   2    -0.904700229857E+00   -0.46471E-01   -0.46735E-01   272   0.442E+00    0.160E-01
DAV:   3    -0.905485220763E+00   -0.78499E-03   -0.72094E-03   288   0.740E-01    0.145E-01
DAV:   4    -0.905452005419E+00    0.33215E-04   -0.19123E-04   288   0.945E-02    0.143E-01
DAV:   5    -0.905383158086E+00    0.68847E-04   -0.16077E-03   256   0.364E-01    0.105E-01
DAV:   6    -0.905419826512E+00   -0.36668E-04   -0.26415E-04   224   0.929E-02    0.103E-01
DAV:   7    -0.905388521427E+00    0.31305E-04   -0.20478E-05   208   0.449E-02    0.101E-01
DAV:   8    -0.905387510354E+00    0.10111E-05   -0.18482E-04   256   0.177E-01    0.236E-02
DAV:   9    -0.905391484097E+00   -0.39737E-05   -0.43518E-05   224   0.364E-02    0.188E-02
DAV:  10    -0.905392651682E+00   -0.11676E-05   -0.73270E-07   128   0.867E-03    0.191E-02
DAV:  11    -0.905382497713E+00    0.10154E-04   -0.31603E-05   272   0.700E-02    0.119E-02
DAV:  12    -0.905382181104E+00    0.31661E-06   -0.77219E-06   208   0.242E-02
   6 F= -.90538218E+00 E0= -.90538218E+00  d E =-.897680E+01  mag=     0.0000
       N       E                     dE             d eps       ncg     rms          rms(c)
DAV:   1    -0.898635745692E+00    0.67468E-02   -0.16484E+01   276   0.371E+01    0.124E-01
DAV:   2    -0.906178560786E+00   -0.75428E-02   -0.75820E-02   272   0.187E+00    0.753E-02
DAV:   3    -0.906284602679E+00   -0.10604E-03   -0.10249E-03   288   0.273E-01    0.699E-02
DAV:   4    -0.906272372378E+00    0.12230E-04   -0.24489E-05   288   0.378E-02    0.681E-02
DAV:   5    -0.906273718751E+00   -0.13464E-05   -0.35532E-04   256   0.181E-01    0.487E-02
DAV:   6    -0.906282415054E+00   -0.86963E-05   -0.63523E-05   224   0.466E-02    0.468E-02
DAV:   7    -0.906271601358E+00    0.10814E-04   -0.80331E-06   176   0.306E-02    0.456E-02
DAV:   8    -0.906271990539E+00   -0.38918E-06   -0.52699E-05   256   0.878E-02    0.991E-03
DAV:   9    -0.906272860762E+00   -0.87022E-06   -0.95233E-06   208   0.298E-02
   7 F= -.90627286E+00 E0= -.90627286E+00  d E =-.897769E+01  mag=     0.0000
       N       E                     dE             d eps       ncg     rms          rms(c)
DAV:   1    -0.906203517344E+00    0.68473E-04   -0.46381E-01   276   0.621E+00    0.139E-02
DAV:   2    -0.906281213517E+00   -0.77696E-04   -0.78277E-04   256   0.206E-01    0.159E-02
DAV:   3    -0.906282555877E+00   -0.13424E-05   -0.16207E-05   248   0.317E-02    0.156E-02
DAV:   4    -0.906282347367E+00    0.20851E-06   -0.25152E-07   128   0.484E-03    0.156E-02
DAV:   5    -0.906285276902E+00   -0.29295E-05   -0.22196E-05   208   0.658E-02    0.168E-02
DAV:   6    -0.906285588171E+00   -0.31127E-06   -0.31213E-06   176   0.990E-03
   8 F= -.90628559E+00 E0= -.90628559E+00  d E =-.897771E+01  mag=    -0.0000
       N       E                     dE             d eps       ncg     rms          rms(c)
DAV:   1    -0.909696919612E+00   -0.34116E-02   -0.28472E+00   276   0.154E+01    0.281E-02
DAV:   2    -0.910383229113E+00   -0.68631E-03   -0.68922E-03   288   0.630E-01    0.185E-02
DAV:   3    -0.910387140130E+00   -0.39110E-05   -0.72912E-05   276   0.815E-02    0.179E-02
DAV:   4    -0.910384692410E+00    0.24477E-05   -0.11564E-06   128   0.119E-02    0.169E-02
DAV:   5    -0.910385614928E+00   -0.92252E-06   -0.61567E-05   240   0.927E-02    0.110E-02
DAV:   6    -0.910387396902E+00   -0.17820E-05   -0.93615E-06   208   0.175E-02    0.102E-02
DAV:   7    -0.910388071602E+00   -0.67470E-06   -0.23469E-07   128   0.461E-03
   9 F= -.91038807E+00 E0= -.91038807E+00  d E =-.410248E-02  mag=     0.0000
       N       E                     dE             d eps       ncg     rms          rms(c)
DAV:   1    -0.908651771593E+00    0.17356E-02   -0.25576E+01   276   0.461E+01    0.198E-01
DAV:   2    -0.922038575997E+00   -0.13387E-01   -0.13443E-01   288   0.251E+00    0.440E-02
DAV:   3    -0.922243546701E+00   -0.20497E-03   -0.19920E-03   288   0.430E-01    0.393E-02
DAV:   4    -0.922238942027E+00    0.46047E-05   -0.46424E-05   288   0.503E-02    0.385E-02
DAV:   5    -0.922270900169E+00   -0.31958E-04   -0.47658E-05   224   0.111E-01    0.238E-02
DAV:   6    -0.922295038992E+00   -0.24139E-04   -0.43888E-05   256   0.651E-02    0.206E-02
DAV:   7    -0.922303357229E+00   -0.83182E-05   -0.10960E-05   288   0.283E-02    0.219E-02
DAV:   8    -0.922301504902E+00    0.18523E-05   -0.19779E-06   144   0.161E-02    0.183E-02
DAV:   9    -0.922289666123E+00    0.11839E-04   -0.40483E-05   256   0.101E-01    0.479E-03
DAV:  10    -0.922290826537E+00   -0.11604E-05   -0.10255E-05   208   0.178E-02    0.373E-03
DAV:  11    -0.922290834549E+00   -0.80117E-08   -0.12593E-07   128   0.312E-03
  10 F= -.92229083E+00 E0= -.92229083E+00  d E =-.160052E-01  mag=     0.0000
       N       E                     dE             d eps       ncg     rms          rms(c)
DAV:   1    -0.868680040991E+00    0.53611E-01   -0.10241E+02   276   0.923E+01    0.659E-01
DAV:   2    -0.942813238152E+00   -0.74133E-01   -0.74500E-01   288   0.567E+00    0.835E-02
DAV:   3    -0.944069910011E+00   -0.12567E-02   -0.11522E-02   288   0.103E+00    0.685E-02
DAV:   4    -0.944071758966E+00   -0.18490E-05   -0.29986E-04   288   0.120E-01    0.676E-02
DAV:   5    -0.944085794039E+00   -0.14035E-04   -0.87733E-05   256   0.133E-01    0.559E-02
DAV:   6    -0.944153405032E+00   -0.67611E-04   -0.18149E-04   272   0.154E-01    0.480E-02
DAV:   7    -0.944155579083E+00   -0.21741E-05   -0.43887E-05   208   0.487E-02    0.422E-02
DAV:   8    -0.944192157503E+00   -0.36578E-04   -0.25993E-05   256   0.668E-02    0.467E-02
DAV:   9    -0.944192964204E+00   -0.80670E-06   -0.14246E-04   240   0.123E-01    0.140E-02
DAV:  10    -0.944195907528E+00   -0.29433E-05   -0.13271E-05   224   0.318E-02    0.127E-02
DAV:  11    -0.944196662086E+00   -0.75456E-06   -0.73536E-07   144   0.641E-03
  11 F= -.94419666E+00 E0= -.94419666E+00  d E =-.379111E-01  mag=    -0.0000
       N       E                     dE             d eps       ncg     rms          rms(c)
DAV:   1    -0.558787555602E+00    0.38541E+00   -0.41349E+02   276   0.183E+02    0.247E+00
DAV:   2    -0.969857221949E+00   -0.41107E+00   -0.41386E+00   272   0.138E+01    0.176E-01
DAV:   3    -0.979230973266E+00   -0.93738E-02   -0.85641E-02   276   0.255E+00    0.131E-01
DAV:   4    -0.979405211337E+00   -0.17424E-03   -0.23450E-03   288   0.326E-01    0.131E-01
DAV:   5    -0.979417165409E+00   -0.11954E-04   -0.22013E-04   240   0.177E-01    0.113E-01
DAV:   6    -0.979651607860E+00   -0.23444E-03   -0.72929E-04   272   0.314E-01    0.870E-02
DAV:   7    -0.979679177688E+00   -0.27570E-04   -0.18147E-04   208   0.125E-01    0.606E-02
DAV:   8    -0.979783769494E+00   -0.10459E-03   -0.78422E-05   256   0.727E-02    0.292E-02
DAV:   9    -0.979807496245E+00   -0.23727E-04   -0.38278E-05   272   0.483E-02    0.195E-02
DAV:  10    -0.979802754678E+00    0.47416E-05   -0.22708E-05   256   0.462E-02    0.171E-02
DAV:  11    -0.979796801927E+00    0.59528E-05   -0.42175E-05   240   0.913E-02    0.997E-03
DAV:  12    -0.979797489101E+00   -0.68717E-06   -0.76020E-06   208   0.175E-02
  12 F= -.97979749E+00 E0= -.97979749E+00  d E =-.735119E-01  mag=     0.0000
       N       E                     dE             d eps       ncg     rms          rms(c)
DAV:   1     0.179713847363E+01    0.27769E+01   -0.17212E+03   276   0.359E+02    0.111E+01
DAV:   2    -0.945432604424E+00   -0.27426E+01   -0.27686E+01   256   0.378E+01    0.568E-01
DAV:   3    -0.100811628868E+01   -0.62684E-01   -0.57278E-01   288   0.602E+00    0.337E-01
DAV:   4    -0.100968945231E+01   -0.15732E-02   -0.14111E-02   288   0.855E-01    0.361E-01
DAV:   5    -0.100941212702E+01    0.27733E-03   -0.11257E-03   288   0.314E-01    0.310E-01
DAV:   6    -0.100984313238E+01   -0.43101E-03   -0.58638E-03   288   0.721E-01    0.202E-01
DAV:   7    -0.101000258460E+01   -0.15945E-03   -0.86867E-04   208   0.236E-01    0.143E-01
DAV:   8    -0.101015968901E+01   -0.15710E-03   -0.50918E-04   272   0.203E-01    0.818E-02
DAV:   9    -0.101031081648E+01   -0.15113E-03   -0.31246E-04   272   0.125E-01    0.702E-02
DAV:  10    -0.101024113129E+01    0.69685E-04   -0.24344E-04   208   0.157E-01    0.451E-02
DAV:  11    -0.101021277146E+01    0.28360E-04   -0.18045E-04   224   0.121E-01    0.169E-02
DAV:  12    -0.101021507652E+01   -0.23051E-05   -0.20181E-05   272   0.310E-02    0.129E-02
DAV:  13    -0.101021510391E+01   -0.27396E-07   -0.10993E-06   144   0.771E-03
  13 F= -.10102151E+01 E0= -.10102151E+01  d E =-.103930E+00  mag=     0.0000
       N       E                     dE             d eps       ncg     rms          rms(c)
DAV:   1    -0.920398288275E+00    0.89817E-01   -0.13081E+02   276   0.105E+02    0.846E-01
DAV:   2    -0.102457522083E+01   -0.10418E+00   -0.10477E+00   272   0.674E+00    0.105E-01
DAV:   3    -0.102631667269E+01   -0.17415E-02   -0.15829E-02   288   0.119E+00    0.957E-02
DAV:   4    -0.102631506840E+01    0.16043E-05   -0.40569E-04   288   0.145E-01    0.927E-02
DAV:   5    -0.102629833876E+01    0.16730E-04   -0.25850E-04   272   0.124E-01    0.688E-02
DAV:   6    -0.102640033861E+01   -0.10200E-03   -0.36059E-04   256   0.123E-01    0.530E-02
DAV:   7    -0.102639118454E+01    0.91541E-05   -0.27352E-05   256   0.383E-02    0.487E-02
DAV:   8    -0.102642600863E+01   -0.34824E-04   -0.35287E-05   224   0.571E-02    0.316E-02
DAV:   9    -0.102641461473E+01    0.11394E-04   -0.48760E-05   272   0.529E-02    0.222E-02
DAV:  10    -0.102641039326E+01    0.42215E-05   -0.90912E-06   208   0.281E-02    0.180E-02
DAV:  11    -0.102640736556E+01    0.30277E-05   -0.26827E-05   288   0.406E-02    0.341E-03
DAV:  12    -0.102640746101E+01   -0.95455E-07   -0.12701E-06   160   0.779E-03
  14 F= -.10264075E+01 E0= -.10264075E+01  d E =-.161924E-01  mag=    -0.0000
       N       E                     dE             d eps       ncg     rms          rms(c)
DAV:   1    -0.870184002069E+00    0.15622E+00   -0.18844E+02   276   0.126E+02    0.119E+00
DAV:   2    -0.103127917163E+01   -0.16110E+00   -0.16210E+00   272   0.845E+00    0.147E-01
DAV:   3    -0.103399157586E+01   -0.27124E-02   -0.24516E-02   288   0.148E+00    0.138E-01
DAV:   4    -0.103398902361E+01    0.25522E-05   -0.64326E-04   288   0.182E-01    0.133E-01
DAV:   5    -0.103391837705E+01    0.70647E-04   -0.66691E-04   272   0.191E-01    0.922E-02
DAV:   6    -0.103408094193E+01   -0.16256E-03   -0.63236E-04   272   0.154E-01    0.727E-02
DAV:   7    -0.103408941806E+01   -0.84761E-05   -0.34825E-05   256   0.331E-02    0.732E-02
DAV:   8    -0.103403953427E+01    0.49884E-04   -0.64441E-05   272   0.722E-02    0.627E-02
DAV:   9    -0.103407041913E+01   -0.30885E-04   -0.89714E-05   240   0.844E-02    0.379E-02
DAV:  10    -0.103406065332E+01    0.97658E-05   -0.21820E-05   224   0.449E-02    0.264E-02
DAV:  11    -0.103404581147E+01    0.14842E-04   -0.10136E-04   272   0.741E-02    0.127E-02
DAV:  12    -0.103404710068E+01   -0.12892E-05   -0.55799E-06   160   0.156E-02    0.115E-02
DAV:  13    -0.103404723224E+01   -0.13155E-06   -0.52225E-07   128   0.718E-03
  15 F= -.10340472E+01 E0= -.10340472E+01  d E =-.238321E-01  mag=    -0.0000
       N       E                     dE             d eps       ncg     rms          rms(c)
DAV:   1    -0.977037144950E+00    0.57010E-01   -0.93775E+01   276   0.890E+01    0.589E-01
DAV:   2    -0.104970771420E+01   -0.72671E-01   -0.73054E-01   288   0.566E+00    0.126E-01
DAV:   3    -0.105090723592E+01   -0.11995E-02   -0.11037E-02   288   0.993E-01    0.109E-01
DAV:   4    -0.105090260140E+01    0.46345E-05   -0.27626E-04   288   0.117E-01    0.108E-01
DAV:   5    -0.105093103848E+01   -0.28437E-04   -0.25803E-04   224   0.265E-01    0.743E-02
DAV:   6    -0.105102333706E+01   -0.92299E-04   -0.30573E-04   256   0.191E-01    0.648E-02
DAV:   7    -0.105112368746E+01   -0.10035E-03   -0.14817E-04   272   0.154E-01    0.778E-02
DAV:   8    -0.105100268412E+01    0.12100E-03   -0.51241E-04   208   0.371E-01    0.176E-02
DAV:   9    -0.105101065049E+01   -0.79664E-05   -0.77874E-05   224   0.383E-02    0.154E-02
DAV:  10    -0.105101055206E+01    0.98426E-07   -0.11084E-06   176   0.858E-03
  16 F= -.10510106E+01 E0= -.10510106E+01  d E =-.169633E-01  mag=    -0.0000
       N       E                     dE             d eps       ncg     rms          rms(c)
DAV:   1    -0.187849047961E-01    0.10322E+01   -0.80654E+02   276   0.257E+02    0.474E+00
DAV:   2    -0.104962249355E+01   -0.10308E+01   -0.10394E+01   256   0.225E+01    0.392E-01
DAV:   3    -0.107167839173E+01   -0.22056E-01   -0.19843E-01   288   0.385E+00    0.300E-01
DAV:   4    -0.107212777263E+01   -0.44938E-03   -0.50523E-03   288   0.487E-01    0.311E-01
DAV:   5    -0.107218331667E+01   -0.55544E-04   -0.42750E-04   240   0.305E-01    0.261E-01
DAV:   6    -0.107291734569E+01   -0.73403E-03   -0.27882E-03   240   0.872E-01    0.141E-01
DAV:   7    -0.107297052559E+01   -0.53180E-04   -0.10160E-03   224   0.254E-01    0.863E-02
DAV:   8    -0.107287058570E+01    0.99940E-04   -0.36098E-04   224   0.308E-01    0.449E-02
DAV:   9    -0.107291814272E+01   -0.47557E-04   -0.28539E-04   240   0.152E-01    0.286E-02
DAV:  10    -0.107291728863E+01    0.85409E-06   -0.20177E-04   208   0.236E-01    0.313E-02
DAV:  11    -0.107288933172E+01    0.27957E-04   -0.83691E-05   240   0.146E-01    0.131E-02
DAV:  12    -0.107288732442E+01    0.20073E-05   -0.25277E-05   240   0.607E-02    0.127E-02
DAV:  13    -0.107288811115E+01   -0.78672E-06   -0.80208E-06   208   0.230E-02
  17 F= -.10728881E+01 E0= -.10728881E+01  d E =-.388409E-01  mag=     0.0000
       N       E                     dE             d eps       ncg     rms          rms(c)
DAV:   1    -0.977673294788E+00    0.95214E-01   -0.12817E+02   276   0.101E+02    0.911E-01
DAV:   2    -0.108236100050E+01   -0.10469E+00   -0.10522E+00   272   0.647E+00    0.122E-01
DAV:   3    -0.108412923880E+01   -0.17682E-02   -0.16082E-02   288   0.110E+00    0.126E-01
DAV:   4    -0.108413022581E+01   -0.98701E-06   -0.42968E-04   288   0.132E-01    0.123E-01
DAV:   5    -0.108409103569E+01    0.39190E-04   -0.57491E-05   256   0.772E-02    0.112E-01
DAV:   6    -0.108418192626E+01   -0.90891E-04   -0.89208E-04   224   0.294E-01    0.861E-02
DAV:   7    -0.108418850004E+01   -0.65738E-05   -0.15592E-04   224   0.138E-01    0.604E-02
DAV:   8    -0.108420265286E+01   -0.14153E-04   -0.10798E-05   240   0.297E-02    0.466E-02
DAV:   9    -0.108420665521E+01   -0.40024E-05   -0.18605E-05   256   0.526E-02    0.286E-02
DAV:  10    -0.108420563125E+01    0.10240E-05   -0.20886E-05   224   0.306E-02    0.125E-02
DAV:  11    -0.108420530349E+01    0.32777E-06   -0.11751E-06   128   0.142E-02
  18 F= -.10842053E+01 E0= -.10842053E+01  d E =-.113172E-01  mag=    -0.0000
       N       E                     dE             d eps       ncg     rms          rms(c)
DAV:   1    -0.103170087433E+01    0.52505E-01   -0.76166E+01   276   0.779E+01    0.583E-01
DAV:   2    -0.108624442328E+01   -0.54544E-01   -0.54796E-01   272   0.466E+00    0.107E-01
DAV:   3    -0.108715387459E+01   -0.90945E-03   -0.84008E-03   288   0.775E-01    0.111E-01
DAV:   4    -0.108715068079E+01    0.31938E-05   -0.21569E-04   288   0.930E-02    0.109E-01
DAV:   5    -0.108712152233E+01    0.29158E-04   -0.55496E-05   240   0.732E-02    0.969E-02
DAV:   6    -0.108718855664E+01   -0.67034E-04   -0.61285E-04   224   0.228E-01    0.746E-02
DAV:   7    -0.108718220326E+01    0.63534E-05   -0.10495E-04   224   0.116E-01    0.535E-02
DAV:   8    -0.108719669202E+01   -0.14489E-04   -0.81572E-06   224   0.259E-02    0.377E-02
DAV:   9    -0.108719625151E+01    0.44050E-06   -0.18253E-05   224   0.470E-02    0.227E-02
DAV:  10    -0.108719492160E+01    0.13299E-05   -0.81718E-06   224   0.221E-02    0.138E-02
DAV:  11    -0.108719455373E+01    0.36787E-06   -0.32213E-06   160   0.201E-02
  19 F= -.10871946E+01 E0= -.10871946E+01  d E =-.143064E-01  mag=     0.0000
       N       E                     dE             d eps       ncg     rms          rms(c)
DAV:   1    -0.107826675593E+01    0.89282E-02   -0.21819E+01   276   0.425E+01    0.171E-01
DAV:   2    -0.108882114603E+01   -0.10554E-01   -0.10596E-01   272   0.218E+00    0.606E-02
DAV:   3    -0.108898986422E+01   -0.16872E-03   -0.16409E-03   288   0.382E-01    0.577E-02
DAV:   4    -0.108898488280E+01    0.49814E-05   -0.38585E-05   288   0.472E-02    0.564E-02
DAV:   5    -0.108899857453E+01   -0.13692E-04   -0.18087E-04   232   0.183E-01    0.345E-02
DAV:   6    -0.108901392506E+01   -0.15351E-04   -0.56671E-05   208   0.434E-02    0.331E-02
DAV:   7    -0.108901392298E+01    0.20837E-08   -0.25056E-06   160   0.148E-02
  20 F= -.10890139E+01 E0= -.10890139E+01  d E =-.181937E-02  mag=    -0.0000
       N       E                     dE             d eps       ncg     rms          rms(c)
DAV:   1    -0.108853299811E+01    0.48093E-03   -0.22959E+00   276   0.139E+01    0.496E-02
DAV:   2    -0.108914714516E+01   -0.61415E-03   -0.61861E-03   256   0.575E-01    0.434E-02
DAV:   3    -0.108915236669E+01   -0.52215E-05   -0.11047E-04   288   0.933E-02    0.422E-02
DAV:   4    -0.108914826477E+01    0.41019E-05   -0.11665E-05   224   0.452E-02    0.323E-02
DAV:   5    -0.108915979474E+01   -0.11530E-04   -0.66996E-05   240   0.103E-01    0.141E-02
DAV:   6    -0.108915972916E+01    0.65578E-07   -0.14246E-05   208   0.292E-02    0.132E-02
DAV:   7    -0.108916123691E+01   -0.15078E-05   -0.42663E-07   128   0.776E-03    0.120E-02
DAV:   8    -0.108915884733E+01    0.23896E-05   -0.15874E-05   208   0.547E-02    0.389E-03
DAV:   9    -0.108915939991E+01   -0.55259E-06   -0.41981E-06   176   0.105E-02
  21 F= -.10891594E+01 E0= -.10891594E+01  d E =-.196485E-02  mag=    -0.0000
       N       E                     dE             d eps       ncg     rms          rms(c)
DAV:   1    -0.108913934651E+01    0.19501E-04   -0.13994E-01   276   0.343E+00    0.711E-03
DAV:   2    -0.108916335834E+01   -0.24012E-04   -0.24403E-04   256   0.114E-01    0.656E-03
DAV:   3    -0.108916322107E+01    0.13727E-06   -0.45888E-06   208   0.189E-02    0.632E-03
DAV:   4    -0.108916291699E+01    0.30408E-06   -0.71419E-07   128   0.116E-02    0.526E-03
DAV:   5    -0.108916334608E+01   -0.42909E-06   -0.33144E-06   144   0.231E-02    0.417E-03
DAV:   6    -0.108916363739E+01   -0.29131E-06   -0.12425E-06   128   0.903E-03
  22 F= -.10891636E+01 E0= -.10891636E+01  d E =-.196908E-02  mag=     0.0000
       N       E                     dE             d eps       ncg     rms          rms(c)
DAV:   1    -0.108915528356E+01    0.80625E-05   -0.41284E-02   276   0.186E+00    0.389E-03
DAV:   2    -0.108916302888E+01   -0.77453E-05   -0.77218E-05   256   0.649E-02    0.302E-03
DAV:   3    -0.108916322811E+01   -0.19923E-06   -0.12121E-06   108   0.104E-02    0.281E-03
DAV:   4    -0.108916305083E+01    0.17728E-06   -0.40265E-07    92   0.777E-03    0.188E-03
DAV:   5    -0.108916293759E+01    0.11324E-06   -0.80116E-07    92   0.105E-02    0.862E-04
DAV:   6    -0.108916295890E+01   -0.21312E-07   -0.20936E-07    92   0.587E-03
  23 F= -.10891630E+01 E0= -.10891630E+01  d E =-.196841E-02  mag=    -0.0000
       N       E                     dE             d eps       ncg     rms          rms(c)
DAV:   1    -0.108916221966E+01    0.71793E-06   -0.10320E-02   276   0.931E-01    0.151E-03
DAV:   2    -0.108916381821E+01   -0.15985E-05   -0.15993E-05   256   0.290E-02    0.143E-03
DAV:   3    -0.108916382282E+01   -0.46139E-08   -0.22322E-07    92   0.496E-03    0.139E-03
DAV:   4    -0.108916382207E+01    0.74670E-09   -0.69619E-08    92   0.293E-03    0.130E-03
DAV:   5    -0.108916384811E+01   -0.26038E-07   -0.15924E-07    92   0.503E-03    0.816E-04
DAV:   6    -0.108916385663E+01   -0.85147E-08   -0.53884E-08    92   0.211E-03
  24 F= -.10891639E+01 E0= -.10891639E+01  d E =-.196930E-02  mag=     0.0000
       N       E                     dE             d eps       ncg     rms          rms(c)
DAV:   1    -0.108711825105E+01    0.20456E-02   -0.63986E+00   276   0.231E+01    0.748E-02
DAV:   2    -0.108954165205E+01   -0.24234E-02   -0.24347E-02   272   0.115E+00    0.355E-02
DAV:   3    -0.108956835969E+01   -0.26708E-04   -0.30071E-04   288   0.157E-01    0.351E-02
DAV:   4    -0.108956501100E+01    0.33487E-05   -0.54933E-06   224   0.185E-02    0.344E-02
DAV:   5    -0.108957659032E+01   -0.11579E-04   -0.71805E-05   256   0.115E-01    0.197E-02
DAV:   6    -0.108958089388E+01   -0.43036E-05   -0.18834E-05   224   0.230E-02    0.192E-02
DAV:   7    -0.108958107776E+01   -0.18388E-06   -0.31997E-07   128   0.553E-03
  25 F= -.10895811E+01 E0= -.10895811E+01  d E =-.417221E-03  mag=    -0.0000
