Cd                                      
   1.00000000000000     
    17.0000000000000000    0.0000000000000000    0.0000000000000000
     0.0000000000000000   17.0000000000000000    0.0000000000000000
     0.0000000000000000    0.0000000000000000   17.0000000000000000
   Cd
     6
Direct
  0.9854164590136270  0.0393119792288843  0.0813350689915363
  0.0904804356321939  0.1570472042066655  0.9665849599993745
  0.8182200923574779  0.0049541406499479  0.9863877258023238
  0.9316476784574687  0.8598569976469435  0.0334792206729923
  0.1598316845795249  0.9863666375612897  0.0150699719893329
 -0.0018498794520561  0.9931095112944974  0.9085065819562110
 
  0.00000000E+00  0.00000000E+00  0.00000000E+00
  0.00000000E+00  0.00000000E+00  0.00000000E+00
  0.00000000E+00  0.00000000E+00  0.00000000E+00
  0.00000000E+00  0.00000000E+00  0.00000000E+00
  0.00000000E+00  0.00000000E+00  0.00000000E+00
  0.00000000E+00  0.00000000E+00  0.00000000E+00
