Cd                                      
   1.00000000000000     
    17.0000000000000000    0.0000000000000000    0.0000000000000000
     0.0000000000000000   17.0000000000000000    0.0000000000000000
     0.0000000000000000    0.0000000000000000   17.0000000000000000
   Cd
     6
Cartesian
        -0.19287        0.50693        1.26549
         1.06927        1.90770       -0.44673
        -2.17389        0.10345       -0.19008
        -0.86144       -1.60710        0.37456
         1.92091       -0.09546        0.18297
        -0.03829       -0.12453       -1.33303
