PROCAR new format
# of k-points:    1         # of bands:   46         # of ions:    6

 k-point     1 :    0.00000000 0.00000000 0.00000000     weight = 1.00000000

band     1 # energy  -12.22383497 # occ.  1.00000000
 
ion      s      p      d      f    tot
    1  0.002  0.001  0.440  0.000  0.443
    2  0.000  0.000  0.001  0.000  0.001
    3  0.000  0.000  0.024  0.000  0.025
    4  0.000  0.000  0.035  0.000  0.035
    5  0.000  0.000  0.004  0.000  0.004
    6  0.002  0.001  0.436  0.000  0.439
tot    0.004  0.002  0.940  0.000  0.947
 
band     2 # energy  -12.22267476 # occ.  1.00000000
 
ion      s      p      d      f    tot
    1  0.000  0.001  0.365  0.000  0.365
    2  0.001  0.000  0.062  0.000  0.063
    3  0.001  0.000  0.041  0.000  0.042
    4  0.001  0.000  0.040  0.000  0.041
    5  0.001  0.000  0.070  0.000  0.071
    6  0.000  0.001  0.355  0.000  0.356
tot    0.003  0.003  0.932  0.000  0.938
 
band     3 # energy  -12.10694626 # occ.  1.00000000
 
ion      s      p      d      f    tot
    1  0.000  0.000  0.408  0.000  0.408
    2  0.000  0.000  0.018  0.000  0.018
    3  0.000  0.000  0.018  0.000  0.018
    4  0.000  0.000  0.049  0.000  0.049
    5  0.000  0.000  0.048  0.000  0.049
    6  0.000  0.000  0.404  0.000  0.404
tot    0.001  0.001  0.944  0.000  0.946
 
band     4 # energy  -12.03885894 # occ.  1.00000000
 
ion      s      p      d      f    tot
    1  0.000  0.000  0.325  0.000  0.326
    2  0.001  0.000  0.085  0.000  0.086
    3  0.001  0.000  0.088  0.000  0.089
    4  0.000  0.000  0.102  0.000  0.102
    5  0.000  0.000  0.097  0.000  0.097
    6  0.000  0.000  0.244  0.000  0.245
tot    0.002  0.001  0.941  0.000  0.945
 
band     5 # energy  -12.01746922 # occ.  1.00000000
 
ion      s      p      d      f    tot
    1  0.000  0.000  0.560  0.000  0.560
    2  0.000  0.000  0.038  0.000  0.038
    3  0.000  0.000  0.035  0.000  0.035
    4  0.000  0.000  0.100  0.000  0.100
    5  0.000  0.000  0.092  0.000  0.092
    6  0.000  0.000  0.128  0.000  0.128
tot    0.000  0.000  0.953  0.000  0.954
 
band     6 # energy  -12.00647852 # occ.  1.00000000
 
ion      s      p      d      f    tot
    1  0.000  0.000  0.180  0.000  0.180
    2  0.000  0.000  0.038  0.000  0.039
    3  0.000  0.000  0.043  0.000  0.043
    4  0.001  0.000  0.034  0.000  0.035
    5  0.001  0.000  0.043  0.000  0.044
    6  0.000  0.000  0.613  0.000  0.613
tot    0.002  0.001  0.951  0.000  0.953
 
band     7 # energy  -11.98756920 # occ.  1.00000000
 
ion      s      p      d      f    tot
    1  0.001  0.000  0.242  0.000  0.243
    2  0.000  0.000  0.106  0.000  0.106
    3  0.000  0.000  0.116  0.000  0.116
    4  0.000  0.000  0.080  0.000  0.081
    5  0.000  0.000  0.074  0.000  0.074
    6  0.001  0.000  0.329  0.000  0.330
tot    0.002  0.001  0.947  0.000  0.950
 
band     8 # energy  -11.90332413 # occ.  1.00000000
 
ion      s      p      d      f    tot
    1  0.000  0.000  0.269  0.000  0.269
    2  0.000  0.000  0.134  0.000  0.134
    3  0.000  0.000  0.130  0.000  0.130
    4  0.000  0.000  0.066  0.000  0.066
    5  0.000  0.000  0.068  0.000  0.068
    6  0.000  0.000  0.293  0.000  0.293
tot    0.000  0.000  0.960  0.000  0.961
 
band     9 # energy  -11.88501276 # occ.  1.00000000
 
ion      s      p      d      f    tot
    1  0.000  0.000  0.010  0.000  0.010
    2  0.000  0.000  0.165  0.000  0.165
    3  0.000  0.000  0.263  0.000  0.263
    4  0.000  0.000  0.309  0.000  0.309
    5  0.000  0.000  0.201  0.000  0.202
    6  0.000  0.000  0.006  0.000  0.006
tot    0.001  0.001  0.953  0.000  0.955
 
band    10 # energy  -11.86296865 # occ.  1.00000000
 
ion      s      p      d      f    tot
    1  0.001  0.000  0.031  0.000  0.032
    2  0.000  0.000  0.277  0.000  0.277
    3  0.000  0.000  0.179  0.000  0.179
    4  0.000  0.000  0.162  0.000  0.162
    5  0.000  0.000  0.270  0.000  0.270
    6  0.001  0.000  0.033  0.000  0.034
tot    0.002  0.001  0.953  0.000  0.955
 
band    11 # energy  -11.85428467 # occ.  1.00000000
 
ion      s      p      d      f    tot
    1  0.001  0.000  0.304  0.000  0.305
    2  0.000  0.000  0.001  0.000  0.001
    3  0.000  0.000  0.001  0.000  0.001
    4  0.000  0.000  0.170  0.000  0.170
    5  0.000  0.000  0.170  0.000  0.170
    6  0.001  0.000  0.313  0.000  0.313
tot    0.001  0.000  0.960  0.000  0.961
 
band    12 # energy  -11.79639196 # occ.  1.00000000
 
ion      s      p      d      f    tot
    1  0.001  0.000  0.362  0.000  0.363
    2  0.000  0.000  0.097  0.000  0.097
    3  0.000  0.000  0.100  0.000  0.100
    4  0.000  0.000  0.022  0.000  0.022
    5  0.000  0.000  0.019  0.000  0.019
    6  0.001  0.000  0.362  0.000  0.363
tot    0.001  0.000  0.962  0.000  0.964
 
band    13 # energy  -11.75098947 # occ.  1.00000000
 
ion      s      p      d      f    tot
    1  0.001  0.000  0.103  0.000  0.104
    2  0.000  0.000  0.179  0.000  0.179
    3  0.000  0.000  0.186  0.000  0.186
    4  0.000  0.000  0.191  0.000  0.191
    5  0.000  0.000  0.181  0.000  0.181
    6  0.001  0.000  0.117  0.000  0.118
tot    0.002  0.001  0.957  0.000  0.960
 
band    14 # energy  -11.74250522 # occ.  1.00000000
 
ion      s      p      d      f    tot
    1  0.000  0.000  0.051  0.000  0.051
    2  0.000  0.000  0.168  0.000  0.168
    3  0.000  0.000  0.206  0.000  0.206
    4  0.000  0.000  0.266  0.000  0.266
    5  0.000  0.000  0.218  0.000  0.218
    6  0.000  0.000  0.053  0.000  0.053
tot    0.000  0.000  0.961  0.000  0.961
 
band    15 # energy  -11.71212619 # occ.  1.00000000
 
ion      s      p      d      f    tot
    1  0.000  0.000  0.095  0.000  0.095
    2  0.000  0.000  0.203  0.000  0.203
    3  0.000  0.000  0.162  0.000  0.162
    4  0.000  0.000  0.180  0.000  0.180
    5  0.000  0.000  0.233  0.000  0.233
    6  0.000  0.000  0.093  0.000  0.093
tot    0.000  0.000  0.965  0.000  0.965
 
band    16 # energy  -11.71023851 # occ.  1.00000000
 
ion      s      p      d      f    tot
    1  0.000  0.000  0.020  0.000  0.020
    2  0.000  0.000  0.213  0.000  0.213
    3  0.000  0.000  0.238  0.000  0.238
    4  0.000  0.000  0.261  0.000  0.261
    5  0.000  0.000  0.211  0.000  0.211
    6  0.000  0.000  0.018  0.000  0.018
tot    0.000  0.000  0.962  0.000  0.962
 
band    17 # energy  -11.67871538 # occ.  1.00000000
 
ion      s      p      d      f    tot
    1  0.000  0.000  0.063  0.000  0.063
    2  0.000  0.000  0.065  0.000  0.065
    3  0.000  0.000  0.033  0.000  0.033
    4  0.000  0.000  0.369  0.000  0.369
    5  0.000  0.000  0.373  0.000  0.373
    6  0.000  0.000  0.063  0.000  0.063
tot    0.000  0.000  0.966  0.000  0.966
 
band    18 # energy  -11.66831254 # occ.  1.00000000
 
ion      s      p      d      f    tot
    1  0.000  0.000  0.009  0.000  0.009
    2  0.000  0.000  0.153  0.000  0.153
    3  0.000  0.000  0.250  0.000  0.250
    4  0.000  0.000  0.270  0.000  0.270
    5  0.000  0.000  0.276  0.000  0.276
    6  0.000  0.000  0.008  0.000  0.008
tot    0.000  0.000  0.966  0.000  0.966
 
band    19 # energy  -11.65065350 # occ.  1.00000000
 
ion      s      p      d      f    tot
    1  0.000  0.000  0.036  0.000  0.036
    2  0.000  0.000  0.409  0.000  0.409
    3  0.000  0.000  0.331  0.000  0.331
    4  0.000  0.000  0.062  0.000  0.062
    5  0.000  0.000  0.101  0.000  0.101
    6  0.000  0.000  0.029  0.000  0.029
tot    0.000  0.000  0.968  0.000  0.968
 
band    20 # energy  -11.64485790 # occ.  1.00000000
 
ion      s      p      d      f    tot
    1  0.000  0.000  0.098  0.000  0.098
    2  0.000  0.000  0.283  0.000  0.283
    3  0.000  0.000  0.067  0.000  0.067
    4  0.000  0.000  0.322  0.000  0.322
    5  0.000  0.000  0.089  0.000  0.089
    6  0.000  0.000  0.110  0.000  0.110
tot    0.000  0.000  0.968  0.000  0.968
 
band    21 # energy  -11.64442935 # occ.  1.00000000
 
ion      s      p      d      f    tot
    1  0.000  0.000  0.127  0.000  0.127
    2  0.000  0.000  0.065  0.000  0.065
    3  0.000  0.000  0.314  0.000  0.314
    4  0.000  0.000  0.052  0.000  0.052
    5  0.000  0.000  0.246  0.000  0.246
    6  0.000  0.000  0.163  0.000  0.163
tot    0.000  0.001  0.967  0.000  0.968
 
band    22 # energy  -11.62731418 # occ.  1.00000000
 
ion      s      p      d      f    tot
    1  0.000  0.000  0.121  0.000  0.121
    2  0.000  0.000  0.227  0.000  0.227
    3  0.000  0.000  0.205  0.000  0.205
    4  0.000  0.000  0.172  0.000  0.172
    5  0.000  0.000  0.173  0.000  0.173
    6  0.000  0.000  0.071  0.000  0.071
tot    0.000  0.000  0.969  0.000  0.970
 
band    23 # energy  -11.62645684 # occ.  1.00000000
 
ion      s      p      d      f    tot
    1  0.000  0.000  0.006  0.000  0.006
    2  0.000  0.000  0.247  0.000  0.247
    3  0.000  0.000  0.278  0.000  0.278
    4  0.000  0.000  0.216  0.000  0.216
    5  0.000  0.000  0.216  0.000  0.216
    6  0.000  0.000  0.007  0.000  0.007
tot    0.000  0.000  0.969  0.000  0.969
 
band    24 # energy  -11.61560477 # occ.  1.00000000
 
ion      s      p      d      f    tot
    1  0.000  0.000  0.036  0.000  0.036
    2  0.000  0.000  0.282  0.000  0.282
    3  0.000  0.000  0.228  0.000  0.228
    4  0.000  0.000  0.176  0.000  0.176
    5  0.000  0.000  0.207  0.000  0.207
    6  0.000  0.000  0.041  0.000  0.041
tot    0.000  0.000  0.970  0.000  0.970
 
band    25 # energy  -11.60213792 # occ.  1.00000000
 
ion      s      p      d      f    tot
    1  0.000  0.000  0.031  0.000  0.031
    2  0.000  0.000  0.201  0.000  0.201
    3  0.000  0.000  0.323  0.000  0.324
    4  0.000  0.000  0.235  0.000  0.235
    5  0.000  0.000  0.159  0.000  0.159
    6  0.000  0.000  0.020  0.000  0.020
tot    0.000  0.000  0.970  0.000  0.970
 
band    26 # energy  -11.59307715 # occ.  1.00000000
 
ion      s      p      d      f    tot
    1  0.000  0.000  0.017  0.000  0.017
    2  0.000  0.000  0.320  0.000  0.320
    3  0.000  0.000  0.198  0.000  0.198
    4  0.000  0.000  0.166  0.000  0.166
    5  0.000  0.000  0.250  0.000  0.250
    6  0.000  0.000  0.020  0.000  0.020
tot    0.000  0.000  0.970  0.000  0.970
 
band    27 # energy  -11.57031698 # occ.  1.00000000
 
ion      s      p      d      f    tot
    1  0.000  0.000  0.273  0.000  0.273
    2  0.000  0.000  0.145  0.000  0.145
    3  0.000  0.000  0.134  0.000  0.134
    4  0.000  0.000  0.077  0.000  0.077
    5  0.000  0.000  0.081  0.000  0.081
    6  0.000  0.000  0.266  0.000  0.266
tot    0.000  0.000  0.976  0.000  0.976
 
band    28 # energy  -11.54806664 # occ.  1.00000000
 
ion      s      p      d      f    tot
    1  0.000  0.000  0.128  0.000  0.128
    2  0.000  0.000  0.161  0.000  0.161
    3  0.000  0.000  0.156  0.000  0.156
    4  0.000  0.000  0.190  0.000  0.190
    5  0.000  0.000  0.204  0.000  0.204
    6  0.000  0.000  0.136  0.000  0.136
tot    0.000  0.000  0.976  0.000  0.976
 
band    29 # energy  -11.53737539 # occ.  1.00000000
 
ion      s      p      d      f    tot
    1  0.000  0.000  0.029  0.000  0.030
    2  0.000  0.000  0.224  0.000  0.224
    3  0.000  0.000  0.242  0.000  0.242
    4  0.000  0.000  0.232  0.000  0.232
    5  0.000  0.000  0.217  0.000  0.217
    6  0.000  0.000  0.027  0.000  0.027
tot    0.000  0.001  0.970  0.000  0.971
 
band    30 # energy  -11.50651019 # occ.  1.00000000
 
ion      s      p      d      f    tot
    1  0.000  0.000  0.061  0.000  0.061
    2  0.000  0.000  0.238  0.000  0.238
    3  0.000  0.000  0.219  0.000  0.219
    4  0.000  0.000  0.199  0.000  0.199
    5  0.000  0.000  0.216  0.000  0.216
    6  0.000  0.000  0.042  0.000  0.042
tot    0.000  0.000  0.974  0.000  0.975
 
band    31 # energy   -8.33729202 # occ.  1.00000000
 
ion      s      p      d      f    tot
    1  0.115  0.008  0.003  0.000  0.126
    2  0.040  0.005  0.004  0.000  0.049
    3  0.040  0.005  0.004  0.000  0.049
    4  0.047  0.005  0.004  0.000  0.057
    5  0.047  0.005  0.004  0.000  0.057
    6  0.113  0.008  0.003  0.000  0.124
tot    0.402  0.036  0.023  0.000  0.461
 
band    32 # energy   -6.68950128 # occ.  1.00000000
 
ion      s      p      d      f    tot
    1  0.000  0.016  0.006  0.000  0.022
    2  0.107  0.004  0.001  0.000  0.113
    3  0.107  0.004  0.002  0.000  0.113
    4  0.091  0.004  0.002  0.000  0.097
    5  0.091  0.004  0.002  0.000  0.097
    6  0.000  0.015  0.006  0.000  0.021
tot    0.397  0.046  0.019  0.000  0.463
 
band    33 # energy   -5.35441330 # occ.  1.00000000
 
ion      s      p      d      f    tot
    1  0.004  0.015  0.003  0.000  0.023
    2  0.087  0.003  0.001  0.000  0.091
    3  0.086  0.003  0.001  0.000  0.090
    4  0.106  0.003  0.001  0.000  0.110
    5  0.107  0.003  0.001  0.000  0.112
    6  0.000  0.015  0.003  0.000  0.018
tot    0.391  0.041  0.012  0.000  0.444
 
band    34 # energy   -5.20378021 # occ.  1.00000000
 
ion      s      p      d      f    tot
    1  0.193  0.006  0.003  0.000  0.203
    2  0.000  0.006  0.003  0.000  0.009
    3  0.000  0.006  0.003  0.000  0.009
    4  0.001  0.006  0.003  0.000  0.011
    5  0.000  0.006  0.003  0.000  0.010
    6  0.212  0.006  0.003  0.000  0.221
tot    0.407  0.037  0.018  0.001  0.462
 
band    35 # energy   -4.71470713 # occ.  1.00000000
 
ion      s      p      d      f    tot
    1  0.001  0.000  0.005  0.000  0.006
    2  0.118  0.003  0.001  0.000  0.122
    3  0.097  0.003  0.001  0.000  0.101
    4  0.140  0.002  0.000  0.000  0.143
    5  0.121  0.002  0.001  0.000  0.124
    6  0.000  0.000  0.005  0.000  0.005
tot    0.478  0.012  0.012  0.000  0.501
 
band    36 # energy   -4.69361790 # occ.  1.00000000
 
ion      s      p      d      f    tot
    1  0.095  0.001  0.003  0.000  0.099
    2  0.075  0.008  0.002  0.000  0.085
    3  0.097  0.008  0.002  0.000  0.107
    4  0.041  0.008  0.003  0.000  0.051
    5  0.059  0.008  0.003  0.000  0.070
    6  0.084  0.001  0.003  0.000  0.088
tot    0.451  0.032  0.017  0.001  0.500
 
band    37 # energy   -2.29447324 # occ.  0.00000000
 
ion      s      p      d      f    tot
    1  0.000  0.043  0.000  0.000  0.043
    2  0.000  0.038  0.002  0.000  0.040
    3  0.000  0.039  0.002  0.000  0.041
    4  0.000  0.031  0.002  0.000  0.033
    5  0.000  0.031  0.002  0.000  0.033
    6  0.000  0.043  0.000  0.000  0.044
tot    0.000  0.225  0.009  0.001  0.234
 
band    38 # energy   -2.08750128 # occ.  0.00000000
 
ion      s      p      d      f    tot
    1  0.000  0.043  0.003  0.000  0.047
    2  0.009  0.041  0.001  0.000  0.051
    3  0.007  0.051  0.002  0.000  0.059
    4  0.006  0.048  0.001  0.000  0.055
    5  0.005  0.027  0.001  0.000  0.033
    6  0.000  0.043  0.003  0.000  0.046
tot    0.028  0.253  0.011  0.001  0.292
 
band    39 # energy   -2.08300347 # occ.  0.00000000
 
ion      s      p      d      f    tot
    1  0.010  0.083  0.001  0.000  0.095
    2  0.000  0.014  0.002  0.000  0.016
    3  0.003  0.003  0.001  0.000  0.007
    4  0.000  0.012  0.001  0.000  0.014
    5  0.001  0.032  0.002  0.000  0.035
    6  0.011  0.083  0.001  0.000  0.095
tot    0.025  0.228  0.009  0.001  0.262
 
band    40 # energy   -1.85376018 # occ.  0.00000000
 
ion      s      p      d      f    tot
    1  0.002  0.054  0.002  0.000  0.058
    2  0.005  0.032  0.001  0.000  0.038
    3  0.005  0.033  0.001  0.000  0.039
    4  0.015  0.023  0.000  0.000  0.038
    5  0.015  0.023  0.000  0.000  0.039
    6  0.003  0.053  0.002  0.000  0.057
tot    0.045  0.218  0.007  0.001  0.270
 
band    41 # energy   -1.83291663 # occ.  0.00000000
 
ion      s      p      d      f    tot
    1  0.002  0.006  0.003  0.000  0.012
    2  0.007  0.039  0.000  0.000  0.047
    3  0.008  0.041  0.000  0.000  0.049
    4  0.000  0.056  0.001  0.000  0.057
    5  0.000  0.056  0.001  0.000  0.057
    6  0.003  0.008  0.003  0.000  0.013
tot    0.020  0.207  0.008  0.000  0.236
 
band    42 # energy   -1.53477929 # occ.  0.00000000
 
ion      s      p      d      f    tot
    1  0.001  0.049  0.001  0.000  0.051
    2  0.000  0.015  0.001  0.000  0.016
    3  0.000  0.015  0.001  0.000  0.016
    4  0.000  0.036  0.001  0.000  0.038
    5  0.000  0.036  0.001  0.000  0.038
    6  0.001  0.050  0.001  0.000  0.052
tot    0.002  0.201  0.006  0.001  0.211
 
band    43 # energy   -1.16758522 # occ.  0.00000000
 
ion      s      p      d      f    tot
    1  0.000  0.004  0.000  0.000  0.004
    2  0.001  0.065  0.001  0.000  0.066
    3  0.001  0.065  0.001  0.000  0.066
    4  0.004  0.044  0.001  0.000  0.050
    5  0.004  0.044  0.001  0.000  0.050
    6  0.000  0.003  0.000  0.000  0.004
tot    0.009  0.226  0.005  0.001  0.240
 
band    44 # energy   -0.64366390 # occ.  0.00000000
 
ion      s      p      d      f    tot
    1  0.030  0.007  0.002  0.000  0.040
    2  0.000  0.049  0.001  0.000  0.050
    3  0.000  0.049  0.001  0.000  0.050
    4  0.000  0.021  0.001  0.000  0.022
    5  0.000  0.022  0.001  0.000  0.023
    6  0.030  0.006  0.002  0.000  0.038
tot    0.061  0.154  0.008  0.000  0.223
 
band    45 # energy   -0.25401831 # occ.  0.00000000
 
ion      s      p      d      f    tot
    1  0.000  0.000  0.005  0.000  0.005
    2  0.000  0.038  0.001  0.000  0.038
    3  0.000  0.036  0.001  0.000  0.037
    4  0.000  0.051  0.001  0.000  0.052
    5  0.000  0.050  0.001  0.000  0.050
    6  0.000  0.000  0.005  0.000  0.005
tot    0.000  0.175  0.012  0.000  0.188
 
band    46 # energy    0.01802210 # occ.  0.00000000
 
ion      s      p      d      f    tot
    1  0.006  0.009  0.002  0.000  0.017
    2  0.003  0.000  0.001  0.000  0.004
    3  0.010  0.012  0.001  0.000  0.024
    4  0.001  0.002  0.001  0.000  0.003
    5  0.012  0.010  0.001  0.000  0.023
    6  0.006  0.010  0.002  0.000  0.017
tot    0.036  0.042  0.009  0.001  0.088
 
# of k-points:    1         # of bands:   46         # of ions:    6

 k-point     1 :    0.00000000 0.00000000 0.00000000     weight = 1.00000000

band     1 # energy  -12.22383498 # occ.  1.00000000
 
ion      s      p      d      f    tot
    1  0.002  0.001  0.440  0.000  0.443
    2  0.000  0.000  0.001  0.000  0.001
    3  0.000  0.000  0.024  0.000  0.025
    4  0.000  0.000  0.035  0.000  0.035
    5  0.000  0.000  0.004  0.000  0.004
    6  0.002  0.001  0.436  0.000  0.439
tot    0.004  0.002  0.940  0.000  0.947
 
band     2 # energy  -12.22267477 # occ.  1.00000000
 
ion      s      p      d      f    tot
    1  0.000  0.001  0.365  0.000  0.365
    2  0.001  0.000  0.062  0.000  0.063
    3  0.001  0.000  0.041  0.000  0.042
    4  0.001  0.000  0.040  0.000  0.041
    5  0.001  0.000  0.070  0.000  0.071
    6  0.000  0.001  0.355  0.000  0.356
tot    0.003  0.003  0.932  0.000  0.938
 
band     3 # energy  -12.10694627 # occ.  1.00000000
 
ion      s      p      d      f    tot
    1  0.000  0.000  0.408  0.000  0.408
    2  0.000  0.000  0.018  0.000  0.018
    3  0.000  0.000  0.018  0.000  0.018
    4  0.000  0.000  0.049  0.000  0.049
    5  0.000  0.000  0.048  0.000  0.049
    6  0.000  0.000  0.404  0.000  0.404
tot    0.001  0.001  0.944  0.000  0.946
 
band     4 # energy  -12.03885895 # occ.  1.00000000
 
ion      s      p      d      f    tot
    1  0.000  0.000  0.325  0.000  0.326
    2  0.001  0.000  0.085  0.000  0.086
    3  0.001  0.000  0.088  0.000  0.089
    4  0.000  0.000  0.102  0.000  0.102
    5  0.000  0.000  0.097  0.000  0.097
    6  0.000  0.000  0.244  0.000  0.245
tot    0.002  0.001  0.941  0.000  0.945
 
band     5 # energy  -12.01746923 # occ.  1.00000000
 
ion      s      p      d      f    tot
    1  0.000  0.000  0.560  0.000  0.560
    2  0.000  0.000  0.038  0.000  0.038
    3  0.000  0.000  0.035  0.000  0.035
    4  0.000  0.000  0.100  0.000  0.100
    5  0.000  0.000  0.092  0.000  0.092
    6  0.000  0.000  0.128  0.000  0.128
tot    0.000  0.000  0.953  0.000  0.954
 
band     6 # energy  -12.00647854 # occ.  1.00000000
 
ion      s      p      d      f    tot
    1  0.000  0.000  0.180  0.000  0.180
    2  0.000  0.000  0.038  0.000  0.039
    3  0.000  0.000  0.043  0.000  0.043
    4  0.001  0.000  0.034  0.000  0.035
    5  0.001  0.000  0.043  0.000  0.044
    6  0.000  0.000  0.613  0.000  0.613
tot    0.002  0.001  0.951  0.000  0.953
 
band     7 # energy  -11.98756921 # occ.  1.00000000
 
ion      s      p      d      f    tot
    1  0.001  0.000  0.242  0.000  0.243
    2  0.000  0.000  0.106  0.000  0.106
    3  0.000  0.000  0.116  0.000  0.116
    4  0.000  0.000  0.080  0.000  0.081
    5  0.000  0.000  0.074  0.000  0.074
    6  0.001  0.000  0.329  0.000  0.330
tot    0.002  0.001  0.947  0.000  0.950
 
band     8 # energy  -11.90332414 # occ.  1.00000000
 
ion      s      p      d      f    tot
    1  0.000  0.000  0.269  0.000  0.269
    2  0.000  0.000  0.134  0.000  0.134
    3  0.000  0.000  0.130  0.000  0.130
    4  0.000  0.000  0.066  0.000  0.066
    5  0.000  0.000  0.068  0.000  0.068
    6  0.000  0.000  0.293  0.000  0.293
tot    0.000  0.000  0.960  0.000  0.961
 
band     9 # energy  -11.88501277 # occ.  1.00000000
 
ion      s      p      d      f    tot
    1  0.000  0.000  0.010  0.000  0.010
    2  0.000  0.000  0.165  0.000  0.165
    3  0.000  0.000  0.263  0.000  0.263
    4  0.000  0.000  0.309  0.000  0.309
    5  0.000  0.000  0.201  0.000  0.202
    6  0.000  0.000  0.006  0.000  0.006
tot    0.001  0.001  0.953  0.000  0.955
 
band    10 # energy  -11.86296867 # occ.  1.00000000
 
ion      s      p      d      f    tot
    1  0.001  0.000  0.031  0.000  0.032
    2  0.000  0.000  0.277  0.000  0.277
    3  0.000  0.000  0.179  0.000  0.179
    4  0.000  0.000  0.162  0.000  0.162
    5  0.000  0.000  0.270  0.000  0.270
    6  0.001  0.000  0.033  0.000  0.034
tot    0.002  0.001  0.953  0.000  0.955
 
band    11 # energy  -11.85428468 # occ.  1.00000000
 
ion      s      p      d      f    tot
    1  0.001  0.000  0.304  0.000  0.305
    2  0.000  0.000  0.001  0.000  0.001
    3  0.000  0.000  0.001  0.000  0.001
    4  0.000  0.000  0.170  0.000  0.170
    5  0.000  0.000  0.170  0.000  0.170
    6  0.001  0.000  0.313  0.000  0.313
tot    0.001  0.000  0.960  0.000  0.961
 
band    12 # energy  -11.79639197 # occ.  1.00000000
 
ion      s      p      d      f    tot
    1  0.001  0.000  0.362  0.000  0.363
    2  0.000  0.000  0.097  0.000  0.097
    3  0.000  0.000  0.100  0.000  0.100
    4  0.000  0.000  0.022  0.000  0.022
    5  0.000  0.000  0.019  0.000  0.019
    6  0.001  0.000  0.362  0.000  0.363
tot    0.001  0.000  0.962  0.000  0.964
 
band    13 # energy  -11.75098948 # occ.  1.00000000
 
ion      s      p      d      f    tot
    1  0.001  0.000  0.103  0.000  0.104
    2  0.000  0.000  0.179  0.000  0.179
    3  0.000  0.000  0.186  0.000  0.186
    4  0.000  0.000  0.191  0.000  0.191
    5  0.000  0.000  0.181  0.000  0.181
    6  0.001  0.000  0.117  0.000  0.118
tot    0.002  0.001  0.957  0.000  0.960
 
band    14 # energy  -11.74250523 # occ.  1.00000000
 
ion      s      p      d      f    tot
    1  0.000  0.000  0.051  0.000  0.051
    2  0.000  0.000  0.168  0.000  0.168
    3  0.000  0.000  0.206  0.000  0.206
    4  0.000  0.000  0.266  0.000  0.266
    5  0.000  0.000  0.218  0.000  0.218
    6  0.000  0.000  0.053  0.000  0.053
tot    0.000  0.000  0.961  0.000  0.961
 
band    15 # energy  -11.71212620 # occ.  1.00000000
 
ion      s      p      d      f    tot
    1  0.000  0.000  0.095  0.000  0.095
    2  0.000  0.000  0.203  0.000  0.203
    3  0.000  0.000  0.162  0.000  0.162
    4  0.000  0.000  0.180  0.000  0.180
    5  0.000  0.000  0.233  0.000  0.233
    6  0.000  0.000  0.093  0.000  0.093
tot    0.000  0.000  0.965  0.000  0.965
 
band    16 # energy  -11.71023852 # occ.  1.00000000
 
ion      s      p      d      f    tot
    1  0.000  0.000  0.020  0.000  0.020
    2  0.000  0.000  0.213  0.000  0.213
    3  0.000  0.000  0.238  0.000  0.238
    4  0.000  0.000  0.261  0.000  0.261
    5  0.000  0.000  0.211  0.000  0.211
    6  0.000  0.000  0.018  0.000  0.018
tot    0.000  0.000  0.962  0.000  0.962
 
band    17 # energy  -11.67871540 # occ.  1.00000000
 
ion      s      p      d      f    tot
    1  0.000  0.000  0.063  0.000  0.063
    2  0.000  0.000  0.065  0.000  0.065
    3  0.000  0.000  0.033  0.000  0.033
    4  0.000  0.000  0.369  0.000  0.369
    5  0.000  0.000  0.373  0.000  0.373
    6  0.000  0.000  0.063  0.000  0.063
tot    0.000  0.000  0.966  0.000  0.966
 
band    18 # energy  -11.66831256 # occ.  1.00000000
 
ion      s      p      d      f    tot
    1  0.000  0.000  0.009  0.000  0.009
    2  0.000  0.000  0.153  0.000  0.153
    3  0.000  0.000  0.250  0.000  0.250
    4  0.000  0.000  0.270  0.000  0.270
    5  0.000  0.000  0.276  0.000  0.276
    6  0.000  0.000  0.008  0.000  0.008
tot    0.000  0.000  0.966  0.000  0.966
 
band    19 # energy  -11.65065352 # occ.  1.00000000
 
ion      s      p      d      f    tot
    1  0.000  0.000  0.036  0.000  0.036
    2  0.000  0.000  0.409  0.000  0.409
    3  0.000  0.000  0.331  0.000  0.331
    4  0.000  0.000  0.062  0.000  0.062
    5  0.000  0.000  0.101  0.000  0.101
    6  0.000  0.000  0.029  0.000  0.029
tot    0.000  0.000  0.968  0.000  0.968
 
band    20 # energy  -11.64485791 # occ.  1.00000000
 
ion      s      p      d      f    tot
    1  0.000  0.000  0.098  0.000  0.098
    2  0.000  0.000  0.283  0.000  0.283
    3  0.000  0.000  0.067  0.000  0.067
    4  0.000  0.000  0.322  0.000  0.322
    5  0.000  0.000  0.089  0.000  0.089
    6  0.000  0.000  0.110  0.000  0.110
tot    0.000  0.000  0.968  0.000  0.968
 
band    21 # energy  -11.64442937 # occ.  1.00000000
 
ion      s      p      d      f    tot
    1  0.000  0.000  0.127  0.000  0.127
    2  0.000  0.000  0.065  0.000  0.065
    3  0.000  0.000  0.314  0.000  0.314
    4  0.000  0.000  0.052  0.000  0.052
    5  0.000  0.000  0.246  0.000  0.246
    6  0.000  0.000  0.163  0.000  0.163
tot    0.000  0.001  0.967  0.000  0.968
 
band    22 # energy  -11.62731419 # occ.  1.00000000
 
ion      s      p      d      f    tot
    1  0.000  0.000  0.121  0.000  0.121
    2  0.000  0.000  0.227  0.000  0.227
    3  0.000  0.000  0.205  0.000  0.205
    4  0.000  0.000  0.172  0.000  0.172
    5  0.000  0.000  0.173  0.000  0.173
    6  0.000  0.000  0.071  0.000  0.071
tot    0.000  0.000  0.969  0.000  0.970
 
band    23 # energy  -11.62645685 # occ.  1.00000000
 
ion      s      p      d      f    tot
    1  0.000  0.000  0.006  0.000  0.006
    2  0.000  0.000  0.247  0.000  0.247
    3  0.000  0.000  0.278  0.000  0.278
    4  0.000  0.000  0.216  0.000  0.216
    5  0.000  0.000  0.216  0.000  0.216
    6  0.000  0.000  0.007  0.000  0.007
tot    0.000  0.000  0.969  0.000  0.969
 
band    24 # energy  -11.61560479 # occ.  1.00000000
 
ion      s      p      d      f    tot
    1  0.000  0.000  0.036  0.000  0.036
    2  0.000  0.000  0.282  0.000  0.282
    3  0.000  0.000  0.228  0.000  0.228
    4  0.000  0.000  0.176  0.000  0.176
    5  0.000  0.000  0.207  0.000  0.207
    6  0.000  0.000  0.041  0.000  0.041
tot    0.000  0.000  0.970  0.000  0.970
 
band    25 # energy  -11.60213793 # occ.  1.00000000
 
ion      s      p      d      f    tot
    1  0.000  0.000  0.031  0.000  0.031
    2  0.000  0.000  0.201  0.000  0.201
    3  0.000  0.000  0.323  0.000  0.324
    4  0.000  0.000  0.235  0.000  0.235
    5  0.000  0.000  0.159  0.000  0.159
    6  0.000  0.000  0.020  0.000  0.020
tot    0.000  0.000  0.970  0.000  0.970
 
band    26 # energy  -11.59307717 # occ.  1.00000000
 
ion      s      p      d      f    tot
    1  0.000  0.000  0.017  0.000  0.017
    2  0.000  0.000  0.320  0.000  0.320
    3  0.000  0.000  0.198  0.000  0.198
    4  0.000  0.000  0.166  0.000  0.166
    5  0.000  0.000  0.250  0.000  0.250
    6  0.000  0.000  0.020  0.000  0.020
tot    0.000  0.000  0.970  0.000  0.970
 
band    27 # energy  -11.57031699 # occ.  1.00000000
 
ion      s      p      d      f    tot
    1  0.000  0.000  0.273  0.000  0.273
    2  0.000  0.000  0.145  0.000  0.145
    3  0.000  0.000  0.134  0.000  0.134
    4  0.000  0.000  0.077  0.000  0.077
    5  0.000  0.000  0.081  0.000  0.081
    6  0.000  0.000  0.266  0.000  0.266
tot    0.000  0.000  0.976  0.000  0.976
 
band    28 # energy  -11.54806665 # occ.  1.00000000
 
ion      s      p      d      f    tot
    1  0.000  0.000  0.128  0.000  0.128
    2  0.000  0.000  0.161  0.000  0.161
    3  0.000  0.000  0.156  0.000  0.156
    4  0.000  0.000  0.190  0.000  0.190
    5  0.000  0.000  0.204  0.000  0.204
    6  0.000  0.000  0.136  0.000  0.136
tot    0.000  0.000  0.976  0.000  0.976
 
band    29 # energy  -11.53737541 # occ.  1.00000000
 
ion      s      p      d      f    tot
    1  0.000  0.000  0.029  0.000  0.030
    2  0.000  0.000  0.224  0.000  0.224
    3  0.000  0.000  0.242  0.000  0.242
    4  0.000  0.000  0.232  0.000  0.232
    5  0.000  0.000  0.217  0.000  0.217
    6  0.000  0.000  0.027  0.000  0.027
tot    0.000  0.001  0.970  0.000  0.971
 
band    30 # energy  -11.50651020 # occ.  1.00000000
 
ion      s      p      d      f    tot
    1  0.000  0.000  0.061  0.000  0.061
    2  0.000  0.000  0.238  0.000  0.238
    3  0.000  0.000  0.219  0.000  0.219
    4  0.000  0.000  0.199  0.000  0.199
    5  0.000  0.000  0.216  0.000  0.216
    6  0.000  0.000  0.042  0.000  0.042
tot    0.000  0.000  0.974  0.000  0.975
 
band    31 # energy   -8.33729203 # occ.  1.00000000
 
ion      s      p      d      f    tot
    1  0.115  0.008  0.003  0.000  0.126
    2  0.040  0.005  0.004  0.000  0.049
    3  0.040  0.005  0.004  0.000  0.049
    4  0.047  0.005  0.004  0.000  0.057
    5  0.047  0.005  0.004  0.000  0.057
    6  0.113  0.008  0.003  0.000  0.124
tot    0.402  0.036  0.023  0.000  0.461
 
band    32 # energy   -6.68950130 # occ.  1.00000000
 
ion      s      p      d      f    tot
    1  0.000  0.016  0.006  0.000  0.022
    2  0.107  0.004  0.001  0.000  0.113
    3  0.107  0.004  0.002  0.000  0.113
    4  0.091  0.004  0.002  0.000  0.097
    5  0.091  0.004  0.002  0.000  0.097
    6  0.000  0.015  0.006  0.000  0.021
tot    0.397  0.046  0.019  0.000  0.463
 
band    33 # energy   -5.35441335 # occ.  1.00000000
 
ion      s      p      d      f    tot
    1  0.004  0.015  0.003  0.000  0.023
    2  0.087  0.003  0.001  0.000  0.091
    3  0.086  0.003  0.001  0.000  0.090
    4  0.106  0.003  0.001  0.000  0.110
    5  0.107  0.003  0.001  0.000  0.112
    6  0.000  0.015  0.003  0.000  0.018
tot    0.391  0.041  0.012  0.000  0.444
 
band    34 # energy   -5.20378024 # occ.  1.00000000
 
ion      s      p      d      f    tot
    1  0.193  0.006  0.003  0.000  0.203
    2  0.000  0.006  0.003  0.000  0.009
    3  0.000  0.006  0.003  0.000  0.009
    4  0.001  0.006  0.003  0.000  0.011
    5  0.000  0.006  0.003  0.000  0.010
    6  0.212  0.006  0.003  0.000  0.221
tot    0.407  0.037  0.018  0.001  0.462
 
band    35 # energy   -4.71470714 # occ.  1.00000000
 
ion      s      p      d      f    tot
    1  0.001  0.000  0.005  0.000  0.006
    2  0.118  0.003  0.001  0.000  0.122
    3  0.097  0.003  0.001  0.000  0.101
    4  0.140  0.002  0.000  0.000  0.143
    5  0.121  0.002  0.001  0.000  0.124
    6  0.000  0.000  0.005  0.000  0.005
tot    0.478  0.012  0.012  0.000  0.501
 
band    36 # energy   -4.69361792 # occ.  1.00000000
 
ion      s      p      d      f    tot
    1  0.095  0.001  0.003  0.000  0.099
    2  0.075  0.008  0.002  0.000  0.085
    3  0.097  0.008  0.002  0.000  0.107
    4  0.041  0.008  0.003  0.000  0.051
    5  0.059  0.008  0.003  0.000  0.070
    6  0.084  0.001  0.003  0.000  0.088
tot    0.451  0.032  0.017  0.001  0.500
 
band    37 # energy   -2.29447327 # occ.  0.00000000
 
ion      s      p      d      f    tot
    1  0.000  0.043  0.000  0.000  0.043
    2  0.000  0.038  0.002  0.000  0.040
    3  0.000  0.039  0.002  0.000  0.041
    4  0.000  0.031  0.002  0.000  0.033
    5  0.000  0.031  0.002  0.000  0.033
    6  0.000  0.043  0.000  0.000  0.044
tot    0.000  0.225  0.009  0.001  0.234
 
band    38 # energy   -2.08750130 # occ.  0.00000000
 
ion      s      p      d      f    tot
    1  0.000  0.043  0.003  0.000  0.047
    2  0.009  0.041  0.001  0.000  0.051
    3  0.007  0.051  0.002  0.000  0.059
    4  0.006  0.048  0.001  0.000  0.055
    5  0.005  0.027  0.001  0.000  0.033
    6  0.000  0.043  0.003  0.000  0.046
tot    0.028  0.253  0.011  0.001  0.292
 
band    39 # energy   -2.08300352 # occ.  0.00000000
 
ion      s      p      d      f    tot
    1  0.010  0.083  0.001  0.000  0.095
    2  0.000  0.014  0.002  0.000  0.016
    3  0.003  0.003  0.001  0.000  0.007
    4  0.000  0.012  0.001  0.000  0.014
    5  0.001  0.032  0.002  0.000  0.035
    6  0.011  0.083  0.001  0.000  0.095
tot    0.025  0.228  0.009  0.001  0.262
 
band    40 # energy   -1.85376031 # occ.  0.00000000
 
ion      s      p      d      f    tot
    1  0.002  0.054  0.002  0.000  0.058
    2  0.005  0.032  0.001  0.000  0.038
    3  0.005  0.033  0.001  0.000  0.039
    4  0.015  0.023  0.000  0.000  0.038
    5  0.015  0.023  0.000  0.000  0.039
    6  0.003  0.053  0.002  0.000  0.057
tot    0.045  0.218  0.007  0.001  0.270
 
band    41 # energy   -1.83291675 # occ.  0.00000000
 
ion      s      p      d      f    tot
    1  0.002  0.006  0.003  0.000  0.012
    2  0.007  0.039  0.000  0.000  0.047
    3  0.008  0.041  0.000  0.000  0.049
    4  0.000  0.056  0.001  0.000  0.057
    5  0.000  0.056  0.001  0.000  0.057
    6  0.003  0.008  0.003  0.000  0.013
tot    0.020  0.207  0.008  0.000  0.236
 
band    42 # energy   -1.53477939 # occ.  0.00000000
 
ion      s      p      d      f    tot
    1  0.001  0.049  0.001  0.000  0.051
    2  0.000  0.015  0.001  0.000  0.016
    3  0.000  0.015  0.001  0.000  0.016
    4  0.000  0.036  0.001  0.000  0.038
    5  0.000  0.036  0.001  0.000  0.038
    6  0.001  0.050  0.001  0.000  0.052
tot    0.002  0.201  0.006  0.001  0.211
 
band    43 # energy   -1.16758523 # occ.  0.00000000
 
ion      s      p      d      f    tot
    1  0.000  0.004  0.000  0.000  0.004
    2  0.001  0.065  0.001  0.000  0.066
    3  0.001  0.065  0.001  0.000  0.066
    4  0.004  0.044  0.001  0.000  0.050
    5  0.004  0.044  0.001  0.000  0.050
    6  0.000  0.003  0.000  0.000  0.004
tot    0.009  0.226  0.005  0.001  0.240
 
band    44 # energy   -0.64366393 # occ.  0.00000000
 
ion      s      p      d      f    tot
    1  0.030  0.007  0.002  0.000  0.040
    2  0.000  0.049  0.001  0.000  0.050
    3  0.000  0.049  0.001  0.000  0.050
    4  0.000  0.021  0.001  0.000  0.022
    5  0.000  0.022  0.001  0.000  0.023
    6  0.030  0.006  0.002  0.000  0.038
tot    0.061  0.154  0.008  0.000  0.223
 
band    45 # energy   -0.25401835 # occ.  0.00000000
 
ion      s      p      d      f    tot
    1  0.000  0.000  0.005  0.000  0.005
    2  0.000  0.038  0.001  0.000  0.038
    3  0.000  0.036  0.001  0.000  0.037
    4  0.000  0.051  0.001  0.000  0.052
    5  0.000  0.050  0.001  0.000  0.050
    6  0.000  0.000  0.005  0.000  0.005
tot    0.000  0.175  0.012  0.000  0.188
 
band    46 # energy    0.01802216 # occ.  0.00000000
 
ion      s      p      d      f    tot
    1  0.006  0.009  0.002  0.000  0.017
    2  0.003  0.000  0.001  0.000  0.004
    3  0.010  0.012  0.001  0.000  0.024
    4  0.001  0.002  0.001  0.000  0.003
    5  0.012  0.010  0.001  0.000  0.023
    6  0.006  0.010  0.002  0.000  0.017
tot    0.036  0.042  0.009  0.001  0.088
 
