<?xml version="1.0" encoding="ISO-8859-1"?>
<modeling>
 <generator>
  <i name="program" type="string">vasp </i>
  <i name="version" type="string">5.4.4.18Apr17-6-g9f103f2a35  </i>
  <i name="subversion" type="string">(build Feb 27 2020 20:42:00) gamma-only         parallel </i>
  <i name="platform" type="string">LinuxIFC </i>
  <i name="date" type="string">2022 07 12 </i>
  <i name="time" type="string">15:11:00 </i>
 </generator>
 <incar>
  <i type="string" name="SYSTEM"> Cd</i>
  <i type="string" name="PREC">normal    ! calcululation level (change</i>
  <i type="string" name="ALGO"> NORMAL    !</i>
  <i type="logical" name="ADDGRID"> T  </i>
  <i type="int" name="ISPIN">     2</i>
  <i name="AMIX">      0.02000000</i>
  <i name="BMIX">      0.00001000</i>
  <i name="AMIX_MAG">      0.10000000</i>
  <i name="BMIX_MAG">      0.00001000</i>
  <i type="int" name="NELM">   120</i>
  <i type="int" name="NELMDL">    -8</i>
  <i type="int" name="NELMIN">     6</i>
  <i type="int" name="IBRION">     2</i>
  <i name="EDIFF">      0.00000100</i>
  <i name="EDIFFG">     -0.01000000</i>
  <i type="int" name="NSW">   200</i>
  <i type="int" name="ISIF">     0</i>
  <i name="ENCUT">    500.00000000</i>
  <i name="POTIM">      0.50000000</i>
  <i type="string" name="LREAL"> AUTO</i>
  <i type="logical" name="LPLANE"> T  </i>
  <i type="int" name="ISMEAR">     0</i>
  <i name="SIGMA">      0.00500000</i>
  <i type="int" name="NWRITE">     1</i>
  <i type="logical" name="LWAVE"> F  </i>
  <i type="logical" name="LCHARG"> F  </i>
  <i type="int" name="LORBIT">    10</i>
  <i type="logical" name="LASPH"> T  </i>
  <v type="int" name="KPOINT_BSE">    -1     0     0     0</v>
  <i type="int" name="NELM">   120</i>
  <i type="logical" name="LASPH"> T  </i>
 </incar>
 <structure name="primitive_cell" >
  <crystal>
   <varray name="basis" >
    <v>      17.00000000       0.00000000       0.00000000 </v>
    <v>       0.00000000      17.00000000       0.00000000 </v>
    <v>       0.00000000       0.00000000      17.00000000 </v>
   </varray>
   <i name="volume">   4913.00000000 </i>
   <varray name="rec_basis" >
    <v>       0.05882353       0.00000000       0.00000000 </v>
    <v>       0.00000000       0.05882353       0.00000000 </v>
    <v>       0.00000000       0.00000000       0.05882353 </v>
   </varray>
  </crystal>
  <varray name="positions" >
   <v>      -0.01134529       0.02981941       0.07444059 </v>
   <v>      -0.05067294      -0.09453529       0.02203294 </v>
   <v>       0.11299471      -0.00561529       0.01076294 </v>
   <v>      -0.12787588       0.00608529      -0.01118118 </v>
   <v>       0.06289824       0.11221765      -0.02627824 </v>
   <v>      -0.00225235      -0.00732529      -0.07841353 </v>
  </varray>
 </structure>
 <varray name="primitive_index" >
  <v type="int" >        1 </v>
  <v type="int" >        4 </v>
  <v type="int" >        5 </v>
  <v type="int" >        3 </v>
  <v type="int" >        2 </v>
  <v type="int" >        6 </v>
 </varray>
 <kpoints>
  <generation param="Gamma">
   <v type="int" name="divisions">       1        1        1 </v>
   <v name="usershift">      0.00000000       0.00000000       0.00000000 </v>
   <v name="genvec1">      1.00000000       0.00000000       0.00000000 </v>
   <v name="genvec2">      0.00000000       1.00000000       0.00000000 </v>
   <v name="genvec3">      0.00000000       0.00000000       1.00000000 </v>
   <v name="shift">      0.00000000       0.00000000       0.00000000 </v>
  </generation>
  <varray name="kpointlist" >
   <v>       0.00000000       0.00000000       0.00000000 </v>
  </varray>
  <varray name="weights" >
   <v>       1.00000000 </v>
  </varray>
 </kpoints>
 <parameters>
  <separator name="general" >
   <i type="string" name="SYSTEM">Cd</i>
   <i type="logical" name="LCOMPAT"> F  </i>
  </separator>
  <separator name="electronic" >
   <i type="string" name="PREC">normal</i>
   <i name="ENMAX">    500.00000000</i>
   <i name="ENAUG">    591.24700000</i>
   <i name="EDIFF">      0.00000100</i>
   <i type="int" name="IALGO">    38</i>
   <i type="int" name="IWAVPR">    11</i>
   <i type="int" name="NBANDS">    46</i>
   <i name="NELECT">     72.00000000</i>
   <i type="int" name="TURBO">     0</i>
   <i type="int" name="IRESTART">     0</i>
   <i type="int" name="NREBOOT">     0</i>
   <i type="int" name="NMIN">     0</i>
   <i name="EREF">      0.00000000</i>
   <separator name="electronic smearing" >
    <i type="int" name="ISMEAR">     0</i>
    <i name="SIGMA">      0.00500000</i>
    <i name="KSPACING">      0.50000000</i>
    <i type="logical" name="KGAMMA"> T  </i>
   </separator>
   <separator name="electronic projectors" >
    <i type="logical" name="LREAL"> T  </i>
    <v name="ROPT">     -0.00050000</v>
    <i type="int" name="LMAXPAW">  -100</i>
    <i type="int" name="LMAXMIX">     2</i>
    <i type="logical" name="NLSPLINE"> F  </i>
   </separator>
   <separator name="electronic startup" >
    <i type="int" name="ISTART">     0</i>
    <i type="int" name="ICHARG">     2</i>
    <i type="int" name="INIWAV">     1</i>
   </separator>
   <separator name="electronic spin" >
    <i type="int" name="ISPIN">     2</i>
    <i type="logical" name="LNONCOLLINEAR"> F  </i>
    <v name="MAGMOM">      1.00000000      1.00000000      1.00000000      1.00000000      1.00000000      1.00000000</v>
    <i name="NUPDOWN">     -1.00000000</i>
    <i type="logical" name="LSORBIT"> F  </i>
    <v name="SAXIS">      0.00000000      0.00000000      1.00000000</v>
    <i type="logical" name="LSPIRAL"> F  </i>
    <v name="QSPIRAL">      0.00000000      0.00000000      0.00000000</v>
    <i type="logical" name="LZEROZ"> F  </i>
   </separator>
   <separator name="electronic exchange-correlation" >
    <i type="logical" name="LASPH"> T  </i>
    <i type="logical" name="LMETAGGA"> F  </i>
   </separator>
   <separator name="electronic convergence" >
    <i type="int" name="NELM">   120</i>
    <i type="int" name="NELMDL">    -8</i>
    <i type="int" name="NELMIN">     6</i>
    <i name="ENINI">    500.00000000</i>
    <separator name="electronic convergence detail" >
     <i type="logical" name="LDIAG"> T  </i>
     <i type="logical" name="LSUBROT"> F  </i>
     <i name="WEIMIN">      0.00100000</i>
     <i name="EBREAK">      0.00000001</i>
     <i name="DEPER">      0.30000000</i>
     <i type="int" name="NRMM">     4</i>
     <i name="TIME">      0.40000000</i>
    </separator>
   </separator>
   <separator name="electronic mixer" >
    <i name="AMIX">      0.02000000</i>
    <i name="BMIX">      0.00001000</i>
    <i name="AMIN">      0.02000000</i>
    <i name="AMIX_MAG">      0.10000000</i>
    <i name="BMIX_MAG">      0.00001000</i>
    <separator name="electronic mixer details" >
     <i type="int" name="IMIX">     4</i>
     <i type="logical" name="MIXFIRST"> F  </i>
     <i type="int" name="MAXMIX">   -45</i>
     <i name="WC">    100.00000000</i>
     <i type="int" name="INIMIX">     1</i>
     <i type="int" name="MIXPRE">     1</i>
     <i type="int" name="MREMOVE">     5</i>
    </separator>
   </separator>
   <separator name="electronic dipolcorrection" >
    <i type="logical" name="LDIPOL"> F  </i>
    <i type="logical" name="LMONO"> F  </i>
    <i type="int" name="IDIPOL">     0</i>
    <i name="EPSILON">      1.00000000</i>
    <v name="DIPOL">   -100.00000000   -100.00000000   -100.00000000</v>
    <i name="EFIELD">      0.00000000</i>
   </separator>
  </separator>
  <separator name="grids" >
   <i type="int" name="NGX">    96</i>
   <i type="int" name="NGY">    96</i>
   <i type="int" name="NGZ">    96</i>
   <i type="int" name="NGXF">   192</i>
   <i type="int" name="NGYF">   192</i>
   <i type="int" name="NGZF">   192</i>
   <i type="logical" name="ADDGRID"> T  </i>
  </separator>
  <separator name="ionic" >
   <i type="int" name="NSW">   200</i>
   <i type="int" name="IBRION">     2</i>
   <i type="int" name="MDALGO">     0</i>
   <i type="int" name="ISIF">     0</i>
   <i name="PSTRESS">      0.00000000</i>
   <i name="EDIFFG">     -0.01000000</i>
   <i type="int" name="NFREE">     1</i>
   <i name="POTIM">      0.50000000</i>
   <i name="SMASS">     -3.00000000</i>
   <i name="SCALEE">      1.00000000</i>
  </separator>
  <separator name="ionic md" >
   <i name="TEBEG">      0.00010000</i>
   <i name="TEEND">      0.00010000</i>
   <i type="int" name="NBLOCK">     1</i>
   <i type="int" name="KBLOCK">   200</i>
   <i type="int" name="NPACO">   256</i>
   <i name="APACO">     16.00000000</i>
  </separator>
  <separator name="symmetry" >
   <i type="int" name="ISYM">     2</i>
   <i name="SYMPREC">      0.00001000</i>
  </separator>
  <separator name="dos" >
   <i type="int" name="LORBIT">    10</i>
   <v name="RWIGS">     -1.00000000</v>
   <i type="int" name="NEDOS">   301</i>
   <i name="EMIN">     10.00000000</i>
   <i name="EMAX">    -10.00000000</i>
   <i name="EFERMI">      0.00000000</i>
  </separator>
  <separator name="writing" >
   <i type="int" name="NWRITE">     1</i>
   <i type="logical" name="LWAVE"> F  </i>
   <i type="logical" name="LDOWNSAMPLE"> F  </i>
   <i type="logical" name="LCHARG"> F  </i>
   <i type="logical" name="LPARD"> F  </i>
   <i type="logical" name="LVTOT"> F  </i>
   <i type="logical" name="LVHAR"> F  </i>
   <i type="logical" name="LELF"> F  </i>
   <i type="logical" name="LOPTICS"> F  </i>
   <v name="STM">      0.00000000      0.00000000      0.00000000      0.00000000      0.00000000      0.00000000      0.00000000</v>
  </separator>
  <separator name="performance" >
   <i type="int" name="NPAR">     2</i>
   <i type="int" name="NSIM">     4</i>
   <i type="int" name="NBLK">    -1</i>
   <i type="logical" name="LPLANE"> T  </i>
   <i type="logical" name="LSCALAPACK"> T  </i>
   <i type="logical" name="LSCAAWARE"> F  </i>
   <i type="logical" name="LSCALU"> F  </i>
   <i type="logical" name="LASYNC"> F  </i>
   <i type="logical" name="LORBITALREAL"> F  </i>
  </separator>
  <separator name="miscellaneous" >
   <i type="int" name="IDIOT">     3</i>
   <i type="int" name="ISPECIAL">     0</i>
   <i type="logical" name="LMUSIC"> F  </i>
   <v name="POMASS">    112.41100000</v>
   <v name="DARWINR">      0.00000000</v>
   <v name="DARWINV">      1.00000000</v>
   <i type="logical" name="LCORR"> T  </i>
  </separator>
  <i type="logical" name="GGA_COMPAT"> T  </i>
  <i type="logical" name="LBERRY"> F  </i>
  <i type="int" name="ICORELEVEL">     0</i>
  <i type="logical" name="LDAU"> F  </i>
  <i type="int" name="I_CONSTRAINED_M">     0</i>
  <separator name="electronic exchange-correlation" >
   <i type="string" name="GGA">--</i>
   <i type="int" name="VOSKOWN">     0</i>
   <i type="logical" name="LHFCALC"> F  </i>
   <i type="string" name="PRECFOCK"></i>
   <i type="logical" name="LSYMGRAD"> F  </i>
   <i type="logical" name="LHFONE"> F  </i>
   <i type="logical" name="LRHFCALC"> F  </i>
   <i type="logical" name="LTHOMAS"> F  </i>
   <i type="logical" name="LMODELHF"> F  </i>
   <i name="ENCUT4O">     -1.00000000</i>
   <i type="int" name="EXXOEP">     0</i>
   <i type="int" name="FOURORBIT">     0</i>
   <i name="AEXX">      0.00000000</i>
   <i name="HFALPHA">      0.00000000</i>
   <i name="MCALPHA">      0.00000000</i>
   <i name="ALDAX">      1.00000000</i>
   <i name="AGGAX">      1.00000000</i>
   <i name="ALDAC">      1.00000000</i>
   <i name="AGGAC">      1.00000000</i>
   <i type="int" name="NKREDX">     1</i>
   <i type="int" name="NKREDY">     1</i>
   <i type="int" name="NKREDZ">     1</i>
   <i type="logical" name="SHIFTRED"> F  </i>
   <i type="logical" name="ODDONLY"> F  </i>
   <i type="logical" name="EVENONLY"> F  </i>
   <i type="int" name="LMAXFOCK">     0</i>
   <i type="int" name="NMAXFOCKAE">     0</i>
   <i type="logical" name="LFOCKAEDFT"> F  </i>
   <i name="HFSCREEN">      0.00000000</i>
   <i name="HFSCREENC">      0.00000000</i>
   <i type="int" name="NBANDSGWLOW">     0</i>
  </separator>
  <separator name="vdW DFT" >
   <i type="logical" name="LUSE_VDW"> F  </i>
   <i name="Zab_VDW">     -0.84910000</i>
   <i name="PARAM1">      0.12340000</i>
   <i name="PARAM2">      1.00000000</i>
   <i name="PARAM3">      0.00000000</i>
  </separator>
  <separator name="model GW" >
   <i type="int" name="MODEL_GW">     0</i>
   <i name="MODEL_EPS0">    491.30000000</i>
   <i name="MODEL_ALPHA">      1.00000000</i>
  </separator>
  <separator name="linear response parameters" >
   <i type="logical" name="LEPSILON"> F  </i>
   <i type="logical" name="LRPA"> F  </i>
   <i type="logical" name="LNABLA"> F  </i>
   <i type="logical" name="LVEL"> F  </i>
   <i type="int" name="KINTER">     0</i>
   <i name="CSHIFT">      0.10000000</i>
   <i name="OMEGAMAX">     -1.00000000</i>
   <i name="DEG_THRESHOLD">      0.00200000</i>
   <i name="RTIME">     -0.10000000</i>
   <i name="WPLASMAI">      0.00000000</i>
   <v name="DFIELD">      0.00000000      0.00000000      0.00000000</v>
   <v name="WPLASMA">      0.00000000      0.00000000      0.00000000      0.00000000      0.00000000      0.00000000      0.00000000      0.00000000      0.00000000</v>
  </separator>
  <separator name="orbital magnetization" >
   <i type="logical" name="NUCIND"> F  </i>
   <v name="MAGPOS">      0.00000000      0.00000000      0.00000000</v>
   <i type="logical" name="LNICSALL"> T  </i>
   <i type="logical" name="ORBITALMAG"> F  </i>
   <i type="logical" name="LMAGBLOCH"> F  </i>
   <i type="logical" name="LCHIMAG"> F  </i>
   <i type="logical" name="LGAUGE"> T  </i>
   <i type="int" name="MAGATOM">     0</i>
   <v name="MAGDIPOL">      0.00000000      0.00000000      0.00000000</v>
   <v name="AVECCONST">      0.00000000      0.00000000      0.00000000</v>
  </separator>
  <separator name="response functions" >
   <i type="logical" name="LADDER"> F  </i>
   <i type="logical" name="LRPAFORCE"> F  </i>
   <i type="logical" name="LFXC"> F  </i>
   <i type="logical" name="LHARTREE"> T  </i>
   <i type="int" name="IBSE">     0</i>
   <v type="int" name="KPOINT">    -1     0     0     0</v>
   <i type="logical" name="LTCTE"> F  </i>
   <i type="logical" name="LTETE"> F  </i>
   <i type="logical" name="LTRIPLET"> F  </i>
   <i type="logical" name="LFXCEPS"> F  </i>
   <i type="logical" name="LFXHEG"> F  </i>
   <i type="int" name="NATURALO">     2</i>
   <i type="logical" name="L2ORDER"> F  </i>
   <i type="logical" name="LMP2LT"> F  </i>
   <i type="logical" name="LUSEW"> F  </i>
   <i name="ENCUTGW">     -2.00000000</i>
   <i name="ENCUTGWSOFT">     -2.00000000</i>
   <i name="ENCUTLF">     -1.00000000</i>
   <i type="int" name="LMAXMP2">    -1</i>
   <i name="SCISSOR">      0.00000000</i>
   <i type="int" name="NOMEGA">     0</i>
   <i type="int" name="NOMEGAR">     0</i>
   <i type="int" name="NBANDSGW">    -1</i>
   <i type="int" name="NBANDSO">    -1</i>
   <i type="int" name="NBANDSV">    -1</i>
   <i type="int" name="NELM">   120</i>
   <i type="int" name="NELMHF">     1</i>
   <i type="int" name="DIM">     3</i>
   <i type="int" name="ANTIRES">     0</i>
   <i name="OMEGAMAX">    -30.00000000</i>
   <i name="OMEGAMIN">    -30.00000000</i>
   <i name="OMEGATL">   -200.00000000</i>
   <i type="int" name="OMEGAGRID">   140</i>
   <i name="CSHIFT">     -0.10000000</i>
   <i type="logical" name="SELFENERGY"> F  </i>
   <i type="logical" name="LSPECTRAL"> F  </i>
   <i type="logical" name="LSPECTRALGW"> F  </i>
   <i type="logical" name="LSINGLES"> F  </i>
   <i type="logical" name="LFERMIGW"> F  </i>
   <i type="logical" name="ODDONLYGW"> F  </i>
   <i type="logical" name="EVENONLYGW"> F  </i>
   <i type="int" name="NKREDLFX">     1</i>
   <i type="int" name="NKREDLFY">     1</i>
   <i type="int" name="NKREDLFZ">     1</i>
   <i type="int" name="MAXMEM">  2800</i>
   <i type="int" name="TELESCOPE">     0</i>
   <i type="int" name="TAUPAR">     1</i>
   <i type="int" name="OMEGAPAR">    -1</i>
   <i name="LAMBDA">      1.00000000</i>
  </separator>
  <separator name="External order field" >
   <i name="OFIELD_KAPPA">      0.00000000</i>
   <v name="OFIELD_K">      0.00000000      0.00000000      0.00000000</v>
   <i name="OFIELD_Q6_NEAR">      0.00000000</i>
   <i name="OFIELD_Q6_FAR">      0.00000000</i>
   <i name="OFIELD_A">      0.00000000</i>
  </separator>
 </parameters>
 <atominfo>
  <atoms>       6 </atoms>
  <types>       1 </types>
  <array name="atoms" >
   <dimension dim="1">ion</dimension>
   <field type="string">element</field>
   <field type="int">atomtype</field>
   <set>
    <rc><c>Cd</c><c>   1</c></rc>
    <rc><c>Cd</c><c>   1</c></rc>
    <rc><c>Cd</c><c>   1</c></rc>
    <rc><c>Cd</c><c>   1</c></rc>
    <rc><c>Cd</c><c>   1</c></rc>
    <rc><c>Cd</c><c>   1</c></rc>
   </set>
  </array>
  <array name="atomtypes" >
   <dimension dim="1">type</dimension>
   <field type="int">atomspertype</field>
   <field type="string">element</field>
   <field>mass</field>
   <field>valence</field>
   <field type="string">pseudopotential</field>
   <set>
    <rc><c>   6</c><c>Cd</c><c>    112.41100000</c><c>     12.00000000</c><c>  PAW Cd_GW 18May2010                   </c></rc>
   </set>
  </array>
 </atominfo>
 <structure name="initialpos" >
  <crystal>
   <varray name="basis" >
    <v>      17.00000000       0.00000000       0.00000000 </v>
    <v>       0.00000000      17.00000000       0.00000000 </v>
    <v>       0.00000000       0.00000000      17.00000000 </v>
   </varray>
   <i name="volume">   4913.00000000 </i>
   <varray name="rec_basis" >
    <v>       0.05882353       0.00000000       0.00000000 </v>
    <v>       0.00000000       0.05882353       0.00000000 </v>
    <v>       0.00000000       0.00000000       0.05882353 </v>
   </varray>
  </crystal>
  <varray name="positions" >
   <v>       0.98865471       0.02981941       0.07444059 </v>
   <v>       0.06289824       0.11221765       0.97372176 </v>
   <v>       0.87212412       0.00608529       0.98881882 </v>
   <v>       0.94932706       0.90546471       0.02203294 </v>
   <v>       0.11299471       0.99438471       0.01076294 </v>
   <v>       0.99774765       0.99267471       0.92158647 </v>
  </varray>
 </structure>
 <calculation>
  <scstep>
   <time name="dav">    8.14    8.19</time>
   <time name="total">   15.28   15.37</time>
   <energy>
    <i name="alphaZ">     10.88508281 </i>
    <i name="ewald">   5469.92870493 </i>
    <i name="hartreedc"> -12521.30746262 </i>
    <i name="XCdc">     30.66282864 </i>
    <i name="pawpsdc">   7069.11977507 </i>
    <i name="pawaedc">  -6976.93812921 </i>
    <i name="eentropy">     -0.00000000 </i>
    <i name="bandstr">     69.27198408 </i>
    <i name="atom">   7759.05671949 </i>
    <i name="e_fr_energy">    910.67950319 </i>
    <i name="e_wo_entrp">    910.67950319 </i>
    <i name="e_0_energy">    910.67950319 </i>
   </energy>
  </scstep>
  <scstep>
   <time name="dav">   13.56   13.65</time>
   <time name="total">   13.56   13.65</time>
   <energy>
    <i name="e_fr_energy">    332.95950164 </i>
    <i name="e_wo_entrp">    332.95950164 </i>
    <i name="e_0_energy">    332.95950164 </i>
   </energy>
  </scstep>
  <scstep>
   <time name="dav">   11.01   11.04</time>
   <time name="total">   11.01   11.04</time>
   <energy>
    <i name="e_fr_energy">     48.23029942 </i>
    <i name="e_wo_entrp">     48.23029942 </i>
    <i name="e_0_energy">     48.23029942 </i>
   </energy>
  </scstep>
  <scstep>
   <time name="dav">   11.49   11.54</time>
   <time name="total">   11.49   11.54</time>
   <energy>
    <i name="e_fr_energy">      8.86320677 </i>
    <i name="e_wo_entrp">      8.86320677 </i>
    <i name="e_0_energy">      8.86320677 </i>
   </energy>
  </scstep>
  <scstep>
   <time name="dav">   10.69   10.72</time>
   <time name="total">   10.69   10.72</time>
   <energy>
    <i name="e_fr_energy">      8.14708380 </i>
    <i name="e_wo_entrp">      8.14708380 </i>
    <i name="e_0_energy">      8.14708380 </i>
   </energy>
  </scstep>
  <scstep>
   <time name="dav">   11.43   11.67</time>
   <time name="total">   11.43   11.67</time>
   <energy>
    <i name="e_fr_energy">      8.12944071 </i>
    <i name="e_wo_entrp">      8.12944071 </i>
    <i name="e_0_energy">      8.12944071 </i>
   </energy>
  </scstep>
  <scstep>
   <time name="dav">   11.07   11.14</time>
   <time name="total">   11.07   11.14</time>
   <energy>
    <i name="e_fr_energy">      8.12911603 </i>
    <i name="e_wo_entrp">      8.12911603 </i>
    <i name="e_0_energy">      8.12911603 </i>
   </energy>
  </scstep>
  <scstep>
   <time name="dav">   11.87   11.90</time>
   <time name="total">   14.77   14.80</time>
   <energy>
    <i name="e_fr_energy">      8.12910311 </i>
    <i name="e_wo_entrp">      8.12910311 </i>
    <i name="e_0_energy">      8.12910311 </i>
   </energy>
  </scstep>
  <scstep>
   <time name="dav">   10.79   10.88</time>
   <time name="total">   20.83   20.96</time>
   <energy>
    <i name="e_fr_energy">      8.03133276 </i>
    <i name="e_wo_entrp">      8.03133276 </i>
    <i name="e_0_energy">      8.03133276 </i>
   </energy>
  </scstep>
  <scstep>
   <time name="dav">   10.85   10.88</time>
   <time name="total">   20.89   20.96</time>
   <energy>
    <i name="e_fr_energy">      8.01629721 </i>
    <i name="e_wo_entrp">      8.01629721 </i>
    <i name="e_0_energy">      8.01629721 </i>
   </energy>
  </scstep>
  <scstep>
   <time name="dav">   11.58   11.61</time>
   <time name="total">   21.69   21.75</time>
   <energy>
    <i name="e_fr_energy">      7.99484643 </i>
    <i name="e_wo_entrp">      7.99484643 </i>
    <i name="e_0_energy">      7.99484643 </i>
   </energy>
  </scstep>
  <scstep>
   <time name="dav">   11.94   11.97</time>
   <time name="total">   22.04   22.10</time>
   <energy>
    <i name="e_fr_energy">      7.83489416 </i>
    <i name="e_wo_entrp">      7.83489416 </i>
    <i name="e_0_energy">      7.83489416 </i>
   </energy>
  </scstep>
  <scstep>
   <time name="dav">    9.83    9.88</time>
   <time name="total">   19.93   20.01</time>
   <energy>
    <i name="e_fr_energy">      7.95743026 </i>
    <i name="e_wo_entrp">      7.95743026 </i>
    <i name="e_0_energy">      7.95743026 </i>
   </energy>
  </scstep>
  <scstep>
   <time name="dav">   11.16   11.19</time>
   <time name="total">   21.15   21.22</time>
   <energy>
    <i name="e_fr_energy">      8.05876066 </i>
    <i name="e_wo_entrp">      8.05876066 </i>
    <i name="e_0_energy">      8.05876066 </i>
   </energy>
  </scstep>
  <scstep>
   <time name="dav">   11.55   11.58</time>
   <time name="total">   21.57   21.64</time>
   <energy>
    <i name="e_fr_energy">      8.06607493 </i>
    <i name="e_wo_entrp">      8.06607493 </i>
    <i name="e_0_energy">      8.06607493 </i>
   </energy>
  </scstep>
  <scstep>
   <time name="dav">    9.13    9.15</time>
   <time name="total">   19.15   19.21</time>
   <energy>
    <i name="e_fr_energy">      8.06535007 </i>
    <i name="e_wo_entrp">      8.06535007 </i>
    <i name="e_0_energy">      8.06535007 </i>
   </energy>
  </scstep>
  <scstep>
   <time name="dav">   10.62   10.64</time>
   <time name="total">   20.67   20.73</time>
   <energy>
    <i name="e_fr_energy">      8.07064067 </i>
    <i name="e_wo_entrp">      8.07064067 </i>
    <i name="e_0_energy">      8.07064067 </i>
   </energy>
  </scstep>
  <scstep>
   <time name="dav">    9.92    9.95</time>
   <time name="total">   19.91   20.01</time>
   <energy>
    <i name="e_fr_energy">      8.07045643 </i>
    <i name="e_wo_entrp">      8.07045643 </i>
    <i name="e_0_energy">      8.07045643 </i>
   </energy>
  </scstep>
  <scstep>
   <time name="dav">   10.65   10.70</time>
   <time name="total">   20.73   20.81</time>
   <energy>
    <i name="e_fr_energy">      8.07133825 </i>
    <i name="e_wo_entrp">      8.07133825 </i>
    <i name="e_0_energy">      8.07133825 </i>
   </energy>
  </scstep>
  <scstep>
   <time name="dav">   11.61   11.64</time>
   <time name="total">   21.73   21.80</time>
   <energy>
    <i name="e_fr_energy">      8.07132612 </i>
    <i name="e_wo_entrp">      8.07132612 </i>
    <i name="e_0_energy">      8.07132612 </i>
   </energy>
  </scstep>
  <scstep>
   <time name="dav">    9.70    9.72</time>
   <time name="total">   19.77   19.85</time>
   <energy>
    <i name="e_fr_energy">      8.07134338 </i>
    <i name="e_wo_entrp">      8.07134338 </i>
    <i name="e_0_energy">      8.07134338 </i>
   </energy>
  </scstep>
  <scstep>
   <time name="dav">   10.95   11.00</time>
   <time name="total">   21.11   21.18</time>
   <energy>
    <i name="e_fr_energy">      8.07140580 </i>
    <i name="e_wo_entrp">      8.07140580 </i>
    <i name="e_0_energy">      8.07140580 </i>
   </energy>
  </scstep>
  <scstep>
   <time name="dav">   10.06   10.09</time>
   <time name="total">   20.23   20.30</time>
   <energy>
    <i name="e_fr_energy">      8.07141572 </i>
    <i name="e_wo_entrp">      8.07141572 </i>
    <i name="e_0_energy">      8.07141572 </i>
   </energy>
  </scstep>
  <scstep>
   <time name="dav">    9.33    9.35</time>
   <time name="total">   19.49   19.57</time>
   <energy>
    <i name="e_fr_energy">      8.07141818 </i>
    <i name="e_wo_entrp">      8.07141818 </i>
    <i name="e_0_energy">      8.07141818 </i>
   </energy>
  </scstep>
  <scstep>
   <time name="dav">    8.23    8.25</time>
   <time name="total">   18.40   18.48</time>
   <energy>
    <i name="e_fr_energy">      8.07141979 </i>
    <i name="e_wo_entrp">      8.07141979 </i>
    <i name="e_0_energy">      8.07141979 </i>
   </energy>
  </scstep>
  <scstep>
   <time name="dav">    8.59    8.63</time>
   <time name="total">   15.67   15.73</time>
   <energy>
    <i name="alphaZ">     10.88508281 </i>
    <i name="ewald">   5469.92870493 </i>
    <i name="hartreedc"> -12445.90744411 </i>
    <i name="XCdc">     28.11408715 </i>
    <i name="pawpsdc">   7883.15102874 </i>
    <i name="pawaedc">  -7810.77950305 </i>
    <i name="eentropy">     -0.00000000 </i>
    <i name="bandstr">   -886.37725583 </i>
    <i name="atom">   7759.05671949 </i>
    <i name="e_fr_energy">      8.07142013 </i>
    <i name="e_wo_entrp">      8.07142013 </i>
    <i name="e_0_energy">      8.07142013 </i>
   </energy>
  </scstep>
  <structure>
   <crystal>
    <varray name="basis" >
     <v>      17.00000000       0.00000000       0.00000000 </v>
     <v>       0.00000000      17.00000000       0.00000000 </v>
     <v>       0.00000000       0.00000000      17.00000000 </v>
    </varray>
    <i name="volume">   4913.00000000 </i>
    <varray name="rec_basis" >
     <v>       0.05882353       0.00000000       0.00000000 </v>
     <v>       0.00000000       0.05882353       0.00000000 </v>
     <v>       0.00000000       0.00000000       0.05882353 </v>
    </varray>
   </crystal>
   <varray name="positions" >
    <v>       0.98865471       0.02981941       0.07444059 </v>
    <v>       0.06289824       0.11221765       0.97372176 </v>
    <v>       0.87212412       0.00608529       0.98881882 </v>
    <v>       0.94932706       0.90546471       0.02203294 </v>
    <v>       0.11299471       0.99438471       0.01076294 </v>
    <v>       0.99774765       0.99267471       0.92158647 </v>
   </varray>
  </structure>
  <varray name="forces" >
   <v>      -0.53331867       3.43248388       6.29559086 </v>
   <v>       0.53147904       8.97031643      -2.22989118 </v>
   <v>      -9.48533113       4.90714208      -1.79167067 </v>
   <v>       1.08815866     -11.30428019       3.00980665 </v>
   <v>       7.77403574      -5.63396314       2.03250533 </v>
   <v>       0.62497636      -0.37169906      -7.31634100 </v>
  </varray>
  <energy>
   <i name="e_fr_energy">      8.07142013 </i>
   <i name="e_wo_entrp">      8.07142013 </i>
   <i name="e_0_energy">     -0.00000000 </i>
  </energy>
  <time name="totalsc">  497.44  499.66</time>
 </calculation>
 <calculation>
  <scstep>
   <time name="dav">   11.29   11.37</time>
   <time name="total">   21.27   21.38</time>
   <energy>
    <i name="alphaZ">     10.88508281 </i>
    <i name="ewald">   3252.54169190 </i>
    <i name="hartreedc"> -10292.85584258 </i>
    <i name="XCdc">     22.38005276 </i>
    <i name="pawpsdc">   7883.15698992 </i>
    <i name="pawaedc">  -7810.78748378 </i>
    <i name="eentropy">     -0.00000000 </i>
    <i name="bandstr">   -694.30501244 </i>
    <i name="atom">   7759.05671949 </i>
    <i name="e_fr_energy">    130.07219809 </i>
    <i name="e_wo_entrp">    130.07219809 </i>
    <i name="e_0_energy">    130.07219809 </i>
   </energy>
  </scstep>
  <scstep>
   <time name="dav">    9.30    9.32</time>
   <time name="total">   19.32   19.40</time>
   <energy>
    <i name="e_fr_energy">      2.89669046 </i>
    <i name="e_wo_entrp">      2.89669046 </i>
    <i name="e_0_energy">      2.89669046 </i>
   </energy>
  </scstep>
  <scstep>
   <time name="dav">   11.93   11.95</time>
   <time name="total">   22.06   22.12</time>
   <energy>
    <i name="e_fr_energy">     -0.91075658 </i>
    <i name="e_wo_entrp">     -0.91075658 </i>
    <i name="e_0_energy">     -0.91075658 </i>
   </energy>
  </scstep>
  <scstep>
   <time name="dav">   10.69   10.76</time>
   <time name="total">   20.77   20.86</time>
   <energy>
    <i name="e_fr_energy">     -0.94887944 </i>
    <i name="e_wo_entrp">     -0.94887944 </i>
    <i name="e_0_energy">     -0.94887944 </i>
   </energy>
  </scstep>
  <scstep>
   <time name="dav">   11.23   11.26</time>
   <time name="total">   21.33   21.40</time>
   <energy>
    <i name="e_fr_energy">     -0.72484649 </i>
    <i name="e_wo_entrp">     -0.72484649 </i>
    <i name="e_0_energy">     -0.72484649 </i>
   </energy>
  </scstep>
  <scstep>
   <time name="dav">   10.35   10.37</time>
   <time name="total">   20.56   20.62</time>
   <energy>
    <i name="e_fr_energy">     -0.81237278 </i>
    <i name="e_wo_entrp">     -0.81237278 </i>
    <i name="e_0_energy">     -0.81237278 </i>
   </energy>
  </scstep>
  <scstep>
   <time name="dav">    9.08    9.13</time>
   <time name="total">   19.15   19.23</time>
   <energy>
    <i name="e_fr_energy">     -0.73799401 </i>
    <i name="e_wo_entrp">     -0.73799401 </i>
    <i name="e_0_energy">     -0.73799401 </i>
   </energy>
  </scstep>
  <scstep>
   <time name="dav">   10.70   10.75</time>
   <time name="total">   20.71   20.83</time>
   <energy>
    <i name="e_fr_energy">     -0.65401543 </i>
    <i name="e_wo_entrp">     -0.65401543 </i>
    <i name="e_0_energy">     -0.65401543 </i>
   </energy>
  </scstep>
  <scstep>
   <time name="dav">   10.58   10.63</time>
   <time name="total">   20.70   20.80</time>
   <energy>
    <i name="e_fr_energy">     -0.65091996 </i>
    <i name="e_wo_entrp">     -0.65091996 </i>
    <i name="e_0_energy">     -0.65091996 </i>
   </energy>
  </scstep>
  <scstep>
   <time name="dav">    8.96    9.05</time>
   <time name="total">   19.05   19.19</time>
   <energy>
    <i name="e_fr_energy">     -0.65124812 </i>
    <i name="e_wo_entrp">     -0.65124812 </i>
    <i name="e_0_energy">     -0.65124812 </i>
   </energy>
  </scstep>
  <scstep>
   <time name="dav">   11.27   11.32</time>
   <time name="total">   21.37   21.49</time>
   <energy>
    <i name="e_fr_energy">     -0.64647881 </i>
    <i name="e_wo_entrp">     -0.64647881 </i>
    <i name="e_0_energy">     -0.64647881 </i>
   </energy>
  </scstep>
  <scstep>
   <time name="dav">    9.11    9.15</time>
   <time name="total">   19.21   19.31</time>
   <energy>
    <i name="e_fr_energy">     -0.64612819 </i>
    <i name="e_wo_entrp">     -0.64612819 </i>
    <i name="e_0_energy">     -0.64612819 </i>
   </energy>
  </scstep>
  <scstep>
   <time name="dav">   10.66   10.75</time>
   <time name="total">   20.78   20.91</time>
   <energy>
    <i name="e_fr_energy">     -0.64608659 </i>
    <i name="e_wo_entrp">     -0.64608659 </i>
    <i name="e_0_energy">     -0.64608659 </i>
   </energy>
  </scstep>
  <scstep>
   <time name="dav">   11.28   11.34</time>
   <time name="total">   21.38   21.52</time>
   <energy>
    <i name="e_fr_energy">     -0.64585420 </i>
    <i name="e_wo_entrp">     -0.64585420 </i>
    <i name="e_0_energy">     -0.64585420 </i>
   </energy>
  </scstep>
  <scstep>
   <time name="dav">   11.19   11.24</time>
   <time name="total">   21.31   21.43</time>
   <energy>
    <i name="e_fr_energy">     -0.64578366 </i>
    <i name="e_wo_entrp">     -0.64578366 </i>
    <i name="e_0_energy">     -0.64578366 </i>
   </energy>
  </scstep>
  <scstep>
   <time name="dav">    8.93    9.06</time>
   <time name="total">   19.09   19.26</time>
   <energy>
    <i name="e_fr_energy">     -0.64577951 </i>
    <i name="e_wo_entrp">     -0.64577951 </i>
    <i name="e_0_energy">     -0.64577951 </i>
   </energy>
  </scstep>
  <scstep>
   <time name="dav">   10.58   10.63</time>
   <time name="total">   20.72   20.90</time>
   <energy>
    <i name="e_fr_energy">     -0.64575288 </i>
    <i name="e_wo_entrp">     -0.64575288 </i>
    <i name="e_0_energy">     -0.64575288 </i>
   </energy>
  </scstep>
  <scstep>
   <time name="dav">   10.05   10.21</time>
   <time name="total">   20.32   20.55</time>
   <energy>
    <i name="e_fr_energy">     -0.64575937 </i>
    <i name="e_wo_entrp">     -0.64575937 </i>
    <i name="e_0_energy">     -0.64575937 </i>
   </energy>
  </scstep>
  <scstep>
   <time name="dav">    8.92    9.04</time>
   <time name="total">   19.17   19.34</time>
   <energy>
    <i name="e_fr_energy">     -0.64575975 </i>
    <i name="e_wo_entrp">     -0.64575975 </i>
    <i name="e_0_energy">     -0.64575975 </i>
   </energy>
  </scstep>
  <scstep>
   <time name="dav">    9.52    9.57</time>
   <time name="total">   19.83   19.94</time>
   <energy>
    <i name="e_fr_energy">     -0.64575381 </i>
    <i name="e_wo_entrp">     -0.64575381 </i>
    <i name="e_0_energy">     -0.64575381 </i>
   </energy>
  </scstep>
  <scstep>
   <time name="dav">   11.11   11.16</time>
   <time name="total">   21.46   21.58</time>
   <energy>
    <i name="e_fr_energy">     -0.64575314 </i>
    <i name="e_wo_entrp">     -0.64575314 </i>
    <i name="e_0_energy">     -0.64575314 </i>
   </energy>
  </scstep>
  <scstep>
   <time name="dav">    6.59    6.66</time>
   <time name="total">   13.71   13.83</time>
   <energy>
    <i name="alphaZ">     10.88508281 </i>
    <i name="ewald">   3252.54169190 </i>
    <i name="hartreedc"> -10344.39127199 </i>
    <i name="XCdc">     23.70517380 </i>
    <i name="pawpsdc">   7128.64005467 </i>
    <i name="pawaedc">  -7040.21032768 </i>
    <i name="eentropy">     -0.00000000 </i>
    <i name="bandstr">   -790.87287627 </i>
    <i name="atom">   7759.05671949 </i>
    <i name="e_fr_energy">     -0.64575326 </i>
    <i name="e_wo_entrp">     -0.64575326 </i>
    <i name="e_0_energy">     -0.64575326 </i>
   </energy>
  </scstep>
  <structure>
   <crystal>
    <varray name="basis" >
     <v>      17.00000000       0.00000000       0.00000000 </v>
     <v>       0.00000000      17.00000000       0.00000000 </v>
     <v>       0.00000000       0.00000000      17.00000000 </v>
    </varray>
    <i name="volume">   4913.00000000 </i>
    <varray name="rec_basis" >
     <v>       0.05882353       0.00000000       0.00000000 </v>
     <v>       0.00000000       0.05882353       0.00000000 </v>
     <v>       0.00000000       0.00000000       0.05882353 </v>
    </varray>
   </crystal>
   <varray name="positions" >
    <v>       0.98714125       0.03956013       0.09230624 </v>
    <v>       0.06440647       0.13767364       0.96739377 </v>
    <v>       0.84520661       0.02001080       0.98373441 </v>
    <v>       0.95241504       0.87338538       0.03057418 </v>
    <v>       0.13505589       0.97839663       0.01653079 </v>
    <v>       0.99952121       0.99161990       0.90082413 </v>
   </varray>
  </structure>
  <varray name="forces" >
   <v>      -0.10359261       0.07646886       0.31102120 </v>
   <v>       0.35084841       0.69437515      -0.11450655 </v>
   <v>      -0.60727963       0.00147636      -0.02672858 </v>
   <v>      -0.20574720      -0.45510332       0.09936685 </v>
   <v>       0.60843467      -0.14836838       0.06544161 </v>
   <v>      -0.04266364      -0.16884867      -0.33459454 </v>
  </varray>
  <energy>
   <i name="e_fr_energy">     -0.64575326 </i>
   <i name="e_wo_entrp">     -0.64575326 </i>
   <i name="e_0_energy">     -0.00000000 </i>
  </energy>
  <time name="totalsc">  476.94  480.49</time>
 </calculation>
 <calculation>
  <scstep>
   <time name="dav">   11.11   11.16</time>
   <time name="total">   21.16   21.27</time>
   <energy>
    <i name="alphaZ">     10.88508281 </i>
    <i name="ewald">   3157.51209350 </i>
    <i name="hartreedc"> -10250.41215332 </i>
    <i name="XCdc">     23.52884274 </i>
    <i name="pawpsdc">   7128.70989799 </i>
    <i name="pawaedc">  -7040.28127704 </i>
    <i name="eentropy">     -0.00000000 </i>
    <i name="bandstr">   -789.68173269 </i>
    <i name="atom">   7759.05671949 </i>
    <i name="e_fr_energy">     -0.68252652 </i>
    <i name="e_wo_entrp">     -0.68252652 </i>
    <i name="e_0_energy">     -0.68252652 </i>
   </energy>
  </scstep>
  <scstep>
   <time name="dav">   10.42   10.48</time>
   <time name="total">   20.33   20.48</time>
   <energy>
    <i name="e_fr_energy">     -0.71289381 </i>
    <i name="e_wo_entrp">     -0.71289381 </i>
    <i name="e_0_energy">     -0.71289381 </i>
   </energy>
  </scstep>
  <scstep>
   <time name="dav">   11.78   11.88</time>
   <time name="total">   21.77   21.90</time>
   <energy>
    <i name="e_fr_energy">     -0.71336048 </i>
    <i name="e_wo_entrp">     -0.71336048 </i>
    <i name="e_0_energy">     -0.71336048 </i>
   </energy>
  </scstep>
  <scstep>
   <time name="dav">   11.51   11.57</time>
   <time name="total">   21.59   21.70</time>
   <energy>
    <i name="e_fr_energy">     -0.71326450 </i>
    <i name="e_wo_entrp">     -0.71326450 </i>
    <i name="e_0_energy">     -0.71326450 </i>
   </energy>
  </scstep>
  <scstep>
   <time name="dav">    9.76    9.81</time>
   <time name="total">   19.76   19.92</time>
   <energy>
    <i name="e_fr_energy">     -0.71314182 </i>
    <i name="e_wo_entrp">     -0.71314182 </i>
    <i name="e_0_energy">     -0.71314182 </i>
   </energy>
  </scstep>
  <scstep>
   <time name="dav">    9.02    9.10</time>
   <time name="total">   19.11   19.23</time>
   <energy>
    <i name="e_fr_energy">     -0.71320168 </i>
    <i name="e_wo_entrp">     -0.71320168 </i>
    <i name="e_0_energy">     -0.71320168 </i>
   </energy>
  </scstep>
  <scstep>
   <time name="dav">    9.04    9.08</time>
   <time name="total">   19.05   19.13</time>
   <energy>
    <i name="e_fr_energy">     -0.71311655 </i>
    <i name="e_wo_entrp">     -0.71311655 </i>
    <i name="e_0_energy">     -0.71311655 </i>
   </energy>
  </scstep>
  <scstep>
   <time name="dav">    9.29    9.35</time>
   <time name="total">   19.30   19.42</time>
   <energy>
    <i name="e_fr_energy">     -0.71303607 </i>
    <i name="e_wo_entrp">     -0.71303607 </i>
    <i name="e_0_energy">     -0.71303607 </i>
   </energy>
  </scstep>
  <scstep>
   <time name="dav">    9.01    9.07</time>
   <time name="total">   19.05   19.19</time>
   <energy>
    <i name="e_fr_energy">     -0.71304532 </i>
    <i name="e_wo_entrp">     -0.71304532 </i>
    <i name="e_0_energy">     -0.71304532 </i>
   </energy>
  </scstep>
  <scstep>
   <time name="dav">    6.91    6.95</time>
   <time name="total">   17.02   17.10</time>
   <energy>
    <i name="e_fr_energy">     -0.71304824 </i>
    <i name="e_wo_entrp">     -0.71304824 </i>
    <i name="e_0_energy">     -0.71304824 </i>
   </energy>
  </scstep>
  <scstep>
   <time name="dav">   11.71   11.80</time>
   <time name="total">   21.81   21.95</time>
   <energy>
    <i name="e_fr_energy">     -0.71302815 </i>
    <i name="e_wo_entrp">     -0.71302815 </i>
    <i name="e_0_energy">     -0.71302815 </i>
   </energy>
  </scstep>
  <scstep>
   <time name="dav">    9.37    9.42</time>
   <time name="total">   19.46   19.57</time>
   <energy>
    <i name="e_fr_energy">     -0.71302643 </i>
    <i name="e_wo_entrp">     -0.71302643 </i>
    <i name="e_0_energy">     -0.71302643 </i>
   </energy>
  </scstep>
  <scstep>
   <time name="dav">    6.26    6.29</time>
   <time name="total">   13.32   13.42</time>
   <energy>
    <i name="alphaZ">     10.88508281 </i>
    <i name="ewald">   3157.51209350 </i>
    <i name="hartreedc"> -10252.26445182 </i>
    <i name="XCdc">     23.57739055 </i>
    <i name="pawpsdc">   7118.28639675 </i>
    <i name="pawaedc">  -7029.53580178 </i>
    <i name="eentropy">     -0.00000000 </i>
    <i name="bandstr">   -788.23045628 </i>
    <i name="atom">   7759.05671949 </i>
    <i name="e_fr_energy">     -0.71302678 </i>
    <i name="e_wo_entrp">     -0.71302678 </i>
    <i name="e_0_energy">     -0.71302678 </i>
   </energy>
  </scstep>
  <structure>
   <crystal>
    <varray name="basis" >
     <v>      17.00000000       0.00000000       0.00000000 </v>
     <v>       0.00000000      17.00000000       0.00000000 </v>
     <v>       0.00000000       0.00000000      17.00000000 </v>
    </varray>
    <i name="volume">   4913.00000000 </i>
    <varray name="rec_basis" >
     <v>       0.05882353       0.00000000       0.00000000 </v>
     <v>       0.00000000       0.05882353       0.00000000 </v>
     <v>       0.00000000       0.00000000       0.05882353 </v>
    </varray>
   </crystal>
   <varray name="positions" >
    <v>       0.98705847       0.04009292       0.09328344 </v>
    <v>       0.06448896       0.13906602       0.96704765 </v>
    <v>       0.84373430       0.02077249       0.98345631 </v>
    <v>       0.95258394       0.87163073       0.03104136 </v>
    <v>       0.13626258       0.97752212       0.01684628 </v>
    <v>       0.99961822       0.99156220       0.89968849 </v>
   </varray>
  </structure>
  <varray name="forces" >
   <v>      -0.08780893       0.04361344       0.23671184 </v>
   <v>       0.31689472       0.59488761      -0.09434371 </v>
   <v>      -0.51474540      -0.01286856      -0.01808362 </v>
   <v>      -0.18317781      -0.36268100       0.07730153 </v>
   <v>       0.50956588      -0.10842890       0.04901040 </v>
   <v>      -0.04072847      -0.15452258      -0.25059644 </v>
  </varray>
  <energy>
   <i name="e_fr_energy">     -0.71302678 </i>
   <i name="e_wo_entrp">     -0.71302678 </i>
   <i name="e_0_energy">     -0.00000000 </i>
  </energy>
  <time name="totalsc">  285.99  287.80</time>
 </calculation>
 <calculation>
  <scstep>
   <time name="dav">   11.33   11.40</time>
   <time name="total">   21.32   21.45</time>
   <energy>
    <i name="alphaZ">     10.88508281 </i>
    <i name="ewald">   2973.77773570 </i>
    <i name="hartreedc"> -10070.32369012 </i>
    <i name="XCdc">     23.25332024 </i>
    <i name="pawpsdc">   7118.26691992 </i>
    <i name="pawaedc">  -7029.51403282 </i>
    <i name="eentropy">     -0.00000000 </i>
    <i name="bandstr">   -786.04116760 </i>
    <i name="atom">   7759.05671949 </i>
    <i name="e_fr_energy">     -0.63911238 </i>
    <i name="e_wo_entrp">     -0.63911238 </i>
    <i name="e_0_energy">     -0.63911238 </i>
   </energy>
  </scstep>
  <scstep>
   <time name="dav">   10.82   10.87</time>
   <time name="total">   20.84   20.95</time>
   <energy>
    <i name="e_fr_energy">     -0.80881812 </i>
    <i name="e_wo_entrp">     -0.80881812 </i>
    <i name="e_0_energy">     -0.80881812 </i>
   </energy>
  </scstep>
  <scstep>
   <time name="dav">   11.78   11.83</time>
   <time name="total">   21.82   21.96</time>
   <energy>
    <i name="e_fr_energy">     -0.81162981 </i>
    <i name="e_wo_entrp">     -0.81162981 </i>
    <i name="e_0_energy">     -0.81162981 </i>
   </energy>
  </scstep>
  <scstep>
   <time name="dav">   11.70   11.79</time>
   <time name="total">   21.78   21.92</time>
   <energy>
    <i name="e_fr_energy">     -0.81144757 </i>
    <i name="e_wo_entrp">     -0.81144757 </i>
    <i name="e_0_energy">     -0.81144757 </i>
   </energy>
  </scstep>
  <scstep>
   <time name="dav">    9.76    9.80</time>
   <time name="total">   19.81   19.92</time>
   <energy>
    <i name="e_fr_energy">     -0.81093272 </i>
    <i name="e_wo_entrp">     -0.81093272 </i>
    <i name="e_0_energy">     -0.81093272 </i>
   </energy>
  </scstep>
  <scstep>
   <time name="dav">    9.46    9.51</time>
   <time name="total">   19.62   19.71</time>
   <energy>
    <i name="e_fr_energy">     -0.81115668 </i>
    <i name="e_wo_entrp">     -0.81115668 </i>
    <i name="e_0_energy">     -0.81115668 </i>
   </energy>
  </scstep>
  <scstep>
   <time name="dav">    9.47    9.52</time>
   <time name="total">   19.55   19.65</time>
   <energy>
    <i name="e_fr_energy">     -0.81090786 </i>
    <i name="e_wo_entrp">     -0.81090786 </i>
    <i name="e_0_energy">     -0.81090786 </i>
   </energy>
  </scstep>
  <scstep>
   <time name="dav">    9.19    9.23</time>
   <time name="total">   19.31   19.39</time>
   <energy>
    <i name="e_fr_energy">     -0.81070978 </i>
    <i name="e_wo_entrp">     -0.81070978 </i>
    <i name="e_0_energy">     -0.81070978 </i>
   </energy>
  </scstep>
  <scstep>
   <time name="dav">    8.91    8.96</time>
   <time name="total">   19.02   19.14</time>
   <energy>
    <i name="e_fr_energy">     -0.81073131 </i>
    <i name="e_wo_entrp">     -0.81073131 </i>
    <i name="e_0_energy">     -0.81073131 </i>
   </energy>
  </scstep>
  <scstep>
   <time name="dav">    9.05    9.10</time>
   <time name="total">   19.19   19.27</time>
   <energy>
    <i name="e_fr_energy">     -0.81073800 </i>
    <i name="e_wo_entrp">     -0.81073800 </i>
    <i name="e_0_energy">     -0.81073800 </i>
   </energy>
  </scstep>
  <scstep>
   <time name="dav">   11.68   11.73</time>
   <time name="total">   21.80   21.90</time>
   <energy>
    <i name="e_fr_energy">     -0.81068961 </i>
    <i name="e_wo_entrp">     -0.81068961 </i>
    <i name="e_0_energy">     -0.81068961 </i>
   </energy>
  </scstep>
  <scstep>
   <time name="dav">    8.96    9.01</time>
   <time name="total">   19.15   19.25</time>
   <energy>
    <i name="e_fr_energy">     -0.81068747 </i>
    <i name="e_wo_entrp">     -0.81068747 </i>
    <i name="e_0_energy">     -0.81068747 </i>
   </energy>
  </scstep>
  <scstep>
   <time name="dav">    6.35    6.38</time>
   <time name="total">   13.51   13.58</time>
   <energy>
    <i name="alphaZ">     10.88508281 </i>
    <i name="ewald">   2973.77773570 </i>
    <i name="hartreedc"> -10073.56898623 </i>
    <i name="XCdc">     23.33957013 </i>
    <i name="pawpsdc">   7101.03467096 </i>
    <i name="pawaedc">  -7011.70181795 </i>
    <i name="eentropy">     -0.00000000 </i>
    <i name="bandstr">   -783.63366275 </i>
    <i name="atom">   7759.05671949 </i>
    <i name="e_fr_energy">     -0.81068783 </i>
    <i name="e_wo_entrp">     -0.81068783 </i>
    <i name="e_0_energy">     -0.81068783 </i>
   </energy>
  </scstep>
  <structure>
   <crystal>
    <varray name="basis" >
     <v>      17.00000000       0.00000000       0.00000000 </v>
     <v>       0.00000000      17.00000000       0.00000000 </v>
     <v>       0.00000000       0.00000000      17.00000000 </v>
    </varray>
    <i name="volume">   4913.00000000 </i>
    <varray name="rec_basis" >
     <v>       0.05882353       0.00000000       0.00000000 </v>
     <v>       0.00000000       0.05882353       0.00000000 </v>
     <v>       0.00000000       0.00000000       0.05882353 </v>
    </varray>
   </crystal>
   <varray name="positions" >
    <v>       0.98689291       0.04115850       0.09523785 </v>
    <v>       0.06465396       0.14185078       0.96635540 </v>
    <v>       0.84078966       0.02229587       0.98290010 </v>
    <v>       0.95292175       0.86812141       0.03197573 </v>
    <v>       0.13867596       0.97577310       0.01747725 </v>
    <v>       0.99981223       0.99144681       0.89741719 </v>
   </varray>
  </structure>
  <varray name="forces" >
   <v>      -0.06069058      -0.00817013       0.11480134 </v>
   <v>       0.25579476       0.43069819      -0.06147056 </v>
   <v>      -0.36175784      -0.03032563      -0.00687749 </v>
   <v>      -0.14244839      -0.21721419       0.04355941 </v>
   <v>       0.34432889      -0.04758779       0.02321564 </v>
   <v>      -0.03522685      -0.12740046      -0.11322833 </v>
  </varray>
  <energy>
   <i name="e_fr_energy">     -0.81068783 </i>
   <i name="e_wo_entrp">     -0.81068783 </i>
   <i name="e_0_energy">     -0.00000000 </i>
  </energy>
  <time name="totalsc">  290.33  292.11</time>
 </calculation>
 <calculation>
  <scstep>
   <time name="dav">   11.14   11.20</time>
   <time name="total">   21.18   21.33</time>
   <energy>
    <i name="alphaZ">     10.88508281 </i>
    <i name="ewald">   2629.83841758 </i>
    <i name="hartreedc">  -9732.40098387 </i>
    <i name="XCdc">     22.79617870 </i>
    <i name="pawpsdc">   7101.02846761 </i>
    <i name="pawaedc">  -7011.69503700 </i>
    <i name="eentropy">     -0.00000000 </i>
    <i name="bandstr">   -779.40396374 </i>
    <i name="atom">   7759.05671949 </i>
    <i name="e_fr_energy">      0.10488159 </i>
    <i name="e_wo_entrp">      0.10488159 </i>
    <i name="e_0_energy">      0.10488159 </i>
   </energy>
  </scstep>
  <scstep>
   <time name="dav">   10.12   10.17</time>
   <time name="total">   20.21   20.30</time>
   <energy>
    <i name="e_fr_energy">     -0.88207180 </i>
    <i name="e_wo_entrp">     -0.88207180 </i>
    <i name="e_0_energy">     -0.88207180 </i>
   </energy>
  </scstep>
  <scstep>
   <time name="dav">   11.59   11.64</time>
   <time name="total">   21.75   21.84</time>
   <energy>
    <i name="e_fr_energy">     -0.90043945 </i>
    <i name="e_wo_entrp">     -0.90043945 </i>
    <i name="e_0_energy">     -0.90043945 </i>
   </energy>
  </scstep>
  <scstep>
   <time name="dav">   11.57   11.63</time>
   <time name="total">   21.64   21.77</time>
   <energy>
    <i name="e_fr_energy">     -0.90051781 </i>
    <i name="e_wo_entrp">     -0.90051781 </i>
    <i name="e_0_energy">     -0.90051781 </i>
   </energy>
  </scstep>
  <scstep>
   <time name="dav">   10.50   10.55</time>
   <time name="total">   20.62   20.72</time>
   <energy>
    <i name="e_fr_energy">     -0.89852434 </i>
    <i name="e_wo_entrp">     -0.89852434 </i>
    <i name="e_0_energy">     -0.89852434 </i>
   </energy>
  </scstep>
  <scstep>
   <time name="dav">    9.56    9.61</time>
   <time name="total">   19.65   19.74</time>
   <energy>
    <i name="e_fr_energy">     -0.89939026 </i>
    <i name="e_wo_entrp">     -0.89939026 </i>
    <i name="e_0_energy">     -0.89939026 </i>
   </energy>
  </scstep>
  <scstep>
   <time name="dav">    9.63    9.68</time>
   <time name="total">   19.66   19.79</time>
   <energy>
    <i name="e_fr_energy">     -0.89878756 </i>
    <i name="e_wo_entrp">     -0.89878756 </i>
    <i name="e_0_energy">     -0.89878756 </i>
   </energy>
  </scstep>
  <scstep>
   <time name="dav">   10.16   10.22</time>
   <time name="total">   20.23   20.33</time>
   <energy>
    <i name="e_fr_energy">     -0.89935143 </i>
    <i name="e_wo_entrp">     -0.89935143 </i>
    <i name="e_0_energy">     -0.89935143 </i>
   </energy>
  </scstep>
  <scstep>
   <time name="dav">    9.12    9.16</time>
   <time name="total">   19.23   19.31</time>
   <energy>
    <i name="e_fr_energy">     -0.89872443 </i>
    <i name="e_wo_entrp">     -0.89872443 </i>
    <i name="e_0_energy">     -0.89872443 </i>
   </energy>
  </scstep>
  <scstep>
   <time name="dav">    9.09    9.14</time>
   <time name="total">   19.17   19.30</time>
   <energy>
    <i name="e_fr_energy">     -0.89875938 </i>
    <i name="e_wo_entrp">     -0.89875938 </i>
    <i name="e_0_energy">     -0.89875938 </i>
   </energy>
  </scstep>
  <scstep>
   <time name="dav">   10.68   10.76</time>
   <time name="total">   20.82   20.98</time>
   <energy>
    <i name="e_fr_energy">     -0.89873144 </i>
    <i name="e_wo_entrp">     -0.89873144 </i>
    <i name="e_0_energy">     -0.89873144 </i>
   </energy>
  </scstep>
  <scstep>
   <time name="dav">   12.05   12.11</time>
   <time name="total">   22.20   22.30</time>
   <energy>
    <i name="e_fr_energy">     -0.89869447 </i>
    <i name="e_wo_entrp">     -0.89869447 </i>
    <i name="e_0_energy">     -0.89869447 </i>
   </energy>
  </scstep>
  <scstep>
   <time name="dav">    9.29    9.33</time>
   <time name="total">   19.40   19.48</time>
   <energy>
    <i name="e_fr_energy">     -0.89870094 </i>
    <i name="e_wo_entrp">     -0.89870094 </i>
    <i name="e_0_energy">     -0.89870094 </i>
   </energy>
  </scstep>
  <scstep>
   <time name="dav">    7.60    7.66</time>
   <time name="total">   17.75   17.88</time>
   <energy>
    <i name="e_fr_energy">     -0.89869669 </i>
    <i name="e_wo_entrp">     -0.89869669 </i>
    <i name="e_0_energy">     -0.89869669 </i>
   </energy>
  </scstep>
  <scstep>
   <time name="dav">   11.60   11.68</time>
   <time name="total">   21.70   21.85</time>
   <energy>
    <i name="e_fr_energy">     -0.89868969 </i>
    <i name="e_wo_entrp">     -0.89868969 </i>
    <i name="e_0_energy">     -0.89868969 </i>
   </energy>
  </scstep>
  <scstep>
   <time name="dav">    8.76    8.83</time>
   <time name="total">   15.84   15.94</time>
   <energy>
    <i name="alphaZ">     10.88508281 </i>
    <i name="ewald">   2629.83841758 </i>
    <i name="hartreedc">  -9737.48060445 </i>
    <i name="XCdc">     22.92985570 </i>
    <i name="pawpsdc">   7076.46247213 </i>
    <i name="pawaedc">  -6986.20917568 </i>
    <i name="eentropy">     -0.00000000 </i>
    <i name="bandstr">   -776.38145764 </i>
    <i name="atom">   7759.05671949 </i>
    <i name="e_fr_energy">     -0.89869006 </i>
    <i name="e_wo_entrp">     -0.89869006 </i>
    <i name="e_0_energy">     -0.89869006 </i>
   </energy>
  </scstep>
  <structure>
   <crystal>
    <varray name="basis" >
     <v>      17.00000000       0.00000000       0.00000000 </v>
     <v>       0.00000000      17.00000000       0.00000000 </v>
     <v>       0.00000000       0.00000000      17.00000000 </v>
    </varray>
    <i name="volume">   4913.00000000 </i>
    <varray name="rec_basis" >
     <v>       0.05882353       0.00000000       0.00000000 </v>
     <v>       0.00000000       0.05882353       0.00000000 </v>
     <v>       0.00000000       0.00000000       0.05882353 </v>
    </varray>
   </crystal>
   <varray name="positions" >
    <v>       0.98656178       0.04328967       0.09914668 </v>
    <v>       0.06498394       0.14742029       0.96497090 </v>
    <v>       0.83490038       0.02534263       0.98178768 </v>
    <v>       0.95359737       0.86110278       0.03384447 </v>
    <v>       0.14350273       0.97227507       0.01873920 </v>
    <v>       0.00020027       0.99121603       0.89287460 </v>
   </varray>
  </structure>
  <varray name="forces" >
   <v>      -0.02190249      -0.06815049      -0.04305436 </v>
   <v>       0.15598559       0.20020573      -0.01792854 </v>
   <v>      -0.15332364      -0.04115664       0.00578728 </v>
   <v>      -0.07401879      -0.03286558       0.00152682 </v>
   <v>       0.11685175       0.02315179      -0.00724537 </v>
   <v>      -0.02359243      -0.08118481       0.06091416 </v>
  </varray>
  <energy>
   <i name="e_fr_energy">     -0.89869006 </i>
   <i name="e_wo_entrp">     -0.89869006 </i>
   <i name="e_0_energy">     -0.00000000 </i>
  </energy>
  <time name="totalsc">  354.42  356.47</time>
 </calculation>
 <calculation>
  <scstep>
   <time name="dav">   11.43   11.50</time>
   <time name="total">   21.31   21.42</time>
   <energy>
    <i name="alphaZ">     10.88508281 </i>
    <i name="ewald">   2533.66289571 </i>
    <i name="hartreedc">  -9641.93113293 </i>
    <i name="XCdc">     22.79110804 </i>
    <i name="pawpsdc">   7076.45828305 </i>
    <i name="pawaedc">  -6986.20478236 </i>
    <i name="eentropy">     -0.00000000 </i>
    <i name="bandstr">   -775.57640353 </i>
    <i name="atom">   7759.05671949 </i>
    <i name="e_fr_energy">     -0.85822973 </i>
    <i name="e_wo_entrp">     -0.85822973 </i>
    <i name="e_0_energy">     -0.85822973 </i>
   </energy>
  </scstep>
  <scstep>
   <time name="dav">   10.86   10.92</time>
   <time name="total">   20.84   20.93</time>
   <energy>
    <i name="e_fr_energy">     -0.90470023 </i>
    <i name="e_wo_entrp">     -0.90470023 </i>
    <i name="e_0_energy">     -0.90470023 </i>
   </energy>
  </scstep>
  <scstep>
   <time name="dav">   11.48   11.53</time>
   <time name="total">   21.51   21.61</time>
   <energy>
    <i name="e_fr_energy">     -0.90548522 </i>
    <i name="e_wo_entrp">     -0.90548522 </i>
    <i name="e_0_energy">     -0.90548522 </i>
   </energy>
  </scstep>
  <scstep>
   <time name="dav">   11.48   11.58</time>
   <time name="total">   21.54   21.70</time>
   <energy>
    <i name="e_fr_energy">     -0.90545201 </i>
    <i name="e_wo_entrp">     -0.90545201 </i>
    <i name="e_0_energy">     -0.90545201 </i>
   </energy>
  </scstep>
  <scstep>
   <time name="dav">   10.45   10.49</time>
   <time name="total">   20.44   20.53</time>
   <energy>
    <i name="e_fr_energy">     -0.90538316 </i>
    <i name="e_wo_entrp">     -0.90538316 </i>
    <i name="e_0_energy">     -0.90538316 </i>
   </energy>
  </scstep>
  <scstep>
   <time name="dav">    9.46    9.51</time>
   <time name="total">   19.48   19.57</time>
   <energy>
    <i name="e_fr_energy">     -0.90541983 </i>
    <i name="e_wo_entrp">     -0.90541983 </i>
    <i name="e_0_energy">     -0.90541983 </i>
   </energy>
  </scstep>
  <scstep>
   <time name="dav">    9.11    9.17</time>
   <time name="total">   19.08   19.21</time>
   <energy>
    <i name="e_fr_energy">     -0.90538852 </i>
    <i name="e_wo_entrp">     -0.90538852 </i>
    <i name="e_0_energy">     -0.90538852 </i>
   </energy>
  </scstep>
  <scstep>
   <time name="dav">   10.71   10.77</time>
   <time name="total">   20.73   20.83</time>
   <energy>
    <i name="e_fr_energy">     -0.90538751 </i>
    <i name="e_wo_entrp">     -0.90538751 </i>
    <i name="e_0_energy">     -0.90538751 </i>
   </energy>
  </scstep>
  <scstep>
   <time name="dav">    9.61    9.69</time>
   <time name="total">   19.64   19.76</time>
   <energy>
    <i name="e_fr_energy">     -0.90539148 </i>
    <i name="e_wo_entrp">     -0.90539148 </i>
    <i name="e_0_energy">     -0.90539148 </i>
   </energy>
  </scstep>
  <scstep>
   <time name="dav">    6.44    6.47</time>
   <time name="total">   16.50   16.57</time>
   <energy>
    <i name="e_fr_energy">     -0.90539265 </i>
    <i name="e_wo_entrp">     -0.90539265 </i>
    <i name="e_0_energy">     -0.90539265 </i>
   </energy>
  </scstep>
  <scstep>
   <time name="dav">   11.25   11.31</time>
   <time name="total">   21.30   21.42</time>
   <energy>
    <i name="e_fr_energy">     -0.90538250 </i>
    <i name="e_wo_entrp">     -0.90538250 </i>
    <i name="e_0_energy">     -0.90538250 </i>
   </energy>
  </scstep>
  <scstep>
   <time name="dav">    9.13    9.18</time>
   <time name="total">   16.23   16.31</time>
   <energy>
    <i name="alphaZ">     10.88508281 </i>
    <i name="ewald">   2533.66289571 </i>
    <i name="hartreedc">  -9643.33154387 </i>
    <i name="XCdc">     22.82774929 </i>
    <i name="pawpsdc">   7071.44458583 </i>
    <i name="pawaedc">  -6980.98903497 </i>
    <i name="eentropy">     -0.00000000 </i>
    <i name="bandstr">   -774.46183647 </i>
    <i name="atom">   7759.05671949 </i>
    <i name="e_fr_energy">     -0.90538218 </i>
    <i name="e_wo_entrp">     -0.90538218 </i>
    <i name="e_0_energy">     -0.90538218 </i>
   </energy>
  </scstep>
  <structure>
   <crystal>
    <varray name="basis" >
     <v>      17.00000000       0.00000000       0.00000000 </v>
     <v>       0.00000000      17.00000000       0.00000000 </v>
     <v>       0.00000000       0.00000000      17.00000000 </v>
    </varray>
    <i name="volume">   4913.00000000 </i>
    <varray name="rec_basis" >
     <v>       0.05882353       0.00000000       0.00000000 </v>
     <v>       0.00000000       0.05882353       0.00000000 </v>
     <v>       0.00000000       0.00000000       0.05882353 </v>
    </varray>
   </crystal>
   <varray name="positions" >
    <v>       0.98646380       0.04392025       0.10030323 </v>
    <v>       0.06508158       0.14906821       0.96456125 </v>
    <v>       0.83315785       0.02624411       0.98145854 </v>
    <v>       0.95379728       0.85902609       0.03439739 </v>
    <v>       0.14493088       0.97124007       0.01911259 </v>
    <v>       0.00031508       0.99114775       0.89153053 </v>
   </varray>
  </structure>
  <varray name="forces" >
   <v>      -0.01263003      -0.07834163      -0.07638496 </v>
   <v>       0.13137350       0.15037938      -0.00902469 </v>
   <v>      -0.10953010      -0.04042791       0.00753834 </v>
   <v>      -0.05783393       0.00226773      -0.00587468 </v>
   <v>       0.06881212       0.03570838      -0.01290841 </v>
   <v>      -0.02019156      -0.06958595       0.09665440 </v>
  </varray>
  <energy>
   <i name="e_fr_energy">     -0.90538218 </i>
   <i name="e_wo_entrp">     -0.90538218 </i>
   <i name="e_0_energy">     -0.00000000 </i>
  </energy>
  <time name="totalsc">  271.80  273.34</time>
 </calculation>
 <calculation>
  <scstep>
   <time name="dav">   11.11   11.16</time>
   <time name="total">   21.08   21.19</time>
   <energy>
    <i name="alphaZ">     10.88508281 </i>
    <i name="ewald">   2487.45078747 </i>
    <i name="hartreedc">  -9597.39809194 </i>
    <i name="XCdc">     22.76301323 </i>
    <i name="pawpsdc">   7071.44453276 </i>
    <i name="pawaedc">  -6980.98880318 </i>
    <i name="eentropy">     -0.00000000 </i>
    <i name="bandstr">   -774.11187639 </i>
    <i name="atom">   7759.05671949 </i>
    <i name="e_fr_energy">     -0.89863575 </i>
    <i name="e_wo_entrp">     -0.89863575 </i>
    <i name="e_0_energy">     -0.89863575 </i>
   </energy>
  </scstep>
  <scstep>
   <time name="dav">   11.04   11.10</time>
   <time name="total">   20.99   21.09</time>
   <energy>
    <i name="e_fr_energy">     -0.90617856 </i>
    <i name="e_wo_entrp">     -0.90617856 </i>
    <i name="e_0_energy">     -0.90617856 </i>
   </energy>
  </scstep>
  <scstep>
   <time name="dav">   11.56   11.62</time>
   <time name="total">   21.53   21.64</time>
   <energy>
    <i name="e_fr_energy">     -0.90628460 </i>
    <i name="e_wo_entrp">     -0.90628460 </i>
    <i name="e_0_energy">     -0.90628460 </i>
   </energy>
  </scstep>
  <scstep>
   <time name="dav">   11.71   11.77</time>
   <time name="total">   21.74   21.86</time>
   <energy>
    <i name="e_fr_energy">     -0.90627237 </i>
    <i name="e_wo_entrp">     -0.90627237 </i>
    <i name="e_0_energy">     -0.90627237 </i>
   </energy>
  </scstep>
  <scstep>
   <time name="dav">   10.81   10.87</time>
   <time name="total">   20.83   20.93</time>
   <energy>
    <i name="e_fr_energy">     -0.90627372 </i>
    <i name="e_wo_entrp">     -0.90627372 </i>
    <i name="e_0_energy">     -0.90627372 </i>
   </energy>
  </scstep>
  <scstep>
   <time name="dav">    9.49    9.54</time>
   <time name="total">   19.54   19.63</time>
   <energy>
    <i name="e_fr_energy">     -0.90628242 </i>
    <i name="e_wo_entrp">     -0.90628242 </i>
    <i name="e_0_energy">     -0.90628242 </i>
   </energy>
  </scstep>
  <scstep>
   <time name="dav">    7.87    7.90</time>
   <time name="total">   17.87   17.96</time>
   <energy>
    <i name="e_fr_energy">     -0.90627160 </i>
    <i name="e_wo_entrp">     -0.90627160 </i>
    <i name="e_0_energy">     -0.90627160 </i>
   </energy>
  </scstep>
  <scstep>
   <time name="dav">   10.47   10.52</time>
   <time name="total">   20.55   20.64</time>
   <energy>
    <i name="e_fr_energy">     -0.90627199 </i>
    <i name="e_wo_entrp">     -0.90627199 </i>
    <i name="e_0_energy">     -0.90627199 </i>
   </energy>
  </scstep>
  <scstep>
   <time name="dav">    8.86    8.93</time>
   <time name="total">   15.92   16.02</time>
   <energy>
    <i name="alphaZ">     10.88508281 </i>
    <i name="ewald">   2487.45078747 </i>
    <i name="hartreedc">  -9598.01513586 </i>
    <i name="XCdc">     22.78036844 </i>
    <i name="pawpsdc">   7069.22600966 </i>
    <i name="pawaedc">  -6978.67857077 </i>
    <i name="eentropy">     -0.00000000 </i>
    <i name="bandstr">   -773.61153411 </i>
    <i name="atom">   7759.05671949 </i>
    <i name="e_fr_energy">     -0.90627286 </i>
    <i name="e_wo_entrp">     -0.90627286 </i>
    <i name="e_0_energy">     -0.90627286 </i>
   </energy>
  </scstep>
  <structure>
   <crystal>
    <varray name="basis" >
     <v>      17.00000000       0.00000000       0.00000000 </v>
     <v>       0.00000000      17.00000000       0.00000000 </v>
     <v>       0.00000000       0.00000000      17.00000000 </v>
    </varray>
    <i name="volume">   4913.00000000 </i>
    <varray name="rec_basis" >
     <v>       0.05882353       0.00000000       0.00000000 </v>
     <v>       0.00000000       0.05882353       0.00000000 </v>
     <v>       0.00000000       0.00000000       0.05882353 </v>
    </varray>
   </crystal>
   <varray name="positions" >
    <v>       0.98641583       0.04422900       0.10086951 </v>
    <v>       0.06512939       0.14987508       0.96436067 </v>
    <v>       0.83230465       0.02668550       0.98129738 </v>
    <v>       0.95389515       0.85800928       0.03466812 </v>
    <v>       0.14563015       0.97073330       0.01929541 </v>
    <v>       0.00037130       0.99111431       0.89087243 </v>
   </varray>
  </structure>
  <varray name="forces" >
   <v>      -0.00913885      -0.08176243      -0.08913868 </v>
   <v>       0.12208437       0.13021928      -0.00537572 </v>
   <v>      -0.09243695      -0.04101576       0.00864967 </v>
   <v>      -0.05112353       0.01624213      -0.00911903 </v>
   <v>       0.05006053       0.04004316      -0.01512908 </v>
   <v>      -0.01944557      -0.06372638       0.11011285 </v>
  </varray>
  <energy>
   <i name="e_fr_energy">     -0.90627286 </i>
   <i name="e_wo_entrp">     -0.90627286 </i>
   <i name="e_0_energy">     -0.00000000 </i>
  </energy>
  <time name="totalsc">  213.11  214.31</time>
 </calculation>
 <calculation>
  <scstep>
   <time name="dav">   11.40   11.46</time>
   <time name="total">   21.35   21.46</time>
   <energy>
    <i name="alphaZ">     10.88508281 </i>
    <i name="ewald">   2479.76353300 </i>
    <i name="hartreedc">  -9590.37356610 </i>
    <i name="XCdc">     22.76973446 </i>
    <i name="pawpsdc">   7069.22549182 </i>
    <i name="pawaedc">  -6978.67798590 </i>
    <i name="eentropy">     -0.00000000 </i>
    <i name="bandstr">   -773.55521310 </i>
    <i name="atom">   7759.05671949 </i>
    <i name="e_fr_energy">     -0.90620352 </i>
    <i name="e_wo_entrp">     -0.90620352 </i>
    <i name="e_0_energy">     -0.90620352 </i>
   </energy>
  </scstep>
  <scstep>
   <time name="dav">   10.68   10.75</time>
   <time name="total">   20.66   20.82</time>
   <energy>
    <i name="e_fr_energy">     -0.90628121 </i>
    <i name="e_wo_entrp">     -0.90628121 </i>
    <i name="e_0_energy">     -0.90628121 </i>
   </energy>
  </scstep>
  <scstep>
   <time name="dav">   10.26   10.34</time>
   <time name="total">   20.25   20.37</time>
   <energy>
    <i name="e_fr_energy">     -0.90628256 </i>
    <i name="e_wo_entrp">     -0.90628256 </i>
    <i name="e_0_energy">     -0.90628256 </i>
   </energy>
  </scstep>
  <scstep>
   <time name="dav">    6.35    6.38</time>
   <time name="total">   16.33   16.42</time>
   <energy>
    <i name="e_fr_energy">     -0.90628235 </i>
    <i name="e_wo_entrp">     -0.90628235 </i>
    <i name="e_0_energy">     -0.90628235 </i>
   </energy>
  </scstep>
  <scstep>
   <time name="dav">    9.02    9.07</time>
   <time name="total">   19.02   19.11</time>
   <energy>
    <i name="e_fr_energy">     -0.90628528 </i>
    <i name="e_wo_entrp">     -0.90628528 </i>
    <i name="e_0_energy">     -0.90628528 </i>
   </energy>
  </scstep>
  <scstep>
   <time name="dav">    7.89    7.94</time>
   <time name="total">   15.05   15.12</time>
   <energy>
    <i name="alphaZ">     10.88508281 </i>
    <i name="ewald">   2479.76353300 </i>
    <i name="hartreedc">  -9590.40563175 </i>
    <i name="XCdc">     22.77022222 </i>
    <i name="pawpsdc">   7069.07860105 </i>
    <i name="pawaedc">  -6978.51386927 </i>
    <i name="eentropy">     -0.00000000 </i>
    <i name="bandstr">   -773.54094313 </i>
    <i name="atom">   7759.05671949 </i>
    <i name="e_fr_energy">     -0.90628559 </i>
    <i name="e_wo_entrp">     -0.90628559 </i>
    <i name="e_0_energy">     -0.90628559 </i>
   </energy>
  </scstep>
  <structure>
   <crystal>
    <varray name="basis" >
     <v>      17.00000000       0.00000000       0.00000000 </v>
     <v>       0.00000000      17.00000000       0.00000000 </v>
     <v>       0.00000000       0.00000000      17.00000000 </v>
    </varray>
    <i name="volume">   4913.00000000 </i>
    <varray name="rec_basis" >
     <v>       0.05882353       0.00000000       0.00000000 </v>
     <v>       0.00000000       0.05882353       0.00000000 </v>
     <v>       0.00000000       0.00000000       0.05882353 </v>
    </varray>
   </crystal>
   <varray name="positions" >
    <v>       0.98640779       0.04428073       0.10096439 </v>
    <v>       0.06513740       0.15001027       0.96432706 </v>
    <v>       0.83216170       0.02675946       0.98127038 </v>
    <v>       0.95391155       0.85783892       0.03471349 </v>
    <v>       0.14574731       0.97064839       0.01932604 </v>
    <v>       0.00038072       0.99110871       0.89076217 </v>
   </varray>
  </structure>
  <varray name="forces" >
   <v>      -0.00868016      -0.08213124      -0.09005268 </v>
   <v>       0.11953659       0.12656896      -0.00476042 </v>
   <v>      -0.08855593      -0.04038473       0.00844196 </v>
   <v>      -0.04928204       0.01870668      -0.00941868 </v>
   <v>       0.04600163       0.04049422      -0.01529129 </v>
   <v>      -0.01902008      -0.06325390       0.11108111 </v>
  </varray>
  <energy>
   <i name="e_fr_energy">     -0.90628559 </i>
   <i name="e_wo_entrp">     -0.90628559 </i>
   <i name="e_0_energy">     -0.00000000 </i>
  </energy>
  <time name="totalsc">  145.51  146.58</time>
 </calculation>
 <calculation>
  <scstep>
   <time name="dav">   11.39   11.44</time>
   <time name="total">   21.38   21.49</time>
   <energy>
    <i name="alphaZ">     10.88508281 </i>
    <i name="ewald">   2478.08669085 </i>
    <i name="hartreedc">  -9588.75371240 </i>
    <i name="XCdc">     22.76913728 </i>
    <i name="pawpsdc">   7069.07151457 </i>
    <i name="pawaedc">  -6978.50642040 </i>
    <i name="eentropy">     -0.00000000 </i>
    <i name="bandstr">   -773.51870911 </i>
    <i name="atom">   7759.05671949 </i>
    <i name="e_fr_energy">     -0.90969692 </i>
    <i name="e_wo_entrp">     -0.90969692 </i>
    <i name="e_0_energy">     -0.90969692 </i>
   </energy>
  </scstep>
  <scstep>
   <time name="dav">   11.69   11.75</time>
   <time name="total">   21.65   21.75</time>
   <energy>
    <i name="e_fr_energy">     -0.91038323 </i>
    <i name="e_wo_entrp">     -0.91038323 </i>
    <i name="e_0_energy">     -0.91038323 </i>
   </energy>
  </scstep>
  <scstep>
   <time name="dav">   11.24   11.30</time>
   <time name="total">   21.29   21.39</time>
   <energy>
    <i name="e_fr_energy">     -0.91038714 </i>
    <i name="e_wo_entrp">     -0.91038714 </i>
    <i name="e_0_energy">     -0.91038714 </i>
   </energy>
  </scstep>
  <scstep>
   <time name="dav">    6.29    6.31</time>
   <time name="total">   16.32   16.41</time>
   <energy>
    <i name="e_fr_energy">     -0.91038469 </i>
    <i name="e_wo_entrp">     -0.91038469 </i>
    <i name="e_0_energy">     -0.91038469 </i>
   </energy>
  </scstep>
  <scstep>
   <time name="dav">    9.97   10.04</time>
   <time name="total">   19.94   20.05</time>
   <energy>
    <i name="e_fr_energy">     -0.91038561 </i>
    <i name="e_wo_entrp">     -0.91038561 </i>
    <i name="e_0_energy">     -0.91038561 </i>
   </energy>
  </scstep>
  <scstep>
   <time name="dav">    8.88    8.92</time>
   <time name="total">   18.89   18.98</time>
   <energy>
    <i name="e_fr_energy">     -0.91038740 </i>
    <i name="e_wo_entrp">     -0.91038740 </i>
    <i name="e_0_energy">     -0.91038740 </i>
   </energy>
  </scstep>
  <scstep>
   <time name="dav">    6.34    6.38</time>
   <time name="total">   13.44   13.50</time>
   <energy>
    <i name="alphaZ">     10.88508281 </i>
    <i name="ewald">   2478.08669085 </i>
    <i name="hartreedc">  -9588.83028840 </i>
    <i name="XCdc">     22.76875139 </i>
    <i name="pawpsdc">   7068.78158450 </i>
    <i name="pawaedc">  -6978.20913618 </i>
    <i name="eentropy">     -0.00000000 </i>
    <i name="bandstr">   -773.44979252 </i>
    <i name="atom">   7759.05671949 </i>
    <i name="e_fr_energy">     -0.91038807 </i>
    <i name="e_wo_entrp">     -0.91038807 </i>
    <i name="e_0_energy">     -0.91038807 </i>
   </energy>
  </scstep>
  <structure>
   <crystal>
    <varray name="basis" >
     <v>      17.00000000       0.00000000       0.00000000 </v>
     <v>       0.00000000      17.00000000       0.00000000 </v>
     <v>       0.00000000       0.00000000      17.00000000 </v>
    </varray>
    <i name="volume">   4913.00000000 </i>
    <varray name="rec_basis" >
     <v>       0.05882353       0.00000000       0.00000000 </v>
     <v>       0.00000000       0.05882353       0.00000000 </v>
     <v>       0.00000000       0.00000000       0.05882353 </v>
    </varray>
   </crystal>
   <varray name="positions" >
    <v>       0.98638052       0.04402669       0.10068705 </v>
    <v>       0.06550975       0.15040850       0.96431119 </v>
    <v>       0.83188155       0.02663607       0.98129581 </v>
    <v>       0.95375866       0.85789180       0.03468559 </v>
    <v>       0.14589418       0.97077178       0.01927940 </v>
    <v>       0.00032181       0.99091163       0.89110449 </v>
   </varray>
  </structure>
  <varray name="forces" >
   <v>      -0.00771726      -0.07980080      -0.09553018 </v>
   <v>       0.11592028       0.11720945      -0.00425949 </v>
   <v>      -0.08574652      -0.04182806       0.00887779 </v>
   <v>      -0.04951025       0.01920016      -0.00995932 </v>
   <v>       0.04490408       0.04049597      -0.01524904 </v>
   <v>      -0.01785032      -0.05527672       0.11612024 </v>
  </varray>
  <energy>
   <i name="e_fr_energy">     -0.91038807 </i>
   <i name="e_wo_entrp">     -0.91038807 </i>
   <i name="e_0_energy">     -0.00000000 </i>
  </energy>
  <time name="totalsc">  165.96  167.06</time>
 </calculation>
 <calculation>
  <scstep>
   <time name="dav">   11.61   11.68</time>
   <time name="total">   21.59   21.73</time>
   <energy>
    <i name="alphaZ">     10.88508281 </i>
    <i name="ewald">   2473.14351194 </i>
    <i name="hartreedc">  -9583.96658449 </i>
    <i name="XCdc">     22.76616540 </i>
    <i name="pawpsdc">   7068.70883578 </i>
    <i name="pawaedc">  -6978.13438059 </i>
    <i name="eentropy">     -0.00000000 </i>
    <i name="bandstr">   -773.36800211 </i>
    <i name="atom">   7759.05671949 </i>
    <i name="e_fr_energy">     -0.90865177 </i>
    <i name="e_wo_entrp">     -0.90865177 </i>
    <i name="e_0_energy">     -0.90865177 </i>
   </energy>
  </scstep>
  <scstep>
   <time name="dav">   11.76   11.81</time>
   <time name="total">   21.72   21.81</time>
   <energy>
    <i name="e_fr_energy">     -0.92203858 </i>
    <i name="e_wo_entrp">     -0.92203858 </i>
    <i name="e_0_energy">     -0.92203858 </i>
   </energy>
  </scstep>
  <scstep>
   <time name="dav">   11.77   11.83</time>
   <time name="total">   21.80   21.92</time>
   <energy>
    <i name="e_fr_energy">     -0.92224355 </i>
    <i name="e_wo_entrp">     -0.92224355 </i>
    <i name="e_0_energy">     -0.92224355 </i>
   </energy>
  </scstep>
  <scstep>
   <time name="dav">   11.72   11.82</time>
   <time name="total">   21.73   21.86</time>
   <energy>
    <i name="e_fr_energy">     -0.92223894 </i>
    <i name="e_wo_entrp">     -0.92223894 </i>
    <i name="e_0_energy">     -0.92223894 </i>
   </energy>
  </scstep>
  <scstep>
   <time name="dav">    9.59    9.64</time>
   <time name="total">   19.62   19.70</time>
   <energy>
    <i name="e_fr_energy">     -0.92227090 </i>
    <i name="e_wo_entrp">     -0.92227090 </i>
    <i name="e_0_energy">     -0.92227090 </i>
   </energy>
  </scstep>
  <scstep>
   <time name="dav">   10.76   10.81</time>
   <time name="total">   20.74   20.86</time>
   <energy>
    <i name="e_fr_energy">     -0.92229504 </i>
    <i name="e_wo_entrp">     -0.92229504 </i>
    <i name="e_0_energy">     -0.92229504 </i>
   </energy>
  </scstep>
  <scstep>
   <time name="dav">   12.10   12.16</time>
   <time name="total">   22.15   22.25</time>
   <energy>
    <i name="e_fr_energy">     -0.92230336 </i>
    <i name="e_wo_entrp">     -0.92230336 </i>
    <i name="e_0_energy">     -0.92230336 </i>
   </energy>
  </scstep>
  <scstep>
   <time name="dav">    7.18    7.22</time>
   <time name="total">   17.19   17.27</time>
   <energy>
    <i name="e_fr_energy">     -0.92230150 </i>
    <i name="e_wo_entrp">     -0.92230150 </i>
    <i name="e_0_energy">     -0.92230150 </i>
   </energy>
  </scstep>
  <scstep>
   <time name="dav">   10.98   11.03</time>
   <time name="total">   21.07   21.40</time>
   <energy>
    <i name="e_fr_energy">     -0.92228967 </i>
    <i name="e_wo_entrp">     -0.92228967 </i>
    <i name="e_0_energy">     -0.92228967 </i>
   </energy>
  </scstep>
  <scstep>
   <time name="dav">    9.30    9.34</time>
   <time name="total">   19.39   19.47</time>
   <energy>
    <i name="e_fr_energy">     -0.92229083 </i>
    <i name="e_wo_entrp">     -0.92229083 </i>
    <i name="e_0_energy">     -0.92229083 </i>
   </energy>
  </scstep>
  <scstep>
   <time name="dav">    6.61    6.65</time>
   <time name="total">   13.73   13.79</time>
   <energy>
    <i name="alphaZ">     10.88508281 </i>
    <i name="ewald">   2473.14351194 </i>
    <i name="hartreedc">  -9583.92178282 </i>
    <i name="XCdc">     22.76437408 </i>
    <i name="pawpsdc">   7067.96823752 </i>
    <i name="pawaedc">  -6977.37704036 </i>
    <i name="eentropy">     -0.00000000 </i>
    <i name="bandstr">   -773.44139350 </i>
    <i name="atom">   7759.05671949 </i>
    <i name="e_fr_energy">     -0.92229083 </i>
    <i name="e_wo_entrp">     -0.92229083 </i>
    <i name="e_0_energy">     -0.92229083 </i>
   </energy>
  </scstep>
  <structure>
   <crystal>
    <varray name="basis" >
     <v>      17.00000000       0.00000000       0.00000000 </v>
     <v>       0.00000000      17.00000000       0.00000000 </v>
     <v>       0.00000000       0.00000000      17.00000000 </v>
    </varray>
    <i name="volume">   4913.00000000 </i>
    <varray name="rec_basis" >
     <v>       0.05882353       0.00000000       0.00000000 </v>
     <v>       0.00000000       0.05882353       0.00000000 </v>
     <v>       0.00000000       0.00000000       0.05882353 </v>
    </varray>
   </crystal>
   <varray name="positions" >
    <v>       0.98629870       0.04326457       0.09985502 </v>
    <v>       0.06662680       0.15160321       0.96426357 </v>
    <v>       0.83104110       0.02626589       0.98137210 </v>
    <v>       0.95329998       0.85805045       0.03460190 </v>
    <v>       0.14633480       0.97114194       0.01913949 </v>
    <v>       0.00014508       0.99032040       0.89213145 </v>
   </varray>
  </structure>
  <varray name="forces" >
   <v>      -0.00531846      -0.07191948      -0.10705653 </v>
   <v>       0.10782870       0.09596255      -0.00410278 </v>
   <v>      -0.08155427      -0.04461350       0.00935616 </v>
   <v>      -0.05122040       0.01681315      -0.00898037 </v>
   <v>       0.04660021       0.04010272      -0.01456438 </v>
   <v>      -0.01633579      -0.03634543       0.12534789 </v>
  </varray>
  <energy>
   <i name="e_fr_energy">     -0.92229083 </i>
   <i name="e_wo_entrp">     -0.92229083 </i>
   <i name="e_0_energy">     -0.00000000 </i>
  </energy>
  <time name="totalsc">  254.13  307.20</time>
 </calculation>
 <calculation>
  <scstep>
   <time name="dav">   11.81   11.87</time>
   <time name="total">   21.80   21.92</time>
   <energy>
    <i name="alphaZ">     10.88508281 </i>
    <i name="ewald">   2463.66979121 </i>
    <i name="hartreedc">  -9574.56502892 </i>
    <i name="XCdc">     22.76301353 </i>
    <i name="pawpsdc">   7067.97110335 </i>
    <i name="pawaedc">  -6977.37995307 </i>
    <i name="eentropy">     -0.00000000 </i>
    <i name="bandstr">   -773.26940843 </i>
    <i name="atom">   7759.05671949 </i>
    <i name="e_fr_energy">     -0.86868004 </i>
    <i name="e_wo_entrp">     -0.86868004 </i>
    <i name="e_0_energy">     -0.86868004 </i>
   </energy>
  </scstep>
  <scstep>
   <time name="dav">   11.36   11.42</time>
   <time name="total">   21.40   21.50</time>
   <energy>
    <i name="e_fr_energy">     -0.94281324 </i>
    <i name="e_wo_entrp">     -0.94281324 </i>
    <i name="e_0_energy">     -0.94281324 </i>
   </energy>
  </scstep>
  <scstep>
   <time name="dav">   11.32   11.38</time>
   <time name="total">   21.29   24.47</time>
   <energy>
    <i name="e_fr_energy">     -0.94406991 </i>
    <i name="e_wo_entrp">     -0.94406991 </i>
    <i name="e_0_energy">     -0.94406991 </i>
   </energy>
  </scstep>
  <scstep>
   <time name="dav">   11.48   11.51</time>
   <time name="total">   21.54   21.58</time>
   <energy>
    <i name="e_fr_energy">     -0.94407176 </i>
    <i name="e_wo_entrp">     -0.94407176 </i>
    <i name="e_0_energy">     -0.94407176 </i>
   </energy>
  </scstep>
  <scstep>
   <time name="dav">   10.40   10.43</time>
   <time name="total">   20.44   20.49</time>
   <energy>
    <i name="e_fr_energy">     -0.94408579 </i>
    <i name="e_wo_entrp">     -0.94408579 </i>
    <i name="e_0_energy">     -0.94408579 </i>
   </energy>
  </scstep>
  <scstep>
   <time name="dav">   10.74   10.76</time>
   <time name="total">   20.77   20.84</time>
   <energy>
    <i name="e_fr_energy">     -0.94415341 </i>
    <i name="e_wo_entrp">     -0.94415341 </i>
    <i name="e_0_energy">     -0.94415341 </i>
   </energy>
  </scstep>
  <scstep>
   <time name="dav">    8.92    8.94</time>
   <time name="total">   19.00   19.04</time>
   <energy>
    <i name="e_fr_energy">     -0.94415558 </i>
    <i name="e_wo_entrp">     -0.94415558 </i>
    <i name="e_0_energy">     -0.94415558 </i>
   </energy>
  </scstep>
  <scstep>
   <time name="dav">   10.40   10.43</time>
   <time name="total">   20.51   20.56</time>
   <energy>
    <i name="e_fr_energy">     -0.94419216 </i>
    <i name="e_wo_entrp">     -0.94419216 </i>
    <i name="e_0_energy">     -0.94419216 </i>
   </energy>
  </scstep>
  <scstep>
   <time name="dav">    9.83    9.92</time>
   <time name="total">   19.93   46.73</time>
   <energy>
    <i name="e_fr_energy">     -0.94419296 </i>
    <i name="e_wo_entrp">     -0.94419296 </i>
    <i name="e_0_energy">     -0.94419296 </i>
   </energy>
  </scstep>
  <scstep>
   <time name="dav">    9.42    9.44</time>
   <time name="total">   19.52   19.56</time>
   <energy>
    <i name="e_fr_energy">     -0.94419591 </i>
    <i name="e_wo_entrp">     -0.94419591 </i>
    <i name="e_0_energy">     -0.94419591 </i>
   </energy>
  </scstep>
  <scstep>
   <time name="dav">    6.83    6.85</time>
   <time name="total">   13.93  118.51</time>
   <energy>
    <i name="alphaZ">     10.88508281 </i>
    <i name="ewald">   2463.66979121 </i>
    <i name="hartreedc">  -9574.52048019 </i>
    <i name="XCdc">     22.75587601 </i>
    <i name="pawpsdc">   7066.85672945 </i>
    <i name="pawaedc">  -6976.23728776 </i>
    <i name="eentropy">     -0.00000000 </i>
    <i name="bandstr">   -773.41062768 </i>
    <i name="atom">   7759.05671949 </i>
    <i name="e_fr_energy">     -0.94419666 </i>
    <i name="e_wo_entrp">     -0.94419666 </i>
    <i name="e_0_energy">     -0.94419666 </i>
   </energy>
  </scstep>
  <structure>
   <crystal>
    <varray name="basis" >
     <v>      17.00000000       0.00000000       0.00000000 </v>
     <v>       0.00000000      17.00000000       0.00000000 </v>
     <v>       0.00000000       0.00000000      17.00000000 </v>
    </varray>
    <i name="volume">   4913.00000000 </i>
    <varray name="rec_basis" >
     <v>       0.05882353       0.00000000       0.00000000 </v>
     <v>       0.00000000       0.05882353       0.00000000 </v>
     <v>       0.00000000       0.00000000       0.05882353 </v>
    </varray>
   </crystal>
   <varray name="positions" >
    <v>       0.98613507       0.04174033       0.09819096 </v>
    <v>       0.06886091       0.15399261       0.96416833 </v>
    <v>       0.82936021       0.02552555       0.98152469 </v>
    <v>       0.95238262       0.85836776       0.03443453 </v>
    <v>       0.14721604       0.97188227       0.01885966 </v>
    <v>      -0.00020839       0.98913795       0.89418536 </v>
   </varray>
  </structure>
  <varray name="forces" >
   <v>      -0.00126508      -0.05520654      -0.12947923 </v>
   <v>       0.08921033       0.05339915      -0.00155423 </v>
   <v>      -0.07202673      -0.05085283       0.01107348 </v>
   <v>      -0.05279168       0.01293811      -0.00833328 </v>
   <v>       0.04823218       0.03793670      -0.01263620 </v>
   <v>      -0.01135903       0.00178542       0.14092946 </v>
  </varray>
  <energy>
   <i name="e_fr_energy">     -0.94419666 </i>
   <i name="e_wo_entrp">     -0.94419666 </i>
   <i name="e_0_energy">     -0.00000000 </i>
  </energy>
  <time name="totalsc">  253.50  389.00</time>
 </calculation>
 <calculation>
  <scstep>
   <time name="dav">   11.40   11.43</time>
   <time name="total">   21.43   21.55</time>
   <energy>
    <i name="alphaZ">     10.88508281 </i>
    <i name="ewald">   2446.53337090 </i>
    <i name="hartreedc">  -9557.54487488 </i>
    <i name="XCdc">     22.76765270 </i>
    <i name="pawpsdc">   7066.86435177 </i>
    <i name="pawaedc">  -6976.24612732 </i>
    <i name="eentropy">     -0.00000000 </i>
    <i name="bandstr">   -772.87496304 </i>
    <i name="atom">   7759.05671949 </i>
    <i name="e_fr_energy">     -0.55878756 </i>
    <i name="e_wo_entrp">     -0.55878756 </i>
    <i name="e_0_energy">     -0.55878756 </i>
   </energy>
  </scstep>
  <scstep>
   <time name="dav">   10.86   10.92</time>
   <time name="total">   20.90   20.99</time>
   <energy>
    <i name="e_fr_energy">     -0.96985722 </i>
    <i name="e_wo_entrp">     -0.96985722 </i>
    <i name="e_0_energy">     -0.96985722 </i>
   </energy>
  </scstep>
  <scstep>
   <time name="dav">   11.25   11.28</time>
   <time name="total">   21.31   21.59</time>
   <energy>
    <i name="e_fr_energy">     -0.97923097 </i>
    <i name="e_wo_entrp">     -0.97923097 </i>
    <i name="e_0_energy">     -0.97923097 </i>
   </energy>
  </scstep>
  <scstep>
   <time name="dav">   11.64   11.67</time>
   <time name="total">   21.59   21.71</time>
   <energy>
    <i name="e_fr_energy">     -0.97940521 </i>
    <i name="e_wo_entrp">     -0.97940521 </i>
    <i name="e_0_energy">     -0.97940521 </i>
   </energy>
  </scstep>
  <scstep>
   <time name="dav">   10.08   10.14</time>
   <time name="total">   20.11   20.20</time>
   <energy>
    <i name="e_fr_energy">     -0.97941717 </i>
    <i name="e_wo_entrp">     -0.97941717 </i>
    <i name="e_0_energy">     -0.97941717 </i>
   </energy>
  </scstep>
  <scstep>
   <time name="dav">   11.00   11.05</time>
   <time name="total">   21.02   21.14</time>
   <energy>
    <i name="e_fr_energy">     -0.97965161 </i>
    <i name="e_wo_entrp">     -0.97965161 </i>
    <i name="e_0_energy">     -0.97965161 </i>
   </energy>
  </scstep>
  <scstep>
   <time name="dav">    9.13    9.17</time>
   <time name="total">   19.15   19.26</time>
   <energy>
    <i name="e_fr_energy">     -0.97967918 </i>
    <i name="e_wo_entrp">     -0.97967918 </i>
    <i name="e_0_energy">     -0.97967918 </i>
   </energy>
  </scstep>
  <scstep>
   <time name="dav">   10.72   10.82</time>
   <time name="total">   20.81   20.95</time>
   <energy>
    <i name="e_fr_energy">     -0.97978377 </i>
    <i name="e_wo_entrp">     -0.97978377 </i>
    <i name="e_0_energy">     -0.97978377 </i>
   </energy>
  </scstep>
  <scstep>
   <time name="dav">   11.29   11.32</time>
   <time name="total">   21.39   21.47</time>
   <energy>
    <i name="e_fr_energy">     -0.97980750 </i>
    <i name="e_wo_entrp">     -0.97980750 </i>
    <i name="e_0_energy">     -0.97980750 </i>
   </energy>
  </scstep>
  <scstep>
   <time name="dav">   10.75   10.78</time>
   <time name="total">   20.84   20.92</time>
   <energy>
    <i name="e_fr_energy">     -0.97980275 </i>
    <i name="e_wo_entrp">     -0.97980275 </i>
    <i name="e_0_energy">     -0.97980275 </i>
   </energy>
  </scstep>
  <scstep>
   <time name="dav">   10.18   10.25</time>
   <time name="total">   20.31   20.39</time>
   <energy>
    <i name="e_fr_energy">     -0.97979680 </i>
    <i name="e_wo_entrp">     -0.97979680 </i>
    <i name="e_0_energy">     -0.97979680 </i>
   </energy>
  </scstep>
  <scstep>
   <time name="dav">    9.26    9.28</time>
   <time name="total">   16.46   17.13</time>
   <energy>
    <i name="alphaZ">     10.88508281 </i>
    <i name="ewald">   2446.53337090 </i>
    <i name="hartreedc">  -9557.44275098 </i>
    <i name="XCdc">     22.75313517 </i>
    <i name="pawpsdc">   7065.97595976 </i>
    <i name="pawaedc">  -6975.34631872 </i>
    <i name="eentropy">     -0.00000000 </i>
    <i name="bandstr">   -773.39499592 </i>
    <i name="atom">   7759.05671949 </i>
    <i name="e_fr_energy">     -0.97979749 </i>
    <i name="e_wo_entrp">     -0.97979749 </i>
    <i name="e_0_energy">     -0.97979749 </i>
   </energy>
  </scstep>
  <structure>
   <crystal>
    <varray name="basis" >
     <v>      17.00000000       0.00000000       0.00000000 </v>
     <v>       0.00000000      17.00000000       0.00000000 </v>
     <v>       0.00000000       0.00000000      17.00000000 </v>
    </varray>
    <i name="volume">   4913.00000000 </i>
    <varray name="rec_basis" >
     <v>       0.05882353       0.00000000       0.00000000 </v>
     <v>       0.00000000       0.05882353       0.00000000 </v>
     <v>       0.00000000       0.00000000       0.05882353 </v>
    </varray>
   </crystal>
   <varray name="positions" >
    <v>       0.98580780       0.03869186       0.09486283 </v>
    <v>       0.07332914       0.15877142       0.96397785 </v>
    <v>       0.82599843       0.02404486       0.98182987 </v>
    <v>       0.95054790       0.85900237       0.03409979 </v>
    <v>       0.14897853       0.97336293       0.01830000 </v>
    <v>      -0.00091533       0.98677303       0.89829319 </v>
   </varray>
  </structure>
  <varray name="forces" >
   <v>       0.00469614      -0.01987460      -0.15599786 </v>
   <v>       0.05858636      -0.01230727       0.00621846 </v>
   <v>      -0.04913421      -0.05897976       0.01336095 </v>
   <v>      -0.05868701      -0.00714484      -0.00081037 </v>
   <v>       0.05098623       0.03617850      -0.00920344 </v>
   <v>      -0.00644751       0.06212797       0.14643226 </v>
  </varray>
  <energy>
   <i name="e_fr_energy">     -0.97979749 </i>
   <i name="e_wo_entrp">     -0.97979749 </i>
   <i name="e_0_energy">     -0.00000000 </i>
  </energy>
  <time name="totalsc">  278.67  294.74</time>
 </calculation>
 <calculation>
  <scstep>
   <time name="dav">   11.27   11.33</time>
   <time name="total">   21.41   21.51</time>
   <energy>
    <i name="alphaZ">     10.88508281 </i>
    <i name="ewald">   2420.73570025 </i>
    <i name="hartreedc">  -9531.61434562 </i>
    <i name="XCdc">     22.83887729 </i>
    <i name="pawpsdc">   7065.96417282 </i>
    <i name="pawaedc">  -6975.33364376 </i>
    <i name="eentropy">     -0.00000000 </i>
    <i name="bandstr">   -770.73542481 </i>
    <i name="atom">   7759.05671949 </i>
    <i name="e_fr_energy">      1.79713847 </i>
    <i name="e_wo_entrp">      1.79713847 </i>
    <i name="e_0_energy">      1.79713847 </i>
   </energy>
  </scstep>
  <scstep>
   <time name="dav">   10.47   10.49</time>
   <time name="total">   20.54   20.59</time>
   <energy>
    <i name="e_fr_energy">     -0.94543260 </i>
    <i name="e_wo_entrp">     -0.94543260 </i>
    <i name="e_0_energy">     -0.94543260 </i>
   </energy>
  </scstep>
  <scstep>
   <time name="dav">   11.46   11.51</time>
   <time name="total">   21.52   21.60</time>
   <energy>
    <i name="e_fr_energy">     -1.00811629 </i>
    <i name="e_wo_entrp">     -1.00811629 </i>
    <i name="e_0_energy">     -1.00811629 </i>
   </energy>
  </scstep>
  <scstep>
   <time name="dav">   11.51   11.54</time>
   <time name="total">   21.54   47.81</time>
   <energy>
    <i name="e_fr_energy">     -1.00968945 </i>
    <i name="e_wo_entrp">     -1.00968945 </i>
    <i name="e_0_energy">     -1.00968945 </i>
   </energy>
  </scstep>
  <scstep>
   <time name="dav">   11.65   11.68</time>
   <time name="total">   21.63   21.73</time>
   <energy>
    <i name="e_fr_energy">     -1.00941213 </i>
    <i name="e_wo_entrp">     -1.00941213 </i>
    <i name="e_0_energy">     -1.00941213 </i>
   </energy>
  </scstep>
  <scstep>
   <time name="dav">   11.52   11.59</time>
   <time name="total">   21.54   22.27</time>
   <energy>
    <i name="e_fr_energy">     -1.00984313 </i>
    <i name="e_wo_entrp">     -1.00984313 </i>
    <i name="e_0_energy">     -1.00984313 </i>
   </energy>
  </scstep>
  <scstep>
   <time name="dav">    9.15    9.18</time>
   <time name="total">   19.14   19.26</time>
   <energy>
    <i name="e_fr_energy">     -1.01000258 </i>
    <i name="e_wo_entrp">     -1.01000258 </i>
    <i name="e_0_energy">     -1.01000258 </i>
   </energy>
  </scstep>
  <scstep>
   <time name="dav">   11.49   11.52</time>
   <time name="total">   21.56   21.61</time>
   <energy>
    <i name="e_fr_energy">     -1.01015969 </i>
    <i name="e_wo_entrp">     -1.01015969 </i>
    <i name="e_0_energy">     -1.01015969 </i>
   </energy>
  </scstep>
  <scstep>
   <time name="dav">   11.38   11.40</time>
   <time name="total">   21.46   62.45</time>
   <energy>
    <i name="e_fr_energy">     -1.01031082 </i>
    <i name="e_wo_entrp">     -1.01031082 </i>
    <i name="e_0_energy">     -1.01031082 </i>
   </energy>
  </scstep>
  <scstep>
   <time name="dav">    9.18    9.21</time>
   <time name="total">   19.22   32.81</time>
   <energy>
    <i name="e_fr_energy">     -1.01024113 </i>
    <i name="e_wo_entrp">     -1.01024113 </i>
    <i name="e_0_energy">     -1.01024113 </i>
   </energy>
  </scstep>
  <scstep>
   <time name="dav">    9.71    9.76</time>
   <time name="total">   19.75   19.90</time>
   <energy>
    <i name="e_fr_energy">     -1.01021277 </i>
    <i name="e_wo_entrp">     -1.01021277 </i>
    <i name="e_0_energy">     -1.01021277 </i>
   </energy>
  </scstep>
  <scstep>
   <time name="dav">   11.36   11.45</time>
   <time name="total">   21.55   21.70</time>
   <energy>
    <i name="e_fr_energy">     -1.01021508 </i>
    <i name="e_wo_entrp">     -1.01021508 </i>
    <i name="e_0_energy">     -1.01021508 </i>
   </energy>
  </scstep>
  <scstep>
   <time name="dav">    6.96    7.02</time>
   <time name="total">   14.17  366.50</time>
   <energy>
    <i name="alphaZ">     10.88508281 </i>
    <i name="ewald">   2420.73570025 </i>
    <i name="hartreedc">  -9530.61044234 </i>
    <i name="XCdc">     22.78168943 </i>
    <i name="pawpsdc">   7068.72600370 </i>
    <i name="pawaedc">  -6978.21818971 </i>
    <i name="eentropy">     -0.00000000 </i>
    <i name="bandstr">   -774.36677874 </i>
    <i name="atom">   7759.05671949 </i>
    <i name="e_fr_energy">     -1.01021510 </i>
    <i name="e_wo_entrp">     -1.01021510 </i>
    <i name="e_0_energy">     -1.01021510 </i>
   </energy>
  </scstep>
  <structure>
   <crystal>
    <varray name="basis" >
     <v>      17.00000000       0.00000000       0.00000000 </v>
     <v>       0.00000000      17.00000000       0.00000000 </v>
     <v>       0.00000000       0.00000000      17.00000000 </v>
    </varray>
    <i name="volume">   4913.00000000 </i>
    <varray name="rec_basis" >
     <v>       0.05882353       0.00000000       0.00000000 </v>
     <v>       0.00000000       0.05882353       0.00000000 </v>
     <v>       0.00000000       0.00000000       0.05882353 </v>
    </varray>
   </crystal>
   <varray name="positions" >
    <v>       0.98515326       0.03259492       0.08820659 </v>
    <v>       0.08226558       0.16832904       0.96359690 </v>
    <v>       0.81927487       0.02108348       0.98244021 </v>
    <v>       0.94687846       0.86027160       0.03343030 </v>
    <v>       0.15250349       0.97632424       0.01718068 </v>
    <v>      -0.00232919       0.98204320       0.90650885 </v>
   </varray>
  </structure>
  <varray name="forces" >
   <v>       0.01023067       0.08168925      -0.11787893 </v>
   <v>       0.01158472      -0.09604823       0.02369803 </v>
   <v>       0.00830488      -0.07312105       0.01855410 </v>
   <v>      -0.08680988      -0.09486006       0.03391426 </v>
   <v>       0.05222134       0.03009644      -0.00393584 </v>
   <v>       0.00446827       0.15224366       0.04564837 </v>
  </varray>
  <energy>
   <i name="e_fr_energy">     -1.01021510 </i>
   <i name="e_wo_entrp">     -1.01021510 </i>
   <i name="e_0_energy">     -0.00000000 </i>
  </energy>
  <time name="totalsc">  298.37  760.10</time>
 </calculation>
 <calculation>
  <scstep>
   <time name="dav">   11.12   11.16</time>
   <time name="total">   21.23   21.32</time>
   <energy>
    <i name="alphaZ">     10.88508281 </i>
    <i name="ewald">   2428.33850499 </i>
    <i name="hartreedc">  -9538.20865192 </i>
    <i name="XCdc">     22.82431030 </i>
    <i name="pawpsdc">   7068.85587214 </i>
    <i name="pawaedc">  -6978.35176151 </i>
    <i name="eentropy">     -0.00000000 </i>
    <i name="bandstr">   -774.32047460 </i>
    <i name="atom">   7759.05671949 </i>
    <i name="e_fr_energy">     -0.92039829 </i>
    <i name="e_wo_entrp">     -0.92039829 </i>
    <i name="e_0_energy">     -0.92039829 </i>
   </energy>
  </scstep>
  <scstep>
   <time name="dav">   10.86   10.91</time>
   <time name="total">   20.86   20.98</time>
   <energy>
    <i name="e_fr_energy">     -1.02457522 </i>
    <i name="e_wo_entrp">     -1.02457522 </i>
    <i name="e_0_energy">     -1.02457522 </i>
   </energy>
  </scstep>
  <scstep>
   <time name="dav">   11.36   11.47</time>
   <time name="total">   21.34   21.48</time>
   <energy>
    <i name="e_fr_energy">     -1.02631667 </i>
    <i name="e_wo_entrp">     -1.02631667 </i>
    <i name="e_0_energy">     -1.02631667 </i>
   </energy>
  </scstep>
  <scstep>
   <time name="dav">   11.33   11.41</time>
   <time name="total">   21.42  126.81</time>
   <energy>
    <i name="e_fr_energy">     -1.02631507 </i>
    <i name="e_wo_entrp">     -1.02631507 </i>
    <i name="e_0_energy">     -1.02631507 </i>
   </energy>
  </scstep>
  <scstep>
   <time name="dav">   10.78   10.81</time>
   <time name="total">   20.89   20.96</time>
   <energy>
    <i name="e_fr_energy">     -1.02629834 </i>
    <i name="e_wo_entrp">     -1.02629834 </i>
    <i name="e_0_energy">     -1.02629834 </i>
   </energy>
  </scstep>
  <scstep>
   <time name="dav">   10.58   10.60</time>
   <time name="total">   20.62   20.70</time>
   <energy>
    <i name="e_fr_energy">     -1.02640034 </i>
    <i name="e_wo_entrp">     -1.02640034 </i>
    <i name="e_0_energy">     -1.02640034 </i>
   </energy>
  </scstep>
  <scstep>
   <time name="dav">   10.55   10.61</time>
   <time name="total">   20.66   22.20</time>
   <energy>
    <i name="e_fr_energy">     -1.02639118 </i>
    <i name="e_wo_entrp">     -1.02639118 </i>
    <i name="e_0_energy">     -1.02639118 </i>
   </energy>
  </scstep>
  <scstep>
   <time name="dav">    9.52    9.54</time>
   <time name="total">   19.62   32.92</time>
   <energy>
    <i name="e_fr_energy">     -1.02642601 </i>
    <i name="e_wo_entrp">     -1.02642601 </i>
    <i name="e_0_energy">     -1.02642601 </i>
   </energy>
  </scstep>
  <scstep>
   <time name="dav">   11.02   11.08</time>
   <time name="total">   21.17   21.25</time>
   <energy>
    <i name="e_fr_energy">     -1.02641461 </i>
    <i name="e_wo_entrp">     -1.02641461 </i>
    <i name="e_0_energy">     -1.02641461 </i>
   </energy>
  </scstep>
  <scstep>
   <time name="dav">    8.96    8.98</time>
   <time name="total">   19.11   19.17</time>
   <energy>
    <i name="e_fr_energy">     -1.02641039 </i>
    <i name="e_wo_entrp">     -1.02641039 </i>
    <i name="e_0_energy">     -1.02641039 </i>
   </energy>
  </scstep>
  <scstep>
   <time name="dav">   11.55   11.61</time>
   <time name="total">   21.72   21.82</time>
   <energy>
    <i name="e_fr_energy">     -1.02640737 </i>
    <i name="e_wo_entrp">     -1.02640737 </i>
    <i name="e_0_energy">     -1.02640737 </i>
   </energy>
  </scstep>
  <scstep>
   <time name="dav">    7.23   46.46</time>
   <time name="total">   14.43   53.68</time>
   <energy>
    <i name="alphaZ">     10.88508281 </i>
    <i name="ewald">   2428.33850499 </i>
    <i name="hartreedc">  -9537.81942412 </i>
    <i name="XCdc">     22.80471770 </i>
    <i name="pawpsdc">   7069.90163624 </i>
    <i name="pawaedc">  -6979.44852027 </i>
    <i name="eentropy">     -0.00000000 </i>
    <i name="bandstr">   -774.74512431 </i>
    <i name="atom">   7759.05671949 </i>
    <i name="e_fr_energy">     -1.02640746 </i>
    <i name="e_wo_entrp">     -1.02640746 </i>
    <i name="e_0_energy">     -1.02640746 </i>
   </energy>
  </scstep>
  <structure>
   <crystal>
    <varray name="basis" >
     <v>      17.00000000       0.00000000       0.00000000 </v>
     <v>       0.00000000      17.00000000       0.00000000 </v>
     <v>       0.00000000       0.00000000      17.00000000 </v>
    </varray>
    <i name="volume">   4913.00000000 </i>
    <varray name="rec_basis" >
     <v>       0.05882353       0.00000000       0.00000000 </v>
     <v>       0.00000000       0.05882353       0.00000000 </v>
     <v>       0.00000000       0.00000000       0.05882353 </v>
    </varray>
   </crystal>
   <varray name="positions" >
    <v>       0.98516138       0.03247561       0.08511102 </v>
    <v>       0.08432106       0.16897445       0.96385572 </v>
    <v>       0.81797213       0.01941014       0.98283498 </v>
    <v>       0.94485938       0.85918149       0.03377442 </v>
    <v>       0.15399669       0.97738140       0.01688764 </v>
    <v>      -0.00256416       0.98322337       0.90889975 </v>
   </varray>
  </structure>
  <varray name="forces" >
   <v>       0.00793224       0.09101255      -0.06069406 </v>
   <v>       0.00610807      -0.10573605       0.02502431 </v>
   <v>       0.01645778      -0.07385840       0.01864925 </v>
   <v>      -0.08319294      -0.07299546       0.02493098 </v>
   <v>       0.04629990       0.03340114      -0.00406289 </v>
   <v>       0.00639496       0.12817622      -0.00384760 </v>
  </varray>
  <energy>
   <i name="e_fr_energy">     -1.02640746 </i>
   <i name="e_wo_entrp">     -1.02640746 </i>
   <i name="e_0_energy">     -0.00000000 </i>
  </energy>
  <time name="totalsc">  276.30  440.33</time>
 </calculation>
 <calculation>
  <scstep>
   <time name="dav">   11.12   11.18</time>
   <time name="total">   21.23   21.34</time>
   <energy>
    <i name="alphaZ">     10.88508281 </i>
    <i name="ewald">   2437.68348001 </i>
    <i name="hartreedc">  -9546.98892477 </i>
    <i name="XCdc">     22.86052264 </i>
    <i name="pawpsdc">   7069.90348448 </i>
    <i name="pawaedc">  -6979.45046506 </i>
    <i name="eentropy">     -0.00000000 </i>
    <i name="bandstr">   -774.82008359 </i>
    <i name="atom">   7759.05671949 </i>
    <i name="e_fr_energy">     -0.87018400 </i>
    <i name="e_wo_entrp">     -0.87018400 </i>
    <i name="e_0_energy">     -0.87018400 </i>
   </energy>
  </scstep>
  <scstep>
   <time name="dav">   10.85   10.96</time>
   <time name="total">   20.91   21.07</time>
   <energy>
    <i name="e_fr_energy">     -1.03127917 </i>
    <i name="e_wo_entrp">     -1.03127917 </i>
    <i name="e_0_energy">     -1.03127917 </i>
   </energy>
  </scstep>
  <scstep>
   <time name="dav">   11.46   11.52</time>
   <time name="total">   21.52   21.61</time>
   <energy>
    <i name="e_fr_energy">     -1.03399158 </i>
    <i name="e_wo_entrp">     -1.03399158 </i>
    <i name="e_0_energy">     -1.03399158 </i>
   </energy>
  </scstep>
  <scstep>
   <time name="dav">   11.49   12.29</time>
   <time name="total">   21.58   22.41</time>
   <energy>
    <i name="e_fr_energy">     -1.03398902 </i>
    <i name="e_wo_entrp">     -1.03398902 </i>
    <i name="e_0_energy">     -1.03398902 </i>
   </energy>
  </scstep>
  <scstep>
   <time name="dav">   10.80   10.86</time>
   <time name="total">   20.91   21.03</time>
   <energy>
    <i name="e_fr_energy">     -1.03391838 </i>
    <i name="e_wo_entrp">     -1.03391838 </i>
    <i name="e_0_energy">     -1.03391838 </i>
   </energy>
  </scstep>
  <scstep>
   <time name="dav">   10.74   10.83</time>
   <time name="total">   20.83   20.97</time>
   <energy>
    <i name="e_fr_energy">     -1.03408094 </i>
    <i name="e_wo_entrp">     -1.03408094 </i>
    <i name="e_0_energy">     -1.03408094 </i>
   </energy>
  </scstep>
  <scstep>
   <time name="dav">   10.44   10.49</time>
   <time name="total">   20.47   27.10</time>
   <energy>
    <i name="e_fr_energy">     -1.03408942 </i>
    <i name="e_wo_entrp">     -1.03408942 </i>
    <i name="e_0_energy">     -1.03408942 </i>
   </energy>
  </scstep>
  <scstep>
   <time name="dav">   10.93   10.99</time>
   <time name="total">   21.11   23.84</time>
   <energy>
    <i name="e_fr_energy">     -1.03403953 </i>
    <i name="e_wo_entrp">     -1.03403953 </i>
    <i name="e_0_energy">     -1.03403953 </i>
   </energy>
  </scstep>
  <scstep>
   <time name="dav">    9.87    9.92</time>
   <time name="total">   19.95   20.12</time>
   <energy>
    <i name="e_fr_energy">     -1.03407042 </i>
    <i name="e_wo_entrp">     -1.03407042 </i>
    <i name="e_0_energy">     -1.03407042 </i>
   </energy>
  </scstep>
  <scstep>
   <time name="dav">    9.37    9.47</time>
   <time name="total">   19.58   19.94</time>
   <energy>
    <i name="e_fr_energy">     -1.03406065 </i>
    <i name="e_wo_entrp">     -1.03406065 </i>
    <i name="e_0_energy">     -1.03406065 </i>
   </energy>
  </scstep>
  <scstep>
   <time name="dav">   10.98   11.04</time>
   <time name="total">   21.16   21.27</time>
   <energy>
    <i name="e_fr_energy">     -1.03404581 </i>
    <i name="e_wo_entrp">     -1.03404581 </i>
    <i name="e_0_energy">     -1.03404581 </i>
   </energy>
  </scstep>
  <scstep>
   <time name="dav">    7.54    7.59</time>
   <time name="total">   17.71   17.86</time>
   <energy>
    <i name="e_fr_energy">     -1.03404710 </i>
    <i name="e_wo_entrp">     -1.03404710 </i>
    <i name="e_0_energy">     -1.03404710 </i>
   </energy>
  </scstep>
  <scstep>
   <time name="dav">    6.42    6.45</time>
   <time name="total">   13.56   13.63</time>
   <energy>
    <i name="alphaZ">     10.88508281 </i>
    <i name="ewald">   2437.68348001 </i>
    <i name="hartreedc">  -9546.49320416 </i>
    <i name="XCdc">     22.83582088 </i>
    <i name="pawpsdc">   7072.15233061 </i>
    <i name="pawaedc">  -6981.79361706 </i>
    <i name="eentropy">     -0.00000000 </i>
    <i name="bandstr">   -775.36065981 </i>
    <i name="atom">   7759.05671949 </i>
    <i name="e_fr_energy">     -1.03404723 </i>
    <i name="e_wo_entrp">     -1.03404723 </i>
    <i name="e_0_energy">     -1.03404723 </i>
   </energy>
  </scstep>
  <structure>
   <crystal>
    <varray name="basis" >
     <v>      17.00000000       0.00000000       0.00000000 </v>
     <v>       0.00000000      17.00000000       0.00000000 </v>
     <v>       0.00000000       0.00000000      17.00000000 </v>
    </varray>
    <i name="volume">   4913.00000000 </i>
    <varray name="rec_basis" >
     <v>       0.05882353       0.00000000       0.00000000 </v>
     <v>       0.00000000       0.05882353       0.00000000 </v>
     <v>       0.00000000       0.00000000       0.05882353 </v>
    </varray>
   </crystal>
   <varray name="positions" >
    <v>       0.98517111       0.03233250       0.08139794 </v>
    <v>       0.08678657       0.16974862       0.96416618 </v>
    <v>       0.81640952       0.01740301       0.98330850 </v>
    <v>       0.94243752       0.85787392       0.03418719 </v>
    <v>       0.15578775       0.97864946       0.01653614 </v>
    <v>      -0.00284600       0.98463896       0.91176758 </v>
   </varray>
  </structure>
  <varray name="forces" >
   <v>       0.00235033       0.11289866       0.05385179 </v>
   <v>      -0.00471911      -0.11879484       0.02768893 </v>
   <v>       0.02899047      -0.07207474       0.01850067 </v>
   <v>      -0.07468875      -0.04340040       0.01515552 </v>
   <v>       0.03541520       0.03798060      -0.00467219 </v>
   <v>       0.01265186       0.08339073      -0.11052472 </v>
  </varray>
  <energy>
   <i name="e_fr_energy">     -1.03404723 </i>
   <i name="e_wo_entrp">     -1.03404723 </i>
   <i name="e_0_energy">     -0.00000000 </i>
  </energy>
  <time name="totalsc">  294.00  359.96</time>
 </calculation>
 <calculation>
  <scstep>
   <time name="dav">   10.99   11.04</time>
   <time name="total">   21.12   21.23</time>
   <energy>
    <i name="alphaZ">     10.88508281 </i>
    <i name="ewald">   2418.89202337 </i>
    <i name="hartreedc">  -9527.96958133 </i>
    <i name="XCdc">     22.79536646 </i>
    <i name="pawpsdc">   7072.17523636 </i>
    <i name="pawaedc">  -6981.81634586 </i>
    <i name="eentropy">     -0.00000000 </i>
    <i name="bandstr">   -774.99553845 </i>
    <i name="atom">   7759.05671949 </i>
    <i name="e_fr_energy">     -0.97703714 </i>
    <i name="e_wo_entrp">     -0.97703714 </i>
    <i name="e_0_energy">     -0.97703714 </i>
   </energy>
  </scstep>
  <scstep>
   <time name="dav">   11.17   11.26</time>
   <time name="total">   21.11   61.71</time>
   <energy>
    <i name="e_fr_energy">     -1.04970771 </i>
    <i name="e_wo_entrp">     -1.04970771 </i>
    <i name="e_0_energy">     -1.04970771 </i>
   </energy>
  </scstep>
  <scstep>
   <time name="dav">   11.16   11.28</time>
   <time name="total">   21.23   21.62</time>
   <energy>
    <i name="e_fr_energy">     -1.05090724 </i>
    <i name="e_wo_entrp">     -1.05090724 </i>
    <i name="e_0_energy">     -1.05090724 </i>
   </energy>
  </scstep>
  <scstep>
   <time name="dav">   11.57   11.65</time>
   <time name="total">   21.55   21.68</time>
   <energy>
    <i name="e_fr_energy">     -1.05090260 </i>
    <i name="e_wo_entrp">     -1.05090260 </i>
    <i name="e_0_energy">     -1.05090260 </i>
   </energy>
  </scstep>
  <scstep>
   <time name="dav">    9.37    9.42</time>
   <time name="total">   19.42   19.51</time>
   <energy>
    <i name="e_fr_energy">     -1.05093104 </i>
    <i name="e_wo_entrp">     -1.05093104 </i>
    <i name="e_0_energy">     -1.05093104 </i>
   </energy>
  </scstep>
  <scstep>
   <time name="dav">   10.23   10.29</time>
   <time name="total">   20.25   20.38</time>
   <energy>
    <i name="e_fr_energy">     -1.05102334 </i>
    <i name="e_wo_entrp">     -1.05102334 </i>
    <i name="e_0_energy">     -1.05102334 </i>
   </energy>
  </scstep>
  <scstep>
   <time name="dav">   10.89   10.96</time>
   <time name="total">   20.91   21.03</time>
   <energy>
    <i name="e_fr_energy">     -1.05112369 </i>
    <i name="e_wo_entrp">     -1.05112369 </i>
    <i name="e_0_energy">     -1.05112369 </i>
   </energy>
  </scstep>
  <scstep>
   <time name="dav">    8.83    8.88</time>
   <time name="total">   18.99   19.08</time>
   <energy>
    <i name="e_fr_energy">     -1.05100268 </i>
    <i name="e_wo_entrp">     -1.05100268 </i>
    <i name="e_0_energy">     -1.05100268 </i>
   </energy>
  </scstep>
  <scstep>
   <time name="dav">    9.32    9.37</time>
   <time name="total">   19.47   19.58</time>
   <energy>
    <i name="e_fr_energy">     -1.05101065 </i>
    <i name="e_wo_entrp">     -1.05101065 </i>
    <i name="e_0_energy">     -1.05101065 </i>
   </energy>
  </scstep>
  <scstep>
   <time name="dav">    7.77    7.82</time>
   <time name="total">   14.89   24.67</time>
   <energy>
    <i name="alphaZ">     10.88508281 </i>
    <i name="ewald">   2418.89202337 </i>
    <i name="hartreedc">  -9528.42262217 </i>
    <i name="XCdc">     22.80780922 </i>
    <i name="pawpsdc">   7069.45586827 </i>
    <i name="pawaedc">  -6979.00929420 </i>
    <i name="eentropy">     -0.00000000 </i>
    <i name="bandstr">   -774.71659736 </i>
    <i name="atom">   7759.05671949 </i>
    <i name="e_fr_energy">     -1.05101055 </i>
    <i name="e_wo_entrp">     -1.05101055 </i>
    <i name="e_0_energy">     -1.05101055 </i>
   </energy>
  </scstep>
  <structure>
   <crystal>
    <varray name="basis" >
     <v>      17.00000000       0.00000000       0.00000000 </v>
     <v>       0.00000000      17.00000000       0.00000000 </v>
     <v>       0.00000000       0.00000000      17.00000000 </v>
    </varray>
    <i name="volume">   4913.00000000 </i>
    <varray name="rec_basis" >
     <v>       0.05882353       0.00000000       0.00000000 </v>
     <v>       0.00000000       0.05882353       0.00000000 </v>
     <v>       0.00000000       0.00000000       0.05882353 </v>
    </varray>
   </crystal>
   <varray name="positions" >
    <v>       0.98521576       0.03429426       0.08124051 </v>
    <v>       0.08744224       0.16787144       0.96475095 </v>
    <v>       0.81645562       0.01552122       0.98377903 </v>
    <v>       0.94038493       0.85671111       0.03458010 </v>
    <v>       0.15695379       0.97970418       0.01634776 </v>
    <v>      -0.00270588       0.98654426       0.91066519 </v>
   </varray>
  </structure>
  <varray name="forces" >
   <v>       0.00441830       0.06915468       0.03175717 </v>
   <v>      -0.00554599      -0.11493072       0.02462615 </v>
   <v>       0.03155646      -0.06748307       0.01771497 </v>
   <v>      -0.05535824       0.01408638      -0.00392550 </v>
   <v>       0.01573040       0.04448531      -0.00774637 </v>
   <v>       0.00919907       0.05468744      -0.06242642 </v>
  </varray>
  <energy>
   <i name="e_fr_energy">     -1.05101055 </i>
   <i name="e_wo_entrp">     -1.05101055 </i>
   <i name="e_0_energy">     -0.00000000 </i>
  </energy>
  <time name="totalsc">  232.07  311.78</time>
 </calculation>
 <calculation>
  <scstep>
   <time name="dav">   11.30   11.36</time>
   <time name="total">   21.36   21.49</time>
   <energy>
    <i name="alphaZ">     10.88508281 </i>
    <i name="ewald">   2369.94105276 </i>
    <i name="hartreedc">  -9479.95298671 </i>
    <i name="XCdc">     22.73204223 </i>
    <i name="pawpsdc">   7069.44606319 </i>
    <i name="pawaedc">  -6978.99857318 </i>
    <i name="eentropy">     -0.00000000 </i>
    <i name="bandstr">   -773.12818549 </i>
    <i name="atom">   7759.05671949 </i>
    <i name="e_fr_energy">     -0.01878490 </i>
    <i name="e_wo_entrp">     -0.01878490 </i>
    <i name="e_0_energy">     -0.01878490 </i>
   </energy>
  </scstep>
  <scstep>
   <time name="dav">   10.31   10.36</time>
   <time name="total">   20.29   20.43</time>
   <energy>
    <i name="e_fr_energy">     -1.04962249 </i>
    <i name="e_wo_entrp">     -1.04962249 </i>
    <i name="e_0_energy">     -1.04962249 </i>
   </energy>
  </scstep>
  <scstep>
   <time name="dav">   11.34   11.47</time>
   <time name="total">   21.42   21.58</time>
   <energy>
    <i name="e_fr_energy">     -1.07167839 </i>
    <i name="e_wo_entrp">     -1.07167839 </i>
    <i name="e_0_energy">     -1.07167839 </i>
   </energy>
  </scstep>
  <scstep>
   <time name="dav">   11.39   11.43</time>
   <time name="total">   21.43   24.66</time>
   <energy>
    <i name="e_fr_energy">     -1.07212777 </i>
    <i name="e_wo_entrp">     -1.07212777 </i>
    <i name="e_0_energy">     -1.07212777 </i>
   </energy>
  </scstep>
  <scstep>
   <time name="dav">   10.10   10.12</time>
   <time name="total">   20.13   20.17</time>
   <energy>
    <i name="e_fr_energy">     -1.07218332 </i>
    <i name="e_wo_entrp">     -1.07218332 </i>
    <i name="e_0_energy">     -1.07218332 </i>
   </energy>
  </scstep>
  <scstep>
   <time name="dav">    9.90    9.95</time>
   <time name="total">   19.97   20.05</time>
   <energy>
    <i name="e_fr_energy">     -1.07291735 </i>
    <i name="e_wo_entrp">     -1.07291735 </i>
    <i name="e_0_energy">     -1.07291735 </i>
   </energy>
  </scstep>
  <scstep>
   <time name="dav">    9.70    9.73</time>
   <time name="total">   19.76   34.56</time>
   <energy>
    <i name="e_fr_energy">     -1.07297053 </i>
    <i name="e_wo_entrp">     -1.07297053 </i>
    <i name="e_0_energy">     -1.07297053 </i>
   </energy>
  </scstep>
  <scstep>
   <time name="dav">    9.61    9.70</time>
   <time name="total">   19.72   19.83</time>
   <energy>
    <i name="e_fr_energy">     -1.07287059 </i>
    <i name="e_wo_entrp">     -1.07287059 </i>
    <i name="e_0_energy">     -1.07287059 </i>
   </energy>
  </scstep>
  <scstep>
   <time name="dav">   10.25   10.27</time>
   <time name="total">   20.39   20.44</time>
   <energy>
    <i name="e_fr_energy">     -1.07291814 </i>
    <i name="e_wo_entrp">     -1.07291814 </i>
    <i name="e_0_energy">     -1.07291814 </i>
   </energy>
  </scstep>
  <scstep>
   <time name="dav">    9.17    9.22</time>
   <time name="total">   19.71   23.33</time>
   <energy>
    <i name="e_fr_energy">     -1.07291729 </i>
    <i name="e_wo_entrp">     -1.07291729 </i>
    <i name="e_0_energy">     -1.07291729 </i>
   </energy>
  </scstep>
  <scstep>
   <time name="dav">   10.18   10.27</time>
   <time name="total">   20.30   20.42</time>
   <energy>
    <i name="e_fr_energy">     -1.07288933 </i>
    <i name="e_wo_entrp">     -1.07288933 </i>
    <i name="e_0_energy">     -1.07288933 </i>
   </energy>
  </scstep>
  <scstep>
   <time name="dav">    9.90    9.97</time>
   <time name="total">   20.11   20.24</time>
   <energy>
    <i name="e_fr_energy">     -1.07288732 </i>
    <i name="e_wo_entrp">     -1.07288732 </i>
    <i name="e_0_energy">     -1.07288732 </i>
   </energy>
  </scstep>
  <scstep>
   <time name="dav">    8.96    9.00</time>
   <time name="total">   16.08   17.76</time>
   <energy>
    <i name="alphaZ">     10.88508281 </i>
    <i name="ewald">   2369.94105276 </i>
    <i name="hartreedc">  -9480.62714347 </i>
    <i name="XCdc">     22.74909163 </i>
    <i name="pawpsdc">   7064.51986685 </i>
    <i name="pawaedc">  -6973.90395259 </i>
    <i name="eentropy">     -0.00000000 </i>
    <i name="bandstr">   -773.69360559 </i>
    <i name="atom">   7759.05671949 </i>
    <i name="e_fr_energy">     -1.07288811 </i>
    <i name="e_wo_entrp">     -1.07288811 </i>
    <i name="e_0_energy">     -1.07288811 </i>
   </energy>
  </scstep>
  <structure>
   <crystal>
    <varray name="basis" >
     <v>      17.00000000       0.00000000       0.00000000 </v>
     <v>       0.00000000      17.00000000       0.00000000 </v>
     <v>       0.00000000       0.00000000      17.00000000 </v>
    </varray>
    <i name="volume">   4913.00000000 </i>
    <varray name="rec_basis" >
     <v>       0.05882353       0.00000000       0.00000000 </v>
     <v>       0.00000000       0.05882353       0.00000000 </v>
     <v>       0.00000000       0.00000000       0.05882353 </v>
    </varray>
   </crystal>
   <varray name="positions" >
    <v>       0.98534582       0.04000815       0.08078197 </v>
    <v>       0.08935198       0.16240389       0.96645418 </v>
    <v>       0.81658990       0.01004027       0.98514950 </v>
    <v>       0.93440650       0.85332426       0.03572450 </v>
    <v>       0.16035002       0.98277620       0.01579906 </v>
    <v>      -0.00229776       0.99209369       0.90745433 </v>
   </varray>
  </structure>
  <varray name="forces" >
   <v>       0.00877750      -0.02478645      -0.01758875 </v>
   <v>      -0.00063880      -0.08032537       0.01080684 </v>
   <v>       0.03462205      -0.04978304       0.01426819 </v>
   <v>      -0.01554484       0.10330074      -0.03170311 </v>
   <v>      -0.03495179       0.04934532      -0.01315913 </v>
   <v>       0.00773588       0.00224880       0.03737595 </v>
  </varray>
  <energy>
   <i name="e_fr_energy">     -1.07288811 </i>
   <i name="e_wo_entrp">     -1.07288811 </i>
   <i name="e_0_energy">     -0.00000000 </i>
  </energy>
  <time name="totalsc">  293.90  938.03</time>
 </calculation>
 <calculation>
  <scstep>
   <time name="dav">   11.29   11.46</time>
   <time name="total">   21.41   21.63</time>
   <energy>
    <i name="alphaZ">     10.88508281 </i>
    <i name="ewald">   2447.95935054 </i>
    <i name="hartreedc">  -9558.15556043 </i>
    <i name="XCdc">     22.87282447 </i>
    <i name="pawpsdc">   7064.50047259 </i>
    <i name="pawaedc">  -6973.88560152 </i>
    <i name="eentropy">     -0.00000000 </i>
    <i name="bandstr">   -774.21096125 </i>
    <i name="atom">   7759.05671949 </i>
    <i name="e_fr_energy">     -0.97767329 </i>
    <i name="e_wo_entrp">     -0.97767329 </i>
    <i name="e_0_energy">     -0.97767329 </i>
   </energy>
  </scstep>
  <scstep>
   <time name="dav">   10.72   10.78</time>
   <time name="total">   20.80   20.90</time>
   <energy>
    <i name="e_fr_energy">     -1.08236100 </i>
    <i name="e_wo_entrp">     -1.08236100 </i>
    <i name="e_0_energy">     -1.08236100 </i>
   </energy>
  </scstep>
  <scstep>
   <time name="dav">   11.59   11.65</time>
   <time name="total">   21.55   21.70</time>
   <energy>
    <i name="e_fr_energy">     -1.08412924 </i>
    <i name="e_wo_entrp">     -1.08412924 </i>
    <i name="e_0_energy">     -1.08412924 </i>
   </energy>
  </scstep>
  <scstep>
   <time name="dav">   11.51   11.57</time>
   <time name="total">   21.55   37.30</time>
   <energy>
    <i name="e_fr_energy">     -1.08413023 </i>
    <i name="e_wo_entrp">     -1.08413023 </i>
    <i name="e_0_energy">     -1.08413023 </i>
   </energy>
  </scstep>
  <scstep>
   <time name="dav">   10.47   10.55</time>
   <time name="total">   20.49   20.62</time>
   <energy>
    <i name="e_fr_energy">     -1.08409104 </i>
    <i name="e_wo_entrp">     -1.08409104 </i>
    <i name="e_0_energy">     -1.08409104 </i>
   </energy>
  </scstep>
  <scstep>
   <time name="dav">    9.27    9.31</time>
   <time name="total">   19.33   19.47</time>
   <energy>
    <i name="e_fr_energy">     -1.08418193 </i>
    <i name="e_wo_entrp">     -1.08418193 </i>
    <i name="e_0_energy">     -1.08418193 </i>
   </energy>
  </scstep>
  <scstep>
   <time name="dav">    9.50    9.55</time>
   <time name="total">   19.58   19.69</time>
   <energy>
    <i name="e_fr_energy">     -1.08418850 </i>
    <i name="e_wo_entrp">     -1.08418850 </i>
    <i name="e_0_energy">     -1.08418850 </i>
   </energy>
  </scstep>
  <scstep>
   <time name="dav">   10.06   10.12</time>
   <time name="total">   20.15   20.24</time>
   <energy>
    <i name="e_fr_energy">     -1.08420265 </i>
    <i name="e_wo_entrp">     -1.08420265 </i>
    <i name="e_0_energy">     -1.08420265 </i>
   </energy>
  </scstep>
  <scstep>
   <time name="dav">   10.60   10.62</time>
   <time name="total">   20.70   55.02</time>
   <energy>
    <i name="e_fr_energy">     -1.08420666 </i>
    <i name="e_wo_entrp">     -1.08420666 </i>
    <i name="e_0_energy">     -1.08420666 </i>
   </energy>
  </scstep>
  <scstep>
   <time name="dav">    9.50    9.54</time>
   <time name="total">   19.54   45.62</time>
   <energy>
    <i name="e_fr_energy">     -1.08420563 </i>
    <i name="e_wo_entrp">     -1.08420563 </i>
    <i name="e_0_energy">     -1.08420563 </i>
   </energy>
  </scstep>
  <scstep>
   <time name="dav">    6.34    6.42</time>
   <time name="total">   13.50   13.62</time>
   <energy>
    <i name="alphaZ">     10.88508281 </i>
    <i name="ewald">   2447.95935054 </i>
    <i name="hartreedc">  -9556.99985097 </i>
    <i name="XCdc">     22.83787025 </i>
    <i name="pawpsdc">   7068.29411274 </i>
    <i name="pawaedc">  -6977.85758492 </i>
    <i name="eentropy">     -0.00000000 </i>
    <i name="bandstr">   -775.25990524 </i>
    <i name="atom">   7759.05671949 </i>
    <i name="e_fr_energy">     -1.08420530 </i>
    <i name="e_wo_entrp">     -1.08420530 </i>
    <i name="e_0_energy">     -1.08420530 </i>
   </energy>
  </scstep>
  <structure>
   <crystal>
    <varray name="basis" >
     <v>      17.00000000       0.00000000       0.00000000 </v>
     <v>       0.00000000      17.00000000       0.00000000 </v>
     <v>       0.00000000       0.00000000      17.00000000 </v>
    </varray>
    <i name="volume">   4913.00000000 </i>
    <varray name="rec_basis" >
     <v>       0.05882353       0.00000000       0.00000000 </v>
     <v>       0.00000000       0.05882353       0.00000000 </v>
     <v>       0.00000000       0.00000000       0.05882353 </v>
    </varray>
   </crystal>
   <varray name="positions" >
    <v>       0.98561858       0.04045880       0.08019566 </v>
    <v>       0.08971744       0.15904904       0.96709980 </v>
    <v>       0.81758974       0.00754098       0.98582558 </v>
    <v>       0.93276942       0.85554706       0.03506339 </v>
    <v>       0.16004972       0.98477957       0.01531913 </v>
    <v>      -0.00199844       0.99327102       0.90785996 </v>
   </varray>
  </structure>
  <varray name="forces" >
   <v>      -0.00071568      -0.02259090       0.01286378 </v>
   <v>       0.00480529      -0.03408597      -0.00210677 </v>
   <v>       0.01741609      -0.03151687       0.00833993 </v>
   <v>      -0.00810266       0.07310687      -0.02391673 </v>
   <v>      -0.01775599       0.02567242      -0.00605285 </v>
   <v>       0.00435294      -0.01058555       0.01087265 </v>
  </varray>
  <energy>
   <i name="e_fr_energy">     -1.08420530 </i>
   <i name="e_wo_entrp">     -1.08420530 </i>
   <i name="e_0_energy">     -0.00000000 </i>
  </energy>
  <time name="totalsc">  251.84  331.35</time>
 </calculation>
 <calculation>
  <scstep>
   <time name="dav">   11.45   11.52</time>
   <time name="total">   21.51   21.63</time>
   <energy>
    <i name="alphaZ">     10.88508281 </i>
    <i name="ewald">   2509.57376291 </i>
    <i name="hartreedc">  -9618.19418586 </i>
    <i name="XCdc">     22.94199785 </i>
    <i name="pawpsdc">   7068.33586135 </i>
    <i name="pawaedc">  -6977.90212226 </i>
    <i name="eentropy">     -0.00000000 </i>
    <i name="bandstr">   -775.72881716 </i>
    <i name="atom">   7759.05671949 </i>
    <i name="e_fr_energy">     -1.03170087 </i>
    <i name="e_wo_entrp">     -1.03170087 </i>
    <i name="e_0_energy">     -1.03170087 </i>
   </energy>
  </scstep>
  <scstep>
   <time name="dav">   11.06   11.13</time>
   <time name="total">   21.04   21.21</time>
   <energy>
    <i name="e_fr_energy">     -1.08624442 </i>
    <i name="e_wo_entrp">     -1.08624442 </i>
    <i name="e_0_energy">     -1.08624442 </i>
   </energy>
  </scstep>
  <scstep>
   <time name="dav">   11.26   11.36</time>
   <time name="total">   21.35   21.50</time>
   <energy>
    <i name="e_fr_energy">     -1.08715387 </i>
    <i name="e_wo_entrp">     -1.08715387 </i>
    <i name="e_0_energy">     -1.08715387 </i>
   </energy>
  </scstep>
  <scstep>
   <time name="dav">   11.41   11.48</time>
   <time name="total">   21.43   21.56</time>
   <energy>
    <i name="e_fr_energy">     -1.08715068 </i>
    <i name="e_wo_entrp">     -1.08715068 </i>
    <i name="e_0_energy">     -1.08715068 </i>
   </energy>
  </scstep>
  <scstep>
   <time name="dav">    9.81    9.85</time>
   <time name="total">   19.91   20.03</time>
   <energy>
    <i name="e_fr_energy">     -1.08712152 </i>
    <i name="e_wo_entrp">     -1.08712152 </i>
    <i name="e_0_energy">     -1.08712152 </i>
   </energy>
  </scstep>
  <scstep>
   <time name="dav">    9.14    9.21</time>
   <time name="total">   19.22   19.34</time>
   <energy>
    <i name="e_fr_energy">     -1.08718856 </i>
    <i name="e_wo_entrp">     -1.08718856 </i>
    <i name="e_0_energy">     -1.08718856 </i>
   </energy>
  </scstep>
  <scstep>
   <time name="dav">    9.37    9.43</time>
   <time name="total">   19.47   19.57</time>
   <energy>
    <i name="e_fr_energy">     -1.08718220 </i>
    <i name="e_wo_entrp">     -1.08718220 </i>
    <i name="e_0_energy">     -1.08718220 </i>
   </energy>
  </scstep>
  <scstep>
   <time name="dav">    9.39    9.42</time>
   <time name="total">   19.46   19.57</time>
   <energy>
    <i name="e_fr_energy">     -1.08719669 </i>
    <i name="e_wo_entrp">     -1.08719669 </i>
    <i name="e_0_energy">     -1.08719669 </i>
   </energy>
  </scstep>
  <scstep>
   <time name="dav">    9.32    9.43</time>
   <time name="total">   19.42   19.57</time>
   <energy>
    <i name="e_fr_energy">     -1.08719625 </i>
    <i name="e_wo_entrp">     -1.08719625 </i>
    <i name="e_0_energy">     -1.08719625 </i>
   </energy>
  </scstep>
  <scstep>
   <time name="dav">    9.35    9.41</time>
   <time name="total">   19.55   19.64</time>
   <energy>
    <i name="e_fr_energy">     -1.08719492 </i>
    <i name="e_wo_entrp">     -1.08719492 </i>
    <i name="e_0_energy">     -1.08719492 </i>
   </energy>
  </scstep>
  <scstep>
   <time name="dav">    7.41    7.45</time>
   <time name="total">   14.51   14.83</time>
   <energy>
    <i name="alphaZ">     10.88508281 </i>
    <i name="ewald">   2509.57376291 </i>
    <i name="hartreedc">  -9617.23456215 </i>
    <i name="XCdc">     22.91300635 </i>
    <i name="pawpsdc">   7072.03609955 </i>
    <i name="pawaedc">  -6981.76076961 </i>
    <i name="eentropy">     -0.00000000 </i>
    <i name="bandstr">   -776.55653390 </i>
    <i name="atom">   7759.05671949 </i>
    <i name="e_fr_energy">     -1.08719455 </i>
    <i name="e_wo_entrp">     -1.08719455 </i>
    <i name="e_0_energy">     -1.08719455 </i>
   </energy>
  </scstep>
  <structure>
   <crystal>
    <varray name="basis" >
     <v>      17.00000000       0.00000000       0.00000000 </v>
     <v>       0.00000000      17.00000000       0.00000000 </v>
     <v>       0.00000000       0.00000000      17.00000000 </v>
    </varray>
    <i name="volume">   4913.00000000 </i>
    <varray name="rec_basis" >
     <v>       0.05882353       0.00000000       0.00000000 </v>
     <v>       0.00000000       0.05882353       0.00000000 </v>
     <v>       0.00000000       0.00000000       0.05882353 </v>
    </varray>
   </crystal>
   <varray name="positions" >
    <v>       0.98582892       0.04080634       0.07974352 </v>
    <v>       0.08999928       0.15646186       0.96759769 </v>
    <v>       0.81836080       0.00561358       0.98634696 </v>
    <v>       0.93150695       0.85726123       0.03455356 </v>
    <v>       0.15981814       0.98632451       0.01494902 </v>
    <v>      -0.00176761       0.99417895       0.90817278 </v>
   </varray>
  </structure>
  <varray name="forces" >
   <v>      -0.00955810      -0.02216978       0.03870452 </v>
   <v>       0.00821064       0.01428827      -0.01546945 </v>
   <v>      -0.00071862      -0.00898360       0.00116065 </v>
   <v>       0.00259759       0.04158473      -0.01505880 </v>
   <v>      -0.00072607      -0.00143652       0.00149601 </v>
   <v>       0.00019456      -0.02328310      -0.01083292 </v>
  </varray>
  <energy>
   <i name="e_fr_energy">     -1.08719455 </i>
   <i name="e_wo_entrp">     -1.08719455 </i>
   <i name="e_0_energy">     -0.00000000 </i>
  </energy>
  <time name="totalsc">  249.93  252.64</time>
 </calculation>
 <calculation>
  <scstep>
   <time name="dav">   11.45   11.52</time>
   <time name="total">   21.49   21.65</time>
   <energy>
    <i name="alphaZ">     10.88508281 </i>
    <i name="ewald">   2511.03335402 </i>
    <i name="hartreedc">  -9618.73076624 </i>
    <i name="XCdc">     22.91055040 </i>
    <i name="pawpsdc">   7072.08170610 </i>
    <i name="pawaedc">  -6981.80919602 </i>
    <i name="eentropy">     -0.00000000 </i>
    <i name="bandstr">   -776.50571732 </i>
    <i name="atom">   7759.05671949 </i>
    <i name="e_fr_energy">     -1.07826676 </i>
    <i name="e_wo_entrp">     -1.07826676 </i>
    <i name="e_0_energy">     -1.07826676 </i>
   </energy>
  </scstep>
  <scstep>
   <time name="dav">   11.11   11.17</time>
   <time name="total">   21.11   21.24</time>
   <energy>
    <i name="e_fr_energy">     -1.08882115 </i>
    <i name="e_wo_entrp">     -1.08882115 </i>
    <i name="e_0_energy">     -1.08882115 </i>
   </energy>
  </scstep>
  <scstep>
   <time name="dav">   11.35   11.48</time>
   <time name="total">   21.36   21.54</time>
   <energy>
    <i name="e_fr_energy">     -1.08898986 </i>
    <i name="e_wo_entrp">     -1.08898986 </i>
    <i name="e_0_energy">     -1.08898986 </i>
   </energy>
  </scstep>
  <scstep>
   <time name="dav">   11.42   11.51</time>
   <time name="total">   21.43   21.57</time>
   <energy>
    <i name="e_fr_energy">     -1.08898488 </i>
    <i name="e_wo_entrp">     -1.08898488 </i>
    <i name="e_0_energy">     -1.08898488 </i>
   </energy>
  </scstep>
  <scstep>
   <time name="dav">    9.57    9.62</time>
   <time name="total">   19.63   19.74</time>
   <energy>
    <i name="e_fr_energy">     -1.08899857 </i>
    <i name="e_wo_entrp">     -1.08899857 </i>
    <i name="e_0_energy">     -1.08899857 </i>
   </energy>
  </scstep>
  <scstep>
   <time name="dav">    8.83    8.90</time>
   <time name="total">   18.86   18.98</time>
   <energy>
    <i name="e_fr_energy">     -1.08901393 </i>
    <i name="e_wo_entrp">     -1.08901393 </i>
    <i name="e_0_energy">     -1.08901393 </i>
   </energy>
  </scstep>
  <scstep>
   <time name="dav">    7.37    7.41</time>
   <time name="total">   14.54   14.60</time>
   <energy>
    <i name="alphaZ">     10.88508281 </i>
    <i name="ewald">   2511.03335402 </i>
    <i name="hartreedc">  -9618.70836899 </i>
    <i name="XCdc">     22.91240302 </i>
    <i name="pawpsdc">   7071.83605145 </i>
    <i name="pawaedc">  -6981.55957428 </i>
    <i name="eentropy">     -0.00000000 </i>
    <i name="bandstr">   -776.54468144 </i>
    <i name="atom">   7759.05671949 </i>
    <i name="e_fr_energy">     -1.08901392 </i>
    <i name="e_wo_entrp">     -1.08901392 </i>
    <i name="e_0_energy">     -1.08901392 </i>
   </energy>
  </scstep>
  <structure>
   <crystal>
    <varray name="basis" >
     <v>      17.00000000       0.00000000       0.00000000 </v>
     <v>       0.00000000      17.00000000       0.00000000 </v>
     <v>       0.00000000       0.00000000      17.00000000 </v>
    </varray>
    <i name="volume">   4913.00000000 </i>
    <varray name="rec_basis" >
     <v>       0.05882353       0.00000000       0.00000000 </v>
     <v>       0.00000000       0.05882353       0.00000000 </v>
     <v>       0.00000000       0.00000000       0.05882353 </v>
    </varray>
   </crystal>
   <varray name="positions" >
    <v>       0.98554293       0.04012695       0.08094725 </v>
    <v>       0.09029776       0.15662994       0.96715279 </v>
    <v>       0.81842551       0.00510217       0.98644412 </v>
    <v>       0.93144707       0.85880568       0.03400694 </v>
    <v>       0.15976815       0.98645429       0.01495529 </v>
    <v>      -0.00173495       0.99352743       0.90785714 </v>
   </varray>
  </structure>
  <varray name="forces" >
   <v>      -0.00127955      -0.01421415       0.00152737 </v>
   <v>       0.00219827       0.01062872      -0.01033207 </v>
   <v>      -0.00535050       0.00042051      -0.00161877 </v>
   <v>       0.00523825       0.01356995      -0.00801251 </v>
   <v>       0.00210084      -0.00377579       0.00302594 </v>
   <v>      -0.00290731      -0.00662924       0.01541005 </v>
  </varray>
  <energy>
   <i name="e_fr_energy">     -1.08901392 </i>
   <i name="e_wo_entrp">     -1.08901392 </i>
   <i name="e_0_energy">     -0.00000000 </i>
  </energy>
  <time name="totalsc">  171.30  242.34</time>
 </calculation>
 <calculation>
  <scstep>
   <time name="dav">   11.26   11.33</time>
   <time name="total">   21.23   21.36</time>
   <energy>
    <i name="alphaZ">     10.88508281 </i>
    <i name="ewald">   2511.57172448 </i>
    <i name="hartreedc">  -9619.23933645 </i>
    <i name="XCdc">     22.91210046 </i>
    <i name="pawpsdc">   7071.81430092 </i>
    <i name="pawaedc">  -6981.53708194 </i>
    <i name="eentropy">     -0.00000000 </i>
    <i name="bandstr">   -776.55204277 </i>
    <i name="atom">   7759.05671949 </i>
    <i name="e_fr_energy">     -1.08853300 </i>
    <i name="e_wo_entrp">     -1.08853300 </i>
    <i name="e_0_energy">     -1.08853300 </i>
   </energy>
  </scstep>
  <scstep>
   <time name="dav">   10.31   10.36</time>
   <time name="total">   20.29   20.44</time>
   <energy>
    <i name="e_fr_energy">     -1.08914715 </i>
    <i name="e_wo_entrp">     -1.08914715 </i>
    <i name="e_0_energy">     -1.08914715 </i>
   </energy>
  </scstep>
  <scstep>
   <time name="dav">   11.27   11.38</time>
   <time name="total">   21.36   21.53</time>
   <energy>
    <i name="e_fr_energy">     -1.08915237 </i>
    <i name="e_wo_entrp">     -1.08915237 </i>
    <i name="e_0_energy">     -1.08915237 </i>
   </energy>
  </scstep>
  <scstep>
   <time name="dav">    9.41    9.45</time>
   <time name="total">   19.44   51.07</time>
   <energy>
    <i name="e_fr_energy">     -1.08914826 </i>
    <i name="e_wo_entrp">     -1.08914826 </i>
    <i name="e_0_energy">     -1.08914826 </i>
   </energy>
  </scstep>
  <scstep>
   <time name="dav">    9.82    9.91</time>
   <time name="total">   19.83   20.02</time>
   <energy>
    <i name="e_fr_energy">     -1.08915979 </i>
    <i name="e_wo_entrp">     -1.08915979 </i>
    <i name="e_0_energy">     -1.08915979 </i>
   </energy>
  </scstep>
  <scstep>
   <time name="dav">    8.75    8.84</time>
   <time name="total">   18.86   22.04</time>
   <energy>
    <i name="e_fr_energy">     -1.08915973 </i>
    <i name="e_wo_entrp">     -1.08915973 </i>
    <i name="e_0_energy">     -1.08915973 </i>
   </energy>
  </scstep>
  <scstep>
   <time name="dav">    6.49    6.52</time>
   <time name="total">   16.54   16.83</time>
   <energy>
    <i name="e_fr_energy">     -1.08916124 </i>
    <i name="e_wo_entrp">     -1.08916124 </i>
    <i name="e_0_energy">     -1.08916124 </i>
   </energy>
  </scstep>
  <scstep>
   <time name="dav">    9.19    9.24</time>
   <time name="total">   19.18   19.33</time>
   <energy>
    <i name="e_fr_energy">     -1.08915885 </i>
    <i name="e_wo_entrp">     -1.08915885 </i>
    <i name="e_0_energy">     -1.08915885 </i>
   </energy>
  </scstep>
  <scstep>
   <time name="dav">    8.10    8.15</time>
   <time name="total">   15.19   15.26</time>
   <energy>
    <i name="alphaZ">     10.88508281 </i>
    <i name="ewald">   2511.57172448 </i>
    <i name="hartreedc">  -9619.30959820 </i>
    <i name="XCdc">     22.91260477 </i>
    <i name="pawpsdc">   7071.70060692 </i>
    <i name="pawaedc">  -6981.41853591 </i>
    <i name="eentropy">     -0.00000000 </i>
    <i name="bandstr">   -776.48776377 </i>
    <i name="atom">   7759.05671949 </i>
    <i name="e_fr_energy">     -1.08915940 </i>
    <i name="e_wo_entrp">     -1.08915940 </i>
    <i name="e_0_energy">     -1.08915940 </i>
   </energy>
  </scstep>
  <structure>
   <crystal>
    <varray name="basis" >
     <v>      17.00000000       0.00000000       0.00000000 </v>
     <v>       0.00000000      17.00000000       0.00000000 </v>
     <v>       0.00000000       0.00000000      17.00000000 </v>
    </varray>
    <i name="volume">   4913.00000000 </i>
    <varray name="rec_basis" >
     <v>       0.05882353       0.00000000       0.00000000 </v>
     <v>       0.00000000       0.05882353       0.00000000 </v>
     <v>       0.00000000       0.00000000       0.05882353 </v>
    </varray>
   </crystal>
   <varray name="positions" >
    <v>       0.98545023       0.03990674       0.08133742 </v>
    <v>       0.09039450       0.15668441       0.96700858 </v>
    <v>       0.81844649       0.00493641       0.98647562 </v>
    <v>       0.93142767       0.85930629       0.03382976 </v>
    <v>       0.15975195       0.98649636       0.01495732 </v>
    <v>      -0.00172437       0.99331625       0.90775483 </v>
   </varray>
  </structure>
  <varray name="forces" >
   <v>       0.00096378      -0.01233937      -0.00687047 </v>
   <v>       0.00056547       0.00910229      -0.00902378 </v>
   <v>      -0.00706673       0.00379764      -0.00304909 </v>
   <v>       0.00641756       0.00572818      -0.00626708 </v>
   <v>       0.00253673      -0.00426685       0.00311032 </v>
   <v>      -0.00341681      -0.00202188       0.02210010 </v>
  </varray>
  <energy>
   <i name="e_fr_energy">     -1.08915940 </i>
   <i name="e_wo_entrp">     -1.08915940 </i>
   <i name="e_0_energy">     -0.00000000 </i>
  </energy>
  <time name="totalsc">  205.00  702.10</time>
 </calculation>
 <calculation>
  <scstep>
   <time name="dav">   11.62   11.65</time>
   <time name="total">   21.66   21.78</time>
   <energy>
    <i name="alphaZ">     10.88508281 </i>
    <i name="ewald">   2511.70946244 </i>
    <i name="hartreedc">  -9619.45060197 </i>
    <i name="XCdc">     22.91254834 </i>
    <i name="pawpsdc">   7071.70165134 </i>
    <i name="pawaedc">  -6981.41959882 </i>
    <i name="eentropy">     -0.00000000 </i>
    <i name="bandstr">   -776.48440299 </i>
    <i name="atom">   7759.05671949 </i>
    <i name="e_fr_energy">     -1.08913935 </i>
    <i name="e_wo_entrp">     -1.08913935 </i>
    <i name="e_0_energy">     -1.08913935 </i>
   </energy>
  </scstep>
  <scstep>
   <time name="dav">   10.27   10.33</time>
   <time name="total">   20.30  620.50</time>
   <energy>
    <i name="e_fr_energy">     -1.08916336 </i>
    <i name="e_wo_entrp">     -1.08916336 </i>
    <i name="e_0_energy">     -1.08916336 </i>
   </energy>
  </scstep>
  <scstep>
   <time name="dav">    8.86    8.91</time>
   <time name="total">   18.87   19.00</time>
   <energy>
    <i name="e_fr_energy">     -1.08916322 </i>
    <i name="e_wo_entrp">     -1.08916322 </i>
    <i name="e_0_energy">     -1.08916322 </i>
   </energy>
  </scstep>
  <scstep>
   <time name="dav">    6.23    6.26</time>
   <time name="total">   16.26   16.36</time>
   <energy>
    <i name="e_fr_energy">     -1.08916292 </i>
    <i name="e_wo_entrp">     -1.08916292 </i>
    <i name="e_0_energy">     -1.08916292 </i>
   </energy>
  </scstep>
  <scstep>
   <time name="dav">    6.73    6.76</time>
   <time name="total">   16.72   16.86</time>
   <energy>
    <i name="e_fr_energy">     -1.08916335 </i>
    <i name="e_wo_entrp">     -1.08916335 </i>
    <i name="e_0_energy">     -1.08916335 </i>
   </energy>
  </scstep>
  <scstep>
   <time name="dav">    6.18    6.21</time>
   <time name="total">   13.39   13.45</time>
   <energy>
    <i name="alphaZ">     10.88508281 </i>
    <i name="ewald">   2511.70946244 </i>
    <i name="hartreedc">  -9619.45631916 </i>
    <i name="XCdc">     22.91279897 </i>
    <i name="pawpsdc">   7071.69158971 </i>
    <i name="pawaedc">  -6981.40978219 </i>
    <i name="eentropy">     -0.00000000 </i>
    <i name="bandstr">   -776.47871572 </i>
    <i name="atom">   7759.05671949 </i>
    <i name="e_fr_energy">     -1.08916364 </i>
    <i name="e_wo_entrp">     -1.08916364 </i>
    <i name="e_0_energy">     -1.08916364 </i>
   </energy>
  </scstep>
  <structure>
   <crystal>
    <varray name="basis" >
     <v>      17.00000000       0.00000000       0.00000000 </v>
     <v>       0.00000000      17.00000000       0.00000000 </v>
     <v>       0.00000000       0.00000000      17.00000000 </v>
    </varray>
    <i name="volume">   4913.00000000 </i>
    <varray name="rec_basis" >
     <v>       0.05882353       0.00000000       0.00000000 </v>
     <v>       0.00000000       0.05882353       0.00000000 </v>
     <v>       0.00000000       0.00000000       0.05882353 </v>
    </varray>
   </crystal>
   <varray name="positions" >
    <v>       0.98542735       0.03985239       0.08143372 </v>
    <v>       0.09041838       0.15669786       0.96697299 </v>
    <v>       0.81845167       0.00489550       0.98648339 </v>
    <v>       0.93142288       0.85942985       0.03378603 </v>
    <v>       0.15974795       0.98650674       0.01495782 </v>
    <v>      -0.00172175       0.99326413       0.90772957 </v>
   </varray>
  </structure>
  <varray name="forces" >
   <v>       0.00023071      -0.01089360      -0.01349990 </v>
   <v>       0.00063430       0.01102141      -0.00836290 </v>
   <v>      -0.00560369       0.00443089      -0.00284772 </v>
   <v>       0.00675044       0.00200329      -0.00499907 </v>
   <v>       0.00390496      -0.00632812       0.00364650 </v>
   <v>      -0.00591673      -0.00023386       0.02606309 </v>
  </varray>
  <energy>
   <i name="e_fr_energy">     -1.08916364 </i>
   <i name="e_wo_entrp">     -1.08916364 </i>
   <i name="e_0_energy">     -0.00000000 </i>
  </energy>
  <time name="totalsc">  140.12 1191.44</time>
 </calculation>
 <calculation>
  <scstep>
   <time name="dav">   11.43   11.53</time>
   <time name="total">   21.52   21.67</time>
   <energy>
    <i name="alphaZ">     10.88508281 </i>
    <i name="ewald">   2511.63436143 </i>
    <i name="hartreedc">  -9619.38133801 </i>
    <i name="XCdc">     22.91284699 </i>
    <i name="pawpsdc">   7071.69033040 </i>
    <i name="pawaedc">  -6981.40849512 </i>
    <i name="eentropy">     -0.00000000 </i>
    <i name="bandstr">   -776.47866327 </i>
    <i name="atom">   7759.05671949 </i>
    <i name="e_fr_energy">     -1.08915528 </i>
    <i name="e_wo_entrp">     -1.08915528 </i>
    <i name="e_0_energy">     -1.08915528 </i>
   </energy>
  </scstep>
  <scstep>
   <time name="dav">   10.70   10.76</time>
   <time name="total">   20.75   20.86</time>
   <energy>
    <i name="e_fr_energy">     -1.08916303 </i>
    <i name="e_wo_entrp">     -1.08916303 </i>
    <i name="e_0_energy">     -1.08916303 </i>
   </energy>
  </scstep>
  <scstep>
   <time name="dav">    5.60    5.63</time>
   <time name="total">   15.68   15.78</time>
   <energy>
    <i name="e_fr_energy">     -1.08916323 </i>
    <i name="e_wo_entrp">     -1.08916323 </i>
    <i name="e_0_energy">     -1.08916323 </i>
   </energy>
  </scstep>
  <scstep>
   <time name="dav">    5.11    5.13</time>
   <time name="total">   15.14   15.22</time>
   <energy>
    <i name="e_fr_energy">     -1.08916305 </i>
    <i name="e_wo_entrp">     -1.08916305 </i>
    <i name="e_0_energy">     -1.08916305 </i>
   </energy>
  </scstep>
  <scstep>
   <time name="dav">    5.19    5.22</time>
   <time name="total">   15.25   51.91</time>
   <energy>
    <i name="e_fr_energy">     -1.08916294 </i>
    <i name="e_wo_entrp">     -1.08916294 </i>
    <i name="e_0_energy">     -1.08916294 </i>
   </energy>
  </scstep>
  <scstep>
   <time name="dav">    5.11    5.17</time>
   <time name="total">   12.30   12.41</time>
   <energy>
    <i name="alphaZ">     10.88508281 </i>
    <i name="ewald">   2511.63436143 </i>
    <i name="hartreedc">  -9619.38273665 </i>
    <i name="XCdc">     22.91279632 </i>
    <i name="pawpsdc">   7071.68777124 </i>
    <i name="pawaedc">  -6981.40575254 </i>
    <i name="eentropy">     -0.00000000 </i>
    <i name="bandstr">   -776.47740506 </i>
    <i name="atom">   7759.05671949 </i>
    <i name="e_fr_energy">     -1.08916296 </i>
    <i name="e_wo_entrp">     -1.08916296 </i>
    <i name="e_0_energy">     -1.08916296 </i>
   </energy>
  </scstep>
  <structure>
   <crystal>
    <varray name="basis" >
     <v>      17.00000000       0.00000000       0.00000000 </v>
     <v>       0.00000000      17.00000000       0.00000000 </v>
     <v>       0.00000000       0.00000000      17.00000000 </v>
    </varray>
    <i name="volume">   4913.00000000 </i>
    <varray name="rec_basis" >
     <v>       0.05882353       0.00000000       0.00000000 </v>
     <v>       0.00000000       0.05882353       0.00000000 </v>
     <v>       0.00000000       0.00000000       0.05882353 </v>
    </varray>
   </crystal>
   <varray name="positions" >
    <v>       0.98543978       0.03988193       0.08138138 </v>
    <v>       0.09040540       0.15669055       0.96699234 </v>
    <v>       0.81844885       0.00491773       0.98647916 </v>
    <v>       0.93142548       0.85936270       0.03380980 </v>
    <v>       0.15975012       0.98650110       0.01495755 </v>
    <v>      -0.00172317       0.99329246       0.90774330 </v>
   </varray>
  </structure>
  <varray name="forces" >
   <v>       0.00187774      -0.01255408      -0.00650370 </v>
   <v>       0.00004964       0.00760403      -0.00904378 </v>
   <v>      -0.00774913       0.00421465      -0.00332654 </v>
   <v>       0.00682336       0.00584167      -0.00640607 </v>
   <v>       0.00134214      -0.00353449       0.00276262 </v>
   <v>      -0.00234375      -0.00157178       0.02251746 </v>
  </varray>
  <energy>
   <i name="e_fr_energy">     -1.08916296 </i>
   <i name="e_wo_entrp">     -1.08916296 </i>
   <i name="e_0_energy">     -0.00000000 </i>
  </energy>
  <time name="totalsc">  133.66  171.13</time>
 </calculation>
 <calculation>
  <scstep>
   <time name="dav">   11.30   11.35</time>
   <time name="total">   21.15   21.32</time>
   <energy>
    <i name="alphaZ">     10.88508281 </i>
    <i name="ewald">   2511.67184110 </i>
    <i name="hartreedc">  -9619.42015678 </i>
    <i name="XCdc">     22.91277084 </i>
    <i name="pawpsdc">   7071.68755434 </i>
    <i name="pawaedc">  -6981.40552689 </i>
    <i name="eentropy">     -0.00000000 </i>
    <i name="bandstr">   -776.47744713 </i>
    <i name="atom">   7759.05671949 </i>
    <i name="e_fr_energy">     -1.08916222 </i>
    <i name="e_wo_entrp">     -1.08916222 </i>
    <i name="e_0_energy">     -1.08916222 </i>
   </energy>
  </scstep>
  <scstep>
   <time name="dav">   10.51   10.62</time>
   <time name="total">   20.53  635.71</time>
   <energy>
    <i name="e_fr_energy">     -1.08916382 </i>
    <i name="e_wo_entrp">     -1.08916382 </i>
    <i name="e_0_energy">     -1.08916382 </i>
   </energy>
  </scstep>
  <scstep>
   <time name="dav">    5.21    5.25</time>
   <time name="total">   15.23   15.38</time>
   <energy>
    <i name="e_fr_energy">     -1.08916382 </i>
    <i name="e_wo_entrp">     -1.08916382 </i>
    <i name="e_0_energy">     -1.08916382 </i>
   </energy>
  </scstep>
  <scstep>
   <time name="dav">    5.08    5.10</time>
   <time name="total">   15.11   15.22</time>
   <energy>
    <i name="e_fr_energy">     -1.08916382 </i>
    <i name="e_wo_entrp">     -1.08916382 </i>
    <i name="e_0_energy">     -1.08916382 </i>
   </energy>
  </scstep>
  <scstep>
   <time name="dav">    5.29    5.30</time>
   <time name="total">   15.29   15.33</time>
   <energy>
    <i name="e_fr_energy">     -1.08916385 </i>
    <i name="e_wo_entrp">     -1.08916385 </i>
    <i name="e_0_energy">     -1.08916385 </i>
   </energy>
  </scstep>
  <scstep>
   <time name="dav">    5.16    5.22</time>
   <time name="total">   12.36   12.45</time>
   <energy>
    <i name="alphaZ">     10.88508281 </i>
    <i name="ewald">   2511.67184110 </i>
    <i name="hartreedc">  -9619.41744906 </i>
    <i name="XCdc">     22.91277130 </i>
    <i name="pawpsdc">   7071.68264838 </i>
    <i name="pawaedc">  -6981.40053592 </i>
    <i name="eentropy">     -0.00000000 </i>
    <i name="bandstr">   -776.48024195 </i>
    <i name="atom">   7759.05671949 </i>
    <i name="e_fr_energy">     -1.08916386 </i>
    <i name="e_wo_entrp">     -1.08916386 </i>
    <i name="e_0_energy">     -1.08916386 </i>
   </energy>
  </scstep>
  <structure>
   <crystal>
    <varray name="basis" >
     <v>      17.00000000       0.00000000       0.00000000 </v>
     <v>       0.00000000      17.00000000       0.00000000 </v>
     <v>       0.00000000       0.00000000      17.00000000 </v>
    </varray>
    <i name="volume">   4913.00000000 </i>
    <varray name="rec_basis" >
     <v>       0.05882353       0.00000000       0.00000000 </v>
     <v>       0.00000000       0.05882353       0.00000000 </v>
     <v>       0.00000000       0.00000000       0.05882353 </v>
    </varray>
   </crystal>
   <varray name="positions" >
    <v>       0.98543357       0.03986716       0.08140755 </v>
    <v>       0.09041189       0.15669421       0.96698266 </v>
    <v>       0.81845026       0.00490662       0.98648128 </v>
    <v>       0.93142418       0.85939627       0.03379792 </v>
    <v>       0.15974904       0.98650392       0.01495769 </v>
    <v>      -0.00172246       0.99327829       0.90773644 </v>
   </varray>
  </structure>
  <varray name="forces" >
   <v>       0.00128609      -0.01168207      -0.00955115 </v>
   <v>       0.00010953       0.00906655      -0.00862786 </v>
   <v>      -0.00699415       0.00453708      -0.00328281 </v>
   <v>       0.00677313       0.00360451      -0.00573334 </v>
   <v>       0.00267760      -0.00473790       0.00317703 </v>
   <v>      -0.00385220      -0.00078818       0.02401814 </v>
  </varray>
  <energy>
   <i name="e_fr_energy">     -1.08916386 </i>
   <i name="e_wo_entrp">     -1.08916386 </i>
   <i name="e_0_energy">     -0.00000000 </i>
  </energy>
  <time name="totalsc">  132.79  802.45</time>
 </calculation>
 <calculation>
  <scstep>
   <time name="dav">   11.15   11.21</time>
   <time name="total">   21.23   21.35</time>
   <energy>
    <i name="alphaZ">     10.88508281 </i>
    <i name="ewald">   2518.86137710 </i>
    <i name="hartreedc">  -9626.54996934 </i>
    <i name="XCdc">     22.92665576 </i>
    <i name="pawpsdc">   7071.68264950 </i>
    <i name="pawaedc">  -6981.40053706 </i>
    <i name="eentropy">     -0.00000000 </i>
    <i name="bandstr">   -776.54909651 </i>
    <i name="atom">   7759.05671949 </i>
    <i name="e_fr_energy">     -1.08711825 </i>
    <i name="e_wo_entrp">     -1.08711825 </i>
    <i name="e_0_energy">     -1.08711825 </i>
   </energy>
  </scstep>
  <scstep>
   <time name="dav">   10.77   10.83</time>
   <time name="total">   20.67  219.73</time>
   <energy>
    <i name="e_fr_energy">     -1.08954165 </i>
    <i name="e_wo_entrp">     -1.08954165 </i>
    <i name="e_0_energy">     -1.08954165 </i>
   </energy>
  </scstep>
  <scstep>
   <time name="dav">   11.31   11.37</time>
   <time name="total">   21.44   21.56</time>
   <energy>
    <i name="e_fr_energy">     -1.08956836 </i>
    <i name="e_wo_entrp">     -1.08956836 </i>
    <i name="e_0_energy">     -1.08956836 </i>
   </energy>
  </scstep>
  <scstep>
   <time name="dav">    9.39    9.47</time>
   <time name="total">   19.49   19.62</time>
   <energy>
    <i name="e_fr_energy">     -1.08956501 </i>
    <i name="e_wo_entrp">     -1.08956501 </i>
    <i name="e_0_energy">     -1.08956501 </i>
   </energy>
  </scstep>
  <scstep>
   <time name="dav">   10.45   10.52</time>
   <time name="total">   20.46   20.62</time>
   <energy>
    <i name="e_fr_energy">     -1.08957659 </i>
    <i name="e_wo_entrp">     -1.08957659 </i>
    <i name="e_0_energy">     -1.08957659 </i>
   </energy>
  </scstep>
  <scstep>
   <time name="dav">    9.37   12.58</time>
   <time name="total">   19.46   23.34</time>
   <energy>
    <i name="e_fr_energy">     -1.08958089 </i>
    <i name="e_wo_entrp">     -1.08958089 </i>
    <i name="e_0_energy">     -1.08958089 </i>
   </energy>
  </scstep>
  <scstep>
   <time name="dav">    6.20    6.24</time>
   <time name="total">   13.30   13.40</time>
   <energy>
    <i name="alphaZ">     10.88508281 </i>
    <i name="ewald">   2518.86137710 </i>
    <i name="hartreedc">  -9626.42648913 </i>
    <i name="XCdc">     22.92121729 </i>
    <i name="pawpsdc">   7072.08993614 </i>
    <i name="pawaedc">  -6981.81979627 </i>
    <i name="eentropy">     -0.00000000 </i>
    <i name="bandstr">   -776.65762851 </i>
    <i name="atom">   7759.05671949 </i>
    <i name="e_fr_energy">     -1.08958108 </i>
    <i name="e_wo_entrp">     -1.08958108 </i>
    <i name="e_0_energy">     -1.08958108 </i>
   </energy>
  </scstep>
  <structure>
   <crystal>
    <varray name="basis" >
     <v>      17.00000000       0.00000000       0.00000000 </v>
     <v>       0.00000000      17.00000000       0.00000000 </v>
     <v>       0.00000000       0.00000000      17.00000000 </v>
    </varray>
    <i name="volume">   4913.00000000 </i>
    <varray name="rec_basis" >
     <v>       0.05882353       0.00000000       0.00000000 </v>
     <v>       0.00000000       0.05882353       0.00000000 </v>
     <v>       0.00000000       0.00000000       0.05882353 </v>
    </varray>
   </crystal>
   <varray name="positions" >
    <v>       0.98541646       0.03931198       0.08133507 </v>
    <v>       0.09048044       0.15704720       0.96658496 </v>
    <v>       0.81822009       0.00495414       0.98638773 </v>
    <v>       0.93164768       0.85985700       0.03347922 </v>
    <v>       0.15983168       0.98636664       0.01506997 </v>
    <v>      -0.00184988       0.99310951       0.90850658 </v>
   </varray>
  </structure>
  <varray name="forces" >
   <v>       0.00212398      -0.00009562       0.00548166 </v>
   <v>      -0.00093861       0.00218312      -0.00464362 </v>
   <v>      -0.00463673       0.00437227      -0.00286034 </v>
   <v>       0.00358552      -0.00497556      -0.00305464 </v>
   <v>       0.00105536      -0.00146355       0.00262746 </v>
   <v>      -0.00118954      -0.00002066       0.00244948 </v>
  </varray>
  <energy>
   <i name="e_fr_energy">     -1.08958108 </i>
   <i name="e_wo_entrp">     -1.08958108 </i>
   <i name="e_0_energy">     -0.00000000 </i>
  </energy>
  <time name="totalsc">  168.14 1010.84</time>
  <eigenvalues>
   <array>
    <dimension dim="1">band</dimension>
    <dimension dim="2">kpoint</dimension>
    <dimension dim="3">spin</dimension>
    <field>eigene</field>
    <field>occ</field>
    <set>
     <set comment="spin 1">
      <set comment="kpoint 1">
       <r>  -12.2238    1.0000 </r>
       <r>  -12.2227    1.0000 </r>
       <r>  -12.1069    1.0000 </r>
       <r>  -12.0389    1.0000 </r>
       <r>  -12.0175    1.0000 </r>
       <r>  -12.0065    1.0000 </r>
       <r>  -11.9876    1.0000 </r>
       <r>  -11.9033    1.0000 </r>
       <r>  -11.8850    1.0000 </r>
       <r>  -11.8630    1.0000 </r>
       <r>  -11.8543    1.0000 </r>
       <r>  -11.7964    1.0000 </r>
       <r>  -11.7510    1.0000 </r>
       <r>  -11.7425    1.0000 </r>
       <r>  -11.7121    1.0000 </r>
       <r>  -11.7102    1.0000 </r>
       <r>  -11.6787    1.0000 </r>
       <r>  -11.6683    1.0000 </r>
       <r>  -11.6507    1.0000 </r>
       <r>  -11.6449    1.0000 </r>
       <r>  -11.6444    1.0000 </r>
       <r>  -11.6273    1.0000 </r>
       <r>  -11.6265    1.0000 </r>
       <r>  -11.6156    1.0000 </r>
       <r>  -11.6021    1.0000 </r>
       <r>  -11.5931    1.0000 </r>
       <r>  -11.5703    1.0000 </r>
       <r>  -11.5481    1.0000 </r>
       <r>  -11.5374    1.0000 </r>
       <r>  -11.5065    1.0000 </r>
       <r>   -8.3373    1.0000 </r>
       <r>   -6.6895    1.0000 </r>
       <r>   -5.3544    1.0000 </r>
       <r>   -5.2038    1.0000 </r>
       <r>   -4.7147    1.0000 </r>
       <r>   -4.6936    1.0000 </r>
       <r>   -2.2945    0.0000 </r>
       <r>   -2.0875    0.0000 </r>
       <r>   -2.0830    0.0000 </r>
       <r>   -1.8538    0.0000 </r>
       <r>   -1.8329    0.0000 </r>
       <r>   -1.5348    0.0000 </r>
       <r>   -1.1676    0.0000 </r>
       <r>   -0.6437    0.0000 </r>
       <r>   -0.2540    0.0000 </r>
       <r>    0.0180    0.0000 </r>
      </set>
     </set>
     <set comment="spin 2">
      <set comment="kpoint 1">
       <r>  -12.2238    1.0000 </r>
       <r>  -12.2227    1.0000 </r>
       <r>  -12.1069    1.0000 </r>
       <r>  -12.0389    1.0000 </r>
       <r>  -12.0175    1.0000 </r>
       <r>  -12.0065    1.0000 </r>
       <r>  -11.9876    1.0000 </r>
       <r>  -11.9033    1.0000 </r>
       <r>  -11.8850    1.0000 </r>
       <r>  -11.8630    1.0000 </r>
       <r>  -11.8543    1.0000 </r>
       <r>  -11.7964    1.0000 </r>
       <r>  -11.7510    1.0000 </r>
       <r>  -11.7425    1.0000 </r>
       <r>  -11.7121    1.0000 </r>
       <r>  -11.7102    1.0000 </r>
       <r>  -11.6787    1.0000 </r>
       <r>  -11.6683    1.0000 </r>
       <r>  -11.6507    1.0000 </r>
       <r>  -11.6449    1.0000 </r>
       <r>  -11.6444    1.0000 </r>
       <r>  -11.6273    1.0000 </r>
       <r>  -11.6265    1.0000 </r>
       <r>  -11.6156    1.0000 </r>
       <r>  -11.6021    1.0000 </r>
       <r>  -11.5931    1.0000 </r>
       <r>  -11.5703    1.0000 </r>
       <r>  -11.5481    1.0000 </r>
       <r>  -11.5374    1.0000 </r>
       <r>  -11.5065    1.0000 </r>
       <r>   -8.3373    1.0000 </r>
       <r>   -6.6895    1.0000 </r>
       <r>   -5.3544    1.0000 </r>
       <r>   -5.2038    1.0000 </r>
       <r>   -4.7147    1.0000 </r>
       <r>   -4.6936    1.0000 </r>
       <r>   -2.2945    0.0000 </r>
       <r>   -2.0875    0.0000 </r>
       <r>   -2.0830    0.0000 </r>
       <r>   -1.8538    0.0000 </r>
       <r>   -1.8329    0.0000 </r>
       <r>   -1.5348    0.0000 </r>
       <r>   -1.1676    0.0000 </r>
       <r>   -0.6437    0.0000 </r>
       <r>   -0.2540    0.0000 </r>
       <r>    0.0180    0.0000 </r>
      </set>
     </set>
    </set>
   </array>
  </eigenvalues>
  <separator name="orbital magnetization" >
   <v name="MAGDIPOLOUT">      0.00000000      0.00000000      0.00000000</v>
  </separator>
  <dos>
   <i name="efermi">     -4.65530680 </i>
   <total>
    <array>
     <dimension dim="1">gridpoints</dimension>
     <dimension dim="2">spin</dimension>
     <field>energy</field>
     <field>total</field>
     <field>integrated</field>
     <set>
      <set comment="spin 1">
       <r>   -12.8359     0.0000     0.0000 </r>
       <r>   -12.7910     0.0000     0.0000 </r>
       <r>   -12.7462     0.0000     0.0000 </r>
       <r>   -12.7013     0.0000     0.0000 </r>
       <r>   -12.6564     0.0000     0.0000 </r>
       <r>   -12.6115     0.0000     0.0000 </r>
       <r>   -12.5666     0.0000     0.0000 </r>
       <r>   -12.5217     0.0000     0.0000 </r>
       <r>   -12.4768     0.0000     0.0000 </r>
       <r>   -12.4319     0.0000     0.0000 </r>
       <r>   -12.3871     0.0000     0.0000 </r>
       <r>   -12.3422     0.0000     0.0000 </r>
       <r>   -12.2973     0.0000     0.0000 </r>
       <r>   -12.2524     0.0000     0.0000 </r>
       <r>   -12.2075    44.5563     2.0000 </r>
       <r>   -12.1626     0.0000     2.0000 </r>
       <r>   -12.1177     0.0253     2.0011 </r>
       <r>   -12.0729    22.2530     3.0000 </r>
       <r>   -12.0280    22.2886     4.0005 </r>
       <r>   -11.9831    64.5288     6.8980 </r>
       <r>   -11.9382     0.0000     7.0000 </r>
       <r>   -11.8933    22.4388     8.0072 </r>
       <r>   -11.8484    65.5416    10.9515 </r>
       <r>   -11.8035     0.4841    11.0217 </r>
       <r>   -11.7586    22.1326    12.0152 </r>
       <r>   -11.7138    54.9568    14.4820 </r>
       <r>   -11.6689    31.9601    17.4346 </r>
       <r>   -11.6240   102.3382    22.5936 </r>
       <r>   -11.5791    66.7807    26.0065 </r>
       <r>   -11.5342    62.5598    28.8146 </r>
       <r>   -11.4893    22.2782    30.0000 </r>
       <r>   -11.4444     0.0000    30.0000 </r>
       <r>   -11.3995     0.0000    30.0000 </r>
       <r>   -11.3547     0.0000    30.0000 </r>
       <r>   -11.3098     0.0000    30.0000 </r>
       <r>   -11.2649     0.0000    30.0000 </r>
       <r>   -11.2200     0.0000    30.0000 </r>
       <r>   -11.1751     0.0000    30.0000 </r>
       <r>   -11.1302     0.0000    30.0000 </r>
       <r>   -11.0853     0.0000    30.0000 </r>
       <r>   -11.0405     0.0000    30.0000 </r>
       <r>   -10.9956     0.0000    30.0000 </r>
       <r>   -10.9507     0.0000    30.0000 </r>
       <r>   -10.9058     0.0000    30.0000 </r>
       <r>   -10.8609     0.0000    30.0000 </r>
       <r>   -10.8160     0.0000    30.0000 </r>
       <r>   -10.7711     0.0000    30.0000 </r>
       <r>   -10.7262     0.0000    30.0000 </r>
       <r>   -10.6814     0.0000    30.0000 </r>
       <r>   -10.6365     0.0000    30.0000 </r>
       <r>   -10.5916     0.0000    30.0000 </r>
       <r>   -10.5467     0.0000    30.0000 </r>
       <r>   -10.5018     0.0000    30.0000 </r>
       <r>   -10.4569     0.0000    30.0000 </r>
       <r>   -10.4120     0.0000    30.0000 </r>
       <r>   -10.3672     0.0000    30.0000 </r>
       <r>   -10.3223     0.0000    30.0000 </r>
       <r>   -10.2774     0.0000    30.0000 </r>
       <r>   -10.2325     0.0000    30.0000 </r>
       <r>   -10.1876     0.0000    30.0000 </r>
       <r>   -10.1427     0.0000    30.0000 </r>
       <r>   -10.0978     0.0000    30.0000 </r>
       <r>   -10.0529     0.0000    30.0000 </r>
       <r>   -10.0081     0.0000    30.0000 </r>
       <r>    -9.9632     0.0000    30.0000 </r>
       <r>    -9.9183     0.0000    30.0000 </r>
       <r>    -9.8734     0.0000    30.0000 </r>
       <r>    -9.8285     0.0000    30.0000 </r>
       <r>    -9.7836     0.0000    30.0000 </r>
       <r>    -9.7387     0.0000    30.0000 </r>
       <r>    -9.6939     0.0000    30.0000 </r>
       <r>    -9.6490     0.0000    30.0000 </r>
       <r>    -9.6041     0.0000    30.0000 </r>
       <r>    -9.5592     0.0000    30.0000 </r>
       <r>    -9.5143     0.0000    30.0000 </r>
       <r>    -9.4694     0.0000    30.0000 </r>
       <r>    -9.4245     0.0000    30.0000 </r>
       <r>    -9.3796     0.0000    30.0000 </r>
       <r>    -9.3348     0.0000    30.0000 </r>
       <r>    -9.2899     0.0000    30.0000 </r>
       <r>    -9.2450     0.0000    30.0000 </r>
       <r>    -9.2001     0.0000    30.0000 </r>
       <r>    -9.1552     0.0000    30.0000 </r>
       <r>    -9.1103     0.0000    30.0000 </r>
       <r>    -9.0654     0.0000    30.0000 </r>
       <r>    -9.0205     0.0000    30.0000 </r>
       <r>    -8.9757     0.0000    30.0000 </r>
       <r>    -8.9308     0.0000    30.0000 </r>
       <r>    -8.8859     0.0000    30.0000 </r>
       <r>    -8.8410     0.0000    30.0000 </r>
       <r>    -8.7961     0.0000    30.0000 </r>
       <r>    -8.7512     0.0000    30.0000 </r>
       <r>    -8.7063     0.0000    30.0000 </r>
       <r>    -8.6615     0.0000    30.0000 </r>
       <r>    -8.6166     0.0000    30.0000 </r>
       <r>    -8.5717     0.0000    30.0000 </r>
       <r>    -8.5268     0.0000    30.0000 </r>
       <r>    -8.4819     0.0000    30.0000 </r>
       <r>    -8.4370     0.0000    30.0000 </r>
       <r>    -8.3921     0.0000    30.0000 </r>
       <r>    -8.3472     0.0542    30.0024 </r>
       <r>    -8.3024    22.2240    31.0000 </r>
       <r>    -8.2575     0.0000    31.0000 </r>
       <r>    -8.2126     0.0000    31.0000 </r>
       <r>    -8.1677     0.0000    31.0000 </r>
       <r>    -8.1228     0.0000    31.0000 </r>
       <r>    -8.0779     0.0000    31.0000 </r>
       <r>    -8.0330     0.0000    31.0000 </r>
       <r>    -7.9882     0.0000    31.0000 </r>
       <r>    -7.9433     0.0000    31.0000 </r>
       <r>    -7.8984     0.0000    31.0000 </r>
       <r>    -7.8535     0.0000    31.0000 </r>
       <r>    -7.8086     0.0000    31.0000 </r>
       <r>    -7.7637     0.0000    31.0000 </r>
       <r>    -7.7188     0.0000    31.0000 </r>
       <r>    -7.6739     0.0000    31.0000 </r>
       <r>    -7.6291     0.0000    31.0000 </r>
       <r>    -7.5842     0.0000    31.0000 </r>
       <r>    -7.5393     0.0000    31.0000 </r>
       <r>    -7.4944     0.0000    31.0000 </r>
       <r>    -7.4495     0.0000    31.0000 </r>
       <r>    -7.4046     0.0000    31.0000 </r>
       <r>    -7.3597     0.0000    31.0000 </r>
       <r>    -7.3149     0.0000    31.0000 </r>
       <r>    -7.2700     0.0000    31.0000 </r>
       <r>    -7.2251     0.0000    31.0000 </r>
       <r>    -7.1802     0.0000    31.0000 </r>
       <r>    -7.1353     0.0000    31.0000 </r>
       <r>    -7.0904     0.0000    31.0000 </r>
       <r>    -7.0455     0.0000    31.0000 </r>
       <r>    -7.0006     0.0000    31.0000 </r>
       <r>    -6.9558     0.0000    31.0000 </r>
       <r>    -6.9109     0.0000    31.0000 </r>
       <r>    -6.8660     0.0000    31.0000 </r>
       <r>    -6.8211     0.0000    31.0000 </r>
       <r>    -6.7762     0.0000    31.0000 </r>
       <r>    -6.7313     0.0000    31.0000 </r>
       <r>    -6.6864    17.9810    31.8071 </r>
       <r>    -6.6415     0.0000    32.0000 </r>
       <r>    -6.5967     0.0000    32.0000 </r>
       <r>    -6.5518     0.0000    32.0000 </r>
       <r>    -6.5069     0.0000    32.0000 </r>
       <r>    -6.4620     0.0000    32.0000 </r>
       <r>    -6.4171     0.0000    32.0000 </r>
       <r>    -6.3722     0.0000    32.0000 </r>
       <r>    -6.3273     0.0000    32.0000 </r>
       <r>    -6.2825     0.0000    32.0000 </r>
       <r>    -6.2376     0.0000    32.0000 </r>
       <r>    -6.1927     0.0000    32.0000 </r>
       <r>    -6.1478     0.0000    32.0000 </r>
       <r>    -6.1029     0.0000    32.0000 </r>
       <r>    -6.0580     0.0000    32.0000 </r>
       <r>    -6.0131     0.0000    32.0000 </r>
       <r>    -5.9682     0.0000    32.0000 </r>
       <r>    -5.9234     0.0000    32.0000 </r>
       <r>    -5.8785     0.0000    32.0000 </r>
       <r>    -5.8336     0.0000    32.0000 </r>
       <r>    -5.7887     0.0000    32.0000 </r>
       <r>    -5.7438     0.0000    32.0000 </r>
       <r>    -5.6989     0.0000    32.0000 </r>
       <r>    -5.6540     0.0000    32.0000 </r>
       <r>    -5.6092     0.0000    32.0000 </r>
       <r>    -5.5643     0.0000    32.0000 </r>
       <r>    -5.5194     0.0000    32.0000 </r>
       <r>    -5.4745     0.0000    32.0000 </r>
       <r>    -5.4296     0.0000    32.0000 </r>
       <r>    -5.3847     0.0000    32.0000 </r>
       <r>    -5.3398    22.2778    33.0000 </r>
       <r>    -5.2949     0.0000    33.0000 </r>
       <r>    -5.2501     0.0000    33.0000 </r>
       <r>    -5.2052     7.7329    33.3471 </r>
       <r>    -5.1603     0.0000    34.0000 </r>
       <r>    -5.1154     0.0000    34.0000 </r>
       <r>    -5.0705     0.0000    34.0000 </r>
       <r>    -5.0256     0.0000    34.0000 </r>
       <r>    -4.9807     0.0000    34.0000 </r>
       <r>    -4.9358     0.0000    34.0000 </r>
       <r>    -4.8910     0.0000    34.0000 </r>
       <r>    -4.8461     0.0000    34.0000 </r>
       <r>    -4.8012     0.0000    34.0000 </r>
       <r>    -4.7563     0.0000    34.0000 </r>
       <r>    -4.7114    18.3593    34.8241 </r>
       <r>    -4.6665    22.2783    36.0000 </r>
       <r>    -4.6216     0.0000    36.0000 </r>
       <r>    -4.5768     0.0000    36.0000 </r>
       <r>    -4.5319     0.0000    36.0000 </r>
       <r>    -4.4870     0.0000    36.0000 </r>
       <r>    -4.4421     0.0000    36.0000 </r>
       <r>    -4.3972     0.0000    36.0000 </r>
       <r>    -4.3523     0.0000    36.0000 </r>
       <r>    -4.3074     0.0000    36.0000 </r>
       <r>    -4.2625     0.0000    36.0000 </r>
       <r>    -4.2177     0.0000    36.0000 </r>
       <r>    -4.1728     0.0000    36.0000 </r>
       <r>    -4.1279     0.0000    36.0000 </r>
       <r>    -4.0830     0.0000    36.0000 </r>
       <r>    -4.0381     0.0000    36.0000 </r>
       <r>    -3.9932     0.0000    36.0000 </r>
       <r>    -3.9483     0.0000    36.0000 </r>
       <r>    -3.9035     0.0000    36.0000 </r>
       <r>    -3.8586     0.0000    36.0000 </r>
       <r>    -3.8137     0.0000    36.0000 </r>
       <r>    -3.7688     0.0000    36.0000 </r>
       <r>    -3.7239     0.0000    36.0000 </r>
       <r>    -3.6790     0.0000    36.0000 </r>
       <r>    -3.6341     0.0000    36.0000 </r>
       <r>    -3.5892     0.0000    36.0000 </r>
       <r>    -3.5444     0.0000    36.0000 </r>
       <r>    -3.4995     0.0000    36.0000 </r>
       <r>    -3.4546     0.0000    36.0000 </r>
       <r>    -3.4097     0.0000    36.0000 </r>
       <r>    -3.3648     0.0000    36.0000 </r>
       <r>    -3.3199     0.0000    36.0000 </r>
       <r>    -3.2750     0.0000    36.0000 </r>
       <r>    -3.2302     0.0000    36.0000 </r>
       <r>    -3.1853     0.0000    36.0000 </r>
       <r>    -3.1404     0.0000    36.0000 </r>
       <r>    -3.0955     0.0000    36.0000 </r>
       <r>    -3.0506     0.0000    36.0000 </r>
       <r>    -3.0057     0.0000    36.0000 </r>
       <r>    -2.9608     0.0000    36.0000 </r>
       <r>    -2.9159     0.0000    36.0000 </r>
       <r>    -2.8711     0.0000    36.0000 </r>
       <r>    -2.8262     0.0000    36.0000 </r>
       <r>    -2.7813     0.0000    36.0000 </r>
       <r>    -2.7364     0.0000    36.0000 </r>
       <r>    -2.6915     0.0000    36.0000 </r>
       <r>    -2.6466     0.0000    36.0000 </r>
       <r>    -2.6017     0.0000    36.0000 </r>
       <r>    -2.5568     0.0000    36.0000 </r>
       <r>    -2.5120     0.0000    36.0000 </r>
       <r>    -2.4671     0.0000    36.0000 </r>
       <r>    -2.4222     0.0000    36.0000 </r>
       <r>    -2.3773     0.0000    36.0000 </r>
       <r>    -2.3324     0.0000    36.0000 </r>
       <r>    -2.2875    21.7272    36.9753 </r>
       <r>    -2.2426     0.0000    37.0000 </r>
       <r>    -2.1978     0.0000    37.0000 </r>
       <r>    -2.1529     0.0000    37.0000 </r>
       <r>    -2.1080     0.0000    37.0000 </r>
       <r>    -2.0631    44.5565    39.0000 </r>
       <r>    -2.0182     0.0000    39.0000 </r>
       <r>    -1.9733     0.0000    39.0000 </r>
       <r>    -1.9284     0.0000    39.0000 </r>
       <r>    -1.8835     0.0000    39.0000 </r>
       <r>    -1.8387    23.4399    40.0521 </r>
       <r>    -1.7938    21.1164    41.0000 </r>
       <r>    -1.7489     0.0000    41.0000 </r>
       <r>    -1.7040     0.0000    41.0000 </r>
       <r>    -1.6591     0.0000    41.0000 </r>
       <r>    -1.6142     0.0000    41.0000 </r>
       <r>    -1.5693     0.0000    41.0000 </r>
       <r>    -1.5245    22.2394    41.9983 </r>
       <r>    -1.4796     0.0000    42.0000 </r>
       <r>    -1.4347     0.0000    42.0000 </r>
       <r>    -1.3898     0.0000    42.0000 </r>
       <r>    -1.3449     0.0000    42.0000 </r>
       <r>    -1.3000     0.0000    42.0000 </r>
       <r>    -1.2551     0.0000    42.0000 </r>
       <r>    -1.2102     0.0000    42.0000 </r>
       <r>    -1.1654    16.3900    42.7357 </r>
       <r>    -1.1205     0.0000    43.0000 </r>
       <r>    -1.0756     0.0000    43.0000 </r>
       <r>    -1.0307     0.0000    43.0000 </r>
       <r>    -0.9858     0.0000    43.0000 </r>
       <r>    -0.9409     0.0000    43.0000 </r>
       <r>    -0.8960     0.0000    43.0000 </r>
       <r>    -0.8511     0.0000    43.0000 </r>
       <r>    -0.8063     0.0000    43.0000 </r>
       <r>    -0.7614     0.0000    43.0000 </r>
       <r>    -0.7165     0.0000    43.0000 </r>
       <r>    -0.6716     0.0000    43.0000 </r>
       <r>    -0.6267    22.2782    44.0000 </r>
       <r>    -0.5818     0.0000    44.0000 </r>
       <r>    -0.5369     0.0000    44.0000 </r>
       <r>    -0.4921     0.0000    44.0000 </r>
       <r>    -0.4472     0.0000    44.0000 </r>
       <r>    -0.4023     0.0000    44.0000 </r>
       <r>    -0.3574     0.0000    44.0000 </r>
       <r>    -0.3125     0.0000    44.0000 </r>
       <r>    -0.2676     0.0013    44.0001 </r>
       <r>    -0.2227    22.2769    45.0000 </r>
       <r>    -0.1778     0.0000    45.0000 </r>
       <r>    -0.1330     0.0000    45.0000 </r>
       <r>    -0.0881     0.0000    45.0000 </r>
       <r>    -0.0432     0.0000    45.0000 </r>
       <r>     0.0017     0.0000    45.0000 </r>
       <r>     0.0466    22.2782    46.0000 </r>
       <r>     0.0915     0.0000    46.0000 </r>
       <r>     0.1364     0.0000    46.0000 </r>
       <r>     0.1812     0.0000    46.0000 </r>
       <r>     0.2261     0.0000    46.0000 </r>
       <r>     0.2710     0.0000    46.0000 </r>
       <r>     0.3159     0.0000    46.0000 </r>
       <r>     0.3608     0.0000    46.0000 </r>
       <r>     0.4057     0.0000    46.0000 </r>
       <r>     0.4506     0.0000    46.0000 </r>
       <r>     0.4955     0.0000    46.0000 </r>
       <r>     0.5403     0.0000    46.0000 </r>
       <r>     0.5852     0.0000    46.0000 </r>
       <r>     0.6301     0.0000    46.0000 </r>
      </set>
      <set comment="spin 2">
       <r>   -12.8359     0.0000     0.0000 </r>
       <r>   -12.7910     0.0000     0.0000 </r>
       <r>   -12.7462     0.0000     0.0000 </r>
       <r>   -12.7013     0.0000     0.0000 </r>
       <r>   -12.6564     0.0000     0.0000 </r>
       <r>   -12.6115     0.0000     0.0000 </r>
       <r>   -12.5666     0.0000     0.0000 </r>
       <r>   -12.5217     0.0000     0.0000 </r>
       <r>   -12.4768     0.0000     0.0000 </r>
       <r>   -12.4319     0.0000     0.0000 </r>
       <r>   -12.3871     0.0000     0.0000 </r>
       <r>   -12.3422     0.0000     0.0000 </r>
       <r>   -12.2973     0.0000     0.0000 </r>
       <r>   -12.2524     0.0000     0.0000 </r>
       <r>   -12.2075    44.5563     2.0000 </r>
       <r>   -12.1626     0.0000     2.0000 </r>
       <r>   -12.1177     0.0253     2.0011 </r>
       <r>   -12.0729    22.2530     3.0000 </r>
       <r>   -12.0280    22.2886     4.0005 </r>
       <r>   -11.9831    64.5288     6.8980 </r>
       <r>   -11.9382     0.0000     7.0000 </r>
       <r>   -11.8933    22.4388     8.0072 </r>
       <r>   -11.8484    65.5416    10.9515 </r>
       <r>   -11.8035     0.4841    11.0217 </r>
       <r>   -11.7586    22.1326    12.0152 </r>
       <r>   -11.7138    54.9569    14.4820 </r>
       <r>   -11.6689    31.9602    17.4346 </r>
       <r>   -11.6240   102.3383    22.5936 </r>
       <r>   -11.5791    66.7807    26.0065 </r>
       <r>   -11.5342    62.5598    28.8146 </r>
       <r>   -11.4893    22.2782    30.0000 </r>
       <r>   -11.4444     0.0000    30.0000 </r>
       <r>   -11.3995     0.0000    30.0000 </r>
       <r>   -11.3547     0.0000    30.0000 </r>
       <r>   -11.3098     0.0000    30.0000 </r>
       <r>   -11.2649     0.0000    30.0000 </r>
       <r>   -11.2200     0.0000    30.0000 </r>
       <r>   -11.1751     0.0000    30.0000 </r>
       <r>   -11.1302     0.0000    30.0000 </r>
       <r>   -11.0853     0.0000    30.0000 </r>
       <r>   -11.0405     0.0000    30.0000 </r>
       <r>   -10.9956     0.0000    30.0000 </r>
       <r>   -10.9507     0.0000    30.0000 </r>
       <r>   -10.9058     0.0000    30.0000 </r>
       <r>   -10.8609     0.0000    30.0000 </r>
       <r>   -10.8160     0.0000    30.0000 </r>
       <r>   -10.7711     0.0000    30.0000 </r>
       <r>   -10.7262     0.0000    30.0000 </r>
       <r>   -10.6814     0.0000    30.0000 </r>
       <r>   -10.6365     0.0000    30.0000 </r>
       <r>   -10.5916     0.0000    30.0000 </r>
       <r>   -10.5467     0.0000    30.0000 </r>
       <r>   -10.5018     0.0000    30.0000 </r>
       <r>   -10.4569     0.0000    30.0000 </r>
       <r>   -10.4120     0.0000    30.0000 </r>
       <r>   -10.3672     0.0000    30.0000 </r>
       <r>   -10.3223     0.0000    30.0000 </r>
       <r>   -10.2774     0.0000    30.0000 </r>
       <r>   -10.2325     0.0000    30.0000 </r>
       <r>   -10.1876     0.0000    30.0000 </r>
       <r>   -10.1427     0.0000    30.0000 </r>
       <r>   -10.0978     0.0000    30.0000 </r>
       <r>   -10.0529     0.0000    30.0000 </r>
       <r>   -10.0081     0.0000    30.0000 </r>
       <r>    -9.9632     0.0000    30.0000 </r>
       <r>    -9.9183     0.0000    30.0000 </r>
       <r>    -9.8734     0.0000    30.0000 </r>
       <r>    -9.8285     0.0000    30.0000 </r>
       <r>    -9.7836     0.0000    30.0000 </r>
       <r>    -9.7387     0.0000    30.0000 </r>
       <r>    -9.6939     0.0000    30.0000 </r>
       <r>    -9.6490     0.0000    30.0000 </r>
       <r>    -9.6041     0.0000    30.0000 </r>
       <r>    -9.5592     0.0000    30.0000 </r>
       <r>    -9.5143     0.0000    30.0000 </r>
       <r>    -9.4694     0.0000    30.0000 </r>
       <r>    -9.4245     0.0000    30.0000 </r>
       <r>    -9.3796     0.0000    30.0000 </r>
       <r>    -9.3348     0.0000    30.0000 </r>
       <r>    -9.2899     0.0000    30.0000 </r>
       <r>    -9.2450     0.0000    30.0000 </r>
       <r>    -9.2001     0.0000    30.0000 </r>
       <r>    -9.1552     0.0000    30.0000 </r>
       <r>    -9.1103     0.0000    30.0000 </r>
       <r>    -9.0654     0.0000    30.0000 </r>
       <r>    -9.0205     0.0000    30.0000 </r>
       <r>    -8.9757     0.0000    30.0000 </r>
       <r>    -8.9308     0.0000    30.0000 </r>
       <r>    -8.8859     0.0000    30.0000 </r>
       <r>    -8.8410     0.0000    30.0000 </r>
       <r>    -8.7961     0.0000    30.0000 </r>
       <r>    -8.7512     0.0000    30.0000 </r>
       <r>    -8.7063     0.0000    30.0000 </r>
       <r>    -8.6615     0.0000    30.0000 </r>
       <r>    -8.6166     0.0000    30.0000 </r>
       <r>    -8.5717     0.0000    30.0000 </r>
       <r>    -8.5268     0.0000    30.0000 </r>
       <r>    -8.4819     0.0000    30.0000 </r>
       <r>    -8.4370     0.0000    30.0000 </r>
       <r>    -8.3921     0.0000    30.0000 </r>
       <r>    -8.3472     0.0542    30.0024 </r>
       <r>    -8.3024    22.2240    31.0000 </r>
       <r>    -8.2575     0.0000    31.0000 </r>
       <r>    -8.2126     0.0000    31.0000 </r>
       <r>    -8.1677     0.0000    31.0000 </r>
       <r>    -8.1228     0.0000    31.0000 </r>
       <r>    -8.0779     0.0000    31.0000 </r>
       <r>    -8.0330     0.0000    31.0000 </r>
       <r>    -7.9882     0.0000    31.0000 </r>
       <r>    -7.9433     0.0000    31.0000 </r>
       <r>    -7.8984     0.0000    31.0000 </r>
       <r>    -7.8535     0.0000    31.0000 </r>
       <r>    -7.8086     0.0000    31.0000 </r>
       <r>    -7.7637     0.0000    31.0000 </r>
       <r>    -7.7188     0.0000    31.0000 </r>
       <r>    -7.6739     0.0000    31.0000 </r>
       <r>    -7.6291     0.0000    31.0000 </r>
       <r>    -7.5842     0.0000    31.0000 </r>
       <r>    -7.5393     0.0000    31.0000 </r>
       <r>    -7.4944     0.0000    31.0000 </r>
       <r>    -7.4495     0.0000    31.0000 </r>
       <r>    -7.4046     0.0000    31.0000 </r>
       <r>    -7.3597     0.0000    31.0000 </r>
       <r>    -7.3149     0.0000    31.0000 </r>
       <r>    -7.2700     0.0000    31.0000 </r>
       <r>    -7.2251     0.0000    31.0000 </r>
       <r>    -7.1802     0.0000    31.0000 </r>
       <r>    -7.1353     0.0000    31.0000 </r>
       <r>    -7.0904     0.0000    31.0000 </r>
       <r>    -7.0455     0.0000    31.0000 </r>
       <r>    -7.0006     0.0000    31.0000 </r>
       <r>    -6.9558     0.0000    31.0000 </r>
       <r>    -6.9109     0.0000    31.0000 </r>
       <r>    -6.8660     0.0000    31.0000 </r>
       <r>    -6.8211     0.0000    31.0000 </r>
       <r>    -6.7762     0.0000    31.0000 </r>
       <r>    -6.7313     0.0000    31.0000 </r>
       <r>    -6.6864    17.9810    31.8071 </r>
       <r>    -6.6415     0.0000    32.0000 </r>
       <r>    -6.5967     0.0000    32.0000 </r>
       <r>    -6.5518     0.0000    32.0000 </r>
       <r>    -6.5069     0.0000    32.0000 </r>
       <r>    -6.4620     0.0000    32.0000 </r>
       <r>    -6.4171     0.0000    32.0000 </r>
       <r>    -6.3722     0.0000    32.0000 </r>
       <r>    -6.3273     0.0000    32.0000 </r>
       <r>    -6.2825     0.0000    32.0000 </r>
       <r>    -6.2376     0.0000    32.0000 </r>
       <r>    -6.1927     0.0000    32.0000 </r>
       <r>    -6.1478     0.0000    32.0000 </r>
       <r>    -6.1029     0.0000    32.0000 </r>
       <r>    -6.0580     0.0000    32.0000 </r>
       <r>    -6.0131     0.0000    32.0000 </r>
       <r>    -5.9682     0.0000    32.0000 </r>
       <r>    -5.9234     0.0000    32.0000 </r>
       <r>    -5.8785     0.0000    32.0000 </r>
       <r>    -5.8336     0.0000    32.0000 </r>
       <r>    -5.7887     0.0000    32.0000 </r>
       <r>    -5.7438     0.0000    32.0000 </r>
       <r>    -5.6989     0.0000    32.0000 </r>
       <r>    -5.6540     0.0000    32.0000 </r>
       <r>    -5.6092     0.0000    32.0000 </r>
       <r>    -5.5643     0.0000    32.0000 </r>
       <r>    -5.5194     0.0000    32.0000 </r>
       <r>    -5.4745     0.0000    32.0000 </r>
       <r>    -5.4296     0.0000    32.0000 </r>
       <r>    -5.3847     0.0000    32.0000 </r>
       <r>    -5.3398    22.2778    33.0000 </r>
       <r>    -5.2949     0.0000    33.0000 </r>
       <r>    -5.2501     0.0000    33.0000 </r>
       <r>    -5.2052     7.7329    33.3471 </r>
       <r>    -5.1603     0.0000    34.0000 </r>
       <r>    -5.1154     0.0000    34.0000 </r>
       <r>    -5.0705     0.0000    34.0000 </r>
       <r>    -5.0256     0.0000    34.0000 </r>
       <r>    -4.9807     0.0000    34.0000 </r>
       <r>    -4.9358     0.0000    34.0000 </r>
       <r>    -4.8910     0.0000    34.0000 </r>
       <r>    -4.8461     0.0000    34.0000 </r>
       <r>    -4.8012     0.0000    34.0000 </r>
       <r>    -4.7563     0.0000    34.0000 </r>
       <r>    -4.7114    18.3593    34.8241 </r>
       <r>    -4.6665    22.2783    36.0000 </r>
       <r>    -4.6216     0.0000    36.0000 </r>
       <r>    -4.5768     0.0000    36.0000 </r>
       <r>    -4.5319     0.0000    36.0000 </r>
       <r>    -4.4870     0.0000    36.0000 </r>
       <r>    -4.4421     0.0000    36.0000 </r>
       <r>    -4.3972     0.0000    36.0000 </r>
       <r>    -4.3523     0.0000    36.0000 </r>
       <r>    -4.3074     0.0000    36.0000 </r>
       <r>    -4.2625     0.0000    36.0000 </r>
       <r>    -4.2177     0.0000    36.0000 </r>
       <r>    -4.1728     0.0000    36.0000 </r>
       <r>    -4.1279     0.0000    36.0000 </r>
       <r>    -4.0830     0.0000    36.0000 </r>
       <r>    -4.0381     0.0000    36.0000 </r>
       <r>    -3.9932     0.0000    36.0000 </r>
       <r>    -3.9483     0.0000    36.0000 </r>
       <r>    -3.9035     0.0000    36.0000 </r>
       <r>    -3.8586     0.0000    36.0000 </r>
       <r>    -3.8137     0.0000    36.0000 </r>
       <r>    -3.7688     0.0000    36.0000 </r>
       <r>    -3.7239     0.0000    36.0000 </r>
       <r>    -3.6790     0.0000    36.0000 </r>
       <r>    -3.6341     0.0000    36.0000 </r>
       <r>    -3.5892     0.0000    36.0000 </r>
       <r>    -3.5444     0.0000    36.0000 </r>
       <r>    -3.4995     0.0000    36.0000 </r>
       <r>    -3.4546     0.0000    36.0000 </r>
       <r>    -3.4097     0.0000    36.0000 </r>
       <r>    -3.3648     0.0000    36.0000 </r>
       <r>    -3.3199     0.0000    36.0000 </r>
       <r>    -3.2750     0.0000    36.0000 </r>
       <r>    -3.2302     0.0000    36.0000 </r>
       <r>    -3.1853     0.0000    36.0000 </r>
       <r>    -3.1404     0.0000    36.0000 </r>
       <r>    -3.0955     0.0000    36.0000 </r>
       <r>    -3.0506     0.0000    36.0000 </r>
       <r>    -3.0057     0.0000    36.0000 </r>
       <r>    -2.9608     0.0000    36.0000 </r>
       <r>    -2.9159     0.0000    36.0000 </r>
       <r>    -2.8711     0.0000    36.0000 </r>
       <r>    -2.8262     0.0000    36.0000 </r>
       <r>    -2.7813     0.0000    36.0000 </r>
       <r>    -2.7364     0.0000    36.0000 </r>
       <r>    -2.6915     0.0000    36.0000 </r>
       <r>    -2.6466     0.0000    36.0000 </r>
       <r>    -2.6017     0.0000    36.0000 </r>
       <r>    -2.5568     0.0000    36.0000 </r>
       <r>    -2.5120     0.0000    36.0000 </r>
       <r>    -2.4671     0.0000    36.0000 </r>
       <r>    -2.4222     0.0000    36.0000 </r>
       <r>    -2.3773     0.0000    36.0000 </r>
       <r>    -2.3324     0.0000    36.0000 </r>
       <r>    -2.2875    21.7272    36.9753 </r>
       <r>    -2.2426     0.0000    37.0000 </r>
       <r>    -2.1978     0.0000    37.0000 </r>
       <r>    -2.1529     0.0000    37.0000 </r>
       <r>    -2.1080     0.0000    37.0000 </r>
       <r>    -2.0631    44.5565    39.0000 </r>
       <r>    -2.0182     0.0000    39.0000 </r>
       <r>    -1.9733     0.0000    39.0000 </r>
       <r>    -1.9284     0.0000    39.0000 </r>
       <r>    -1.8835     0.0000    39.0000 </r>
       <r>    -1.8387    23.4400    40.0521 </r>
       <r>    -1.7938    21.1163    41.0000 </r>
       <r>    -1.7489     0.0000    41.0000 </r>
       <r>    -1.7040     0.0000    41.0000 </r>
       <r>    -1.6591     0.0000    41.0000 </r>
       <r>    -1.6142     0.0000    41.0000 </r>
       <r>    -1.5693     0.0000    41.0000 </r>
       <r>    -1.5245    22.2394    41.9983 </r>
       <r>    -1.4796     0.0000    42.0000 </r>
       <r>    -1.4347     0.0000    42.0000 </r>
       <r>    -1.3898     0.0000    42.0000 </r>
       <r>    -1.3449     0.0000    42.0000 </r>
       <r>    -1.3000     0.0000    42.0000 </r>
       <r>    -1.2551     0.0000    42.0000 </r>
       <r>    -1.2102     0.0000    42.0000 </r>
       <r>    -1.1654    16.3901    42.7357 </r>
       <r>    -1.1205     0.0000    43.0000 </r>
       <r>    -1.0756     0.0000    43.0000 </r>
       <r>    -1.0307     0.0000    43.0000 </r>
       <r>    -0.9858     0.0000    43.0000 </r>
       <r>    -0.9409     0.0000    43.0000 </r>
       <r>    -0.8960     0.0000    43.0000 </r>
       <r>    -0.8511     0.0000    43.0000 </r>
       <r>    -0.8063     0.0000    43.0000 </r>
       <r>    -0.7614     0.0000    43.0000 </r>
       <r>    -0.7165     0.0000    43.0000 </r>
       <r>    -0.6716     0.0000    43.0000 </r>
       <r>    -0.6267    22.2782    44.0000 </r>
       <r>    -0.5818     0.0000    44.0000 </r>
       <r>    -0.5369     0.0000    44.0000 </r>
       <r>    -0.4921     0.0000    44.0000 </r>
       <r>    -0.4472     0.0000    44.0000 </r>
       <r>    -0.4023     0.0000    44.0000 </r>
       <r>    -0.3574     0.0000    44.0000 </r>
       <r>    -0.3125     0.0000    44.0000 </r>
       <r>    -0.2676     0.0013    44.0001 </r>
       <r>    -0.2227    22.2769    45.0000 </r>
       <r>    -0.1778     0.0000    45.0000 </r>
       <r>    -0.1330     0.0000    45.0000 </r>
       <r>    -0.0881     0.0000    45.0000 </r>
       <r>    -0.0432     0.0000    45.0000 </r>
       <r>     0.0017     0.0000    45.0000 </r>
       <r>     0.0466    22.2782    46.0000 </r>
       <r>     0.0915     0.0000    46.0000 </r>
       <r>     0.1364     0.0000    46.0000 </r>
       <r>     0.1812     0.0000    46.0000 </r>
       <r>     0.2261     0.0000    46.0000 </r>
       <r>     0.2710     0.0000    46.0000 </r>
       <r>     0.3159     0.0000    46.0000 </r>
       <r>     0.3608     0.0000    46.0000 </r>
       <r>     0.4057     0.0000    46.0000 </r>
       <r>     0.4506     0.0000    46.0000 </r>
       <r>     0.4955     0.0000    46.0000 </r>
       <r>     0.5403     0.0000    46.0000 </r>
       <r>     0.5852     0.0000    46.0000 </r>
       <r>     0.6301     0.0000    46.0000 </r>
      </set>
     </set>
    </array>
   </total>
   <partial>
    <array>
     <dimension dim="1">gridpoints</dimension>
     <dimension dim="2">spin</dimension>
     <dimension dim="3">ion</dimension>
     <field>energy</field>
     <field>  s  </field>
     <field>  p  </field>
     <field>  d  </field>
     <field>  f  </field>
     <set>
      <set comment="ion 1">
       <set comment="spin 1">
        <r>   -12.8359     0.0000     0.0000     0.0000     0.0000 </r>
        <r>   -12.7910     0.0000     0.0000     0.0000     0.0000 </r>
        <r>   -12.7462     0.0000     0.0000     0.0000     0.0000 </r>
        <r>   -12.7013     0.0000     0.0000     0.0000     0.0000 </r>
        <r>   -12.6564     0.0000     0.0000     0.0000     0.0000 </r>
        <r>   -12.6115     0.0000     0.0000     0.0000     0.0000 </r>
        <r>   -12.5666     0.0000     0.0000     0.0000     0.0000 </r>
        <r>   -12.5217     0.0000     0.0000     0.0000     0.0000 </r>
        <r>   -12.4768     0.0000     0.0000     0.0000     0.0000 </r>
        <r>   -12.4319     0.0000     0.0000     0.0000     0.0000 </r>
        <r>   -12.3871     0.0000     0.0000     0.0000     0.0000 </r>
        <r>   -12.3422     0.0000     0.0000     0.0000     0.0000 </r>
        <r>   -12.2973     0.0000     0.0000     0.0000     0.0000 </r>
        <r>   -12.2524     0.0000     0.0000     0.0000     0.0000 </r>
        <r>   -12.2075     0.0463     0.0368    17.9208     0.0025 </r>
        <r>   -12.1626     0.0000     0.0000     0.0000     0.0000 </r>
        <r>   -12.1177     0.0000     0.0000     0.0103     0.0000 </r>
        <r>   -12.0729     0.0001     0.0055     9.0770     0.0008 </r>
        <r>   -12.0280     0.0085     0.0013     7.2587     0.0006 </r>
        <r>   -11.9831     0.0179     0.0019    21.3008     0.0006 </r>
        <r>   -11.9382     0.0000     0.0000     0.0000     0.0000 </r>
        <r>   -11.8933     0.0000     0.0032     5.9762     0.0005 </r>
        <r>   -11.8484     0.0277     0.0048     7.3431     0.0006 </r>
        <r>   -11.8035     0.0003     0.0001     0.1752     0.0000 </r>
        <r>   -11.7586     0.0130     0.0026     7.9230     0.0002 </r>
        <r>   -11.7138     0.0199     0.0070     4.1464     0.0006 </r>
        <r>   -11.6689     0.0001     0.0002     1.4860     0.0003 </r>
        <r>   -11.6240     0.0002     0.0144     8.1495     0.0003 </r>
        <r>   -11.5791     0.0001     0.0019     1.8941     0.0006 </r>
        <r>   -11.5342     0.0006     0.0046     9.4181     0.0016 </r>
        <r>   -11.4893     0.0000     0.0000     1.3502     0.0003 </r>
        <r>   -11.4444     0.0000     0.0000     0.0000     0.0000 </r>
        <r>   -11.3995     0.0000     0.0000     0.0000     0.0000 </r>
        <r>   -11.3547     0.0000     0.0000     0.0000     0.0000 </r>
        <r>   -11.3098     0.0000     0.0000     0.0000     0.0000 </r>
        <r>   -11.2649     0.0000     0.0000     0.0000     0.0000 </r>
        <r>   -11.2200     0.0000     0.0000     0.0000     0.0000 </r>
        <r>   -11.1751     0.0000     0.0000     0.0000     0.0000 </r>
        <r>   -11.1302     0.0000     0.0000     0.0000     0.0000 </r>
        <r>   -11.0853     0.0000     0.0000     0.0000     0.0000 </r>
        <r>   -11.0405     0.0000     0.0000     0.0000     0.0000 </r>
        <r>   -10.9956     0.0000     0.0000     0.0000     0.0000 </r>
        <r>   -10.9507     0.0000     0.0000     0.0000     0.0000 </r>
        <r>   -10.9058     0.0000     0.0000     0.0000     0.0000 </r>
        <r>   -10.8609     0.0000     0.0000     0.0000     0.0000 </r>
        <r>   -10.8160     0.0000     0.0000     0.0000     0.0000 </r>
        <r>   -10.7711     0.0000     0.0000     0.0000     0.0000 </r>
        <r>   -10.7262     0.0000     0.0000     0.0000     0.0000 </r>
        <r>   -10.6814     0.0000     0.0000     0.0000     0.0000 </r>
        <r>   -10.6365     0.0000     0.0000     0.0000     0.0000 </r>
        <r>   -10.5916     0.0000     0.0000     0.0000     0.0000 </r>
        <r>   -10.5467     0.0000     0.0000     0.0000     0.0000 </r>
        <r>   -10.5018     0.0000     0.0000     0.0000     0.0000 </r>
        <r>   -10.4569     0.0000     0.0000     0.0000     0.0000 </r>
        <r>   -10.4120     0.0000     0.0000     0.0000     0.0000 </r>
        <r>   -10.3672     0.0000     0.0000     0.0000     0.0000 </r>
        <r>   -10.3223     0.0000     0.0000     0.0000     0.0000 </r>
        <r>   -10.2774     0.0000     0.0000     0.0000     0.0000 </r>
        <r>   -10.2325     0.0000     0.0000     0.0000     0.0000 </r>
        <r>   -10.1876     0.0000     0.0000     0.0000     0.0000 </r>
        <r>   -10.1427     0.0000     0.0000     0.0000     0.0000 </r>
        <r>   -10.0978     0.0000     0.0000     0.0000     0.0000 </r>
        <r>   -10.0529     0.0000     0.0000     0.0000     0.0000 </r>
        <r>   -10.0081     0.0000     0.0000     0.0000     0.0000 </r>
        <r>    -9.9632     0.0000     0.0000     0.0000     0.0000 </r>
        <r>    -9.9183     0.0000     0.0000     0.0000     0.0000 </r>
        <r>    -9.8734     0.0000     0.0000     0.0000     0.0000 </r>
        <r>    -9.8285     0.0000     0.0000     0.0000     0.0000 </r>
        <r>    -9.7836     0.0000     0.0000     0.0000     0.0000 </r>
        <r>    -9.7387     0.0000     0.0000     0.0000     0.0000 </r>
        <r>    -9.6939     0.0000     0.0000     0.0000     0.0000 </r>
        <r>    -9.6490     0.0000     0.0000     0.0000     0.0000 </r>
        <r>    -9.6041     0.0000     0.0000     0.0000     0.0000 </r>
        <r>    -9.5592     0.0000     0.0000     0.0000     0.0000 </r>
        <r>    -9.5143     0.0000     0.0000     0.0000     0.0000 </r>
        <r>    -9.4694     0.0000     0.0000     0.0000     0.0000 </r>
        <r>    -9.4245     0.0000     0.0000     0.0000     0.0000 </r>
        <r>    -9.3796     0.0000     0.0000     0.0000     0.0000 </r>
        <r>    -9.3348     0.0000     0.0000     0.0000     0.0000 </r>
        <r>    -9.2899     0.0000     0.0000     0.0000     0.0000 </r>
        <r>    -9.2450     0.0000     0.0000     0.0000     0.0000 </r>
        <r>    -9.2001     0.0000     0.0000     0.0000     0.0000 </r>
        <r>    -9.1552     0.0000     0.0000     0.0000     0.0000 </r>
        <r>    -9.1103     0.0000     0.0000     0.0000     0.0000 </r>
        <r>    -9.0654     0.0000     0.0000     0.0000     0.0000 </r>
        <r>    -9.0205     0.0000     0.0000     0.0000     0.0000 </r>
        <r>    -8.9757     0.0000     0.0000     0.0000     0.0000 </r>
        <r>    -8.9308     0.0000     0.0000     0.0000     0.0000 </r>
        <r>    -8.8859     0.0000     0.0000     0.0000     0.0000 </r>
        <r>    -8.8410     0.0000     0.0000     0.0000     0.0000 </r>
        <r>    -8.7961     0.0000     0.0000     0.0000     0.0000 </r>
        <r>    -8.7512     0.0000     0.0000     0.0000     0.0000 </r>
        <r>    -8.7063     0.0000     0.0000     0.0000     0.0000 </r>
        <r>    -8.6615     0.0000     0.0000     0.0000     0.0000 </r>
        <r>    -8.6166     0.0000     0.0000     0.0000     0.0000 </r>
        <r>    -8.5717     0.0000     0.0000     0.0000     0.0000 </r>
        <r>    -8.5268     0.0000     0.0000     0.0000     0.0000 </r>
        <r>    -8.4819     0.0000     0.0000     0.0000     0.0000 </r>
        <r>    -8.4370     0.0000     0.0000     0.0000     0.0000 </r>
        <r>    -8.3921     0.0000     0.0000     0.0000     0.0000 </r>
        <r>    -8.3472     0.0062     0.0004     0.0002     0.0000 </r>
        <r>    -8.3024     2.5574     0.1711     0.0629     0.0003 </r>
        <r>    -8.2575     0.0000     0.0000     0.0000     0.0000 </r>
        <r>    -8.2126     0.0000     0.0000     0.0000     0.0000 </r>
        <r>    -8.1677     0.0000     0.0000     0.0000     0.0000 </r>
        <r>    -8.1228     0.0000     0.0000     0.0000     0.0000 </r>
        <r>    -8.0779     0.0000     0.0000     0.0000     0.0000 </r>
        <r>    -8.0330     0.0000     0.0000     0.0000     0.0000 </r>
        <r>    -7.9882     0.0000     0.0000     0.0000     0.0000 </r>
        <r>    -7.9433     0.0000     0.0000     0.0000     0.0000 </r>
        <r>    -7.8984     0.0000     0.0000     0.0000     0.0000 </r>
        <r>    -7.8535     0.0000     0.0000     0.0000     0.0000 </r>
        <r>    -7.8086     0.0000     0.0000     0.0000     0.0000 </r>
        <r>    -7.7637     0.0000     0.0000     0.0000     0.0000 </r>
        <r>    -7.7188     0.0000     0.0000     0.0000     0.0000 </r>
        <r>    -7.6739     0.0000     0.0000     0.0000     0.0000 </r>
        <r>    -7.6291     0.0000     0.0000     0.0000     0.0000 </r>
        <r>    -7.5842     0.0000     0.0000     0.0000     0.0000 </r>
        <r>    -7.5393     0.0000     0.0000     0.0000     0.0000 </r>
        <r>    -7.4944     0.0000     0.0000     0.0000     0.0000 </r>
        <r>    -7.4495     0.0000     0.0000     0.0000     0.0000 </r>
        <r>    -7.4046     0.0000     0.0000     0.0000     0.0000 </r>
        <r>    -7.3597     0.0000     0.0000     0.0000     0.0000 </r>
        <r>    -7.3149     0.0000     0.0000     0.0000     0.0000 </r>
        <r>    -7.2700     0.0000     0.0000     0.0000     0.0000 </r>
        <r>    -7.2251     0.0000     0.0000     0.0000     0.0000 </r>
        <r>    -7.1802     0.0000     0.0000     0.0000     0.0000 </r>
        <r>    -7.1353     0.0000     0.0000     0.0000     0.0000 </r>
        <r>    -7.0904     0.0000     0.0000     0.0000     0.0000 </r>
        <r>    -7.0455     0.0000     0.0000     0.0000     0.0000 </r>
        <r>    -7.0006     0.0000     0.0000     0.0000     0.0000 </r>
        <r>    -6.9558     0.0000     0.0000     0.0000     0.0000 </r>
        <r>    -6.9109     0.0000     0.0000     0.0000     0.0000 </r>
        <r>    -6.8660     0.0000     0.0000     0.0000     0.0000 </r>
        <r>    -6.8211     0.0000     0.0000     0.0000     0.0000 </r>
        <r>    -6.7762     0.0000     0.0000     0.0000     0.0000 </r>
        <r>    -6.7313     0.0000     0.0000     0.0000     0.0000 </r>
        <r>    -6.6864     0.0000     0.2808     0.1123     0.0001 </r>
        <r>    -6.6415     0.0000     0.0000     0.0000     0.0000 </r>
        <r>    -6.5967     0.0000     0.0000     0.0000     0.0000 </r>
        <r>    -6.5518     0.0000     0.0000     0.0000     0.0000 </r>
        <r>    -6.5069     0.0000     0.0000     0.0000     0.0000 </r>
        <r>    -6.4620     0.0000     0.0000     0.0000     0.0000 </r>
        <r>    -6.4171     0.0000     0.0000     0.0000     0.0000 </r>
        <r>    -6.3722     0.0000     0.0000     0.0000     0.0000 </r>
        <r>    -6.3273     0.0000     0.0000     0.0000     0.0000 </r>
        <r>    -6.2825     0.0000     0.0000     0.0000     0.0000 </r>
        <r>    -6.2376     0.0000     0.0000     0.0000     0.0000 </r>
        <r>    -6.1927     0.0000     0.0000     0.0000     0.0000 </r>
        <r>    -6.1478     0.0000     0.0000     0.0000     0.0000 </r>
        <r>    -6.1029     0.0000     0.0000     0.0000     0.0000 </r>
        <r>    -6.0580     0.0000     0.0000     0.0000     0.0000 </r>
        <r>    -6.0131     0.0000     0.0000     0.0000     0.0000 </r>
        <r>    -5.9682     0.0000     0.0000     0.0000     0.0000 </r>
        <r>    -5.9234     0.0000     0.0000     0.0000     0.0000 </r>
        <r>    -5.8785     0.0000     0.0000     0.0000     0.0000 </r>
        <r>    -5.8336     0.0000     0.0000     0.0000     0.0000 </r>
        <r>    -5.7887     0.0000     0.0000     0.0000     0.0000 </r>
        <r>    -5.7438     0.0000     0.0000     0.0000     0.0000 </r>
        <r>    -5.6989     0.0000     0.0000     0.0000     0.0000 </r>
        <r>    -5.6540     0.0000     0.0000     0.0000     0.0000 </r>
        <r>    -5.6092     0.0000     0.0000     0.0000     0.0000 </r>
        <r>    -5.5643     0.0000     0.0000     0.0000     0.0000 </r>
        <r>    -5.5194     0.0000     0.0000     0.0000     0.0000 </r>
        <r>    -5.4745     0.0000     0.0000     0.0000     0.0000 </r>
        <r>    -5.4296     0.0000     0.0000     0.0000     0.0000 </r>
        <r>    -5.3847     0.0000     0.0000     0.0000     0.0000 </r>
        <r>    -5.3398     0.0951     0.3355     0.0706     0.0022 </r>
        <r>    -5.2949     0.0000     0.0000     0.0000     0.0000 </r>
        <r>    -5.2501     0.0000     0.0000     0.0000     0.0000 </r>
        <r>    -5.2052     1.4947     0.0495     0.0228     0.0007 </r>
        <r>    -5.1603     0.0000     0.0000     0.0000     0.0000 </r>
        <r>    -5.1154     0.0000     0.0000     0.0000     0.0000 </r>
        <r>    -5.0705     0.0000     0.0000     0.0000     0.0000 </r>
        <r>    -5.0256     0.0000     0.0000     0.0000     0.0000 </r>
        <r>    -4.9807     0.0000     0.0000     0.0000     0.0000 </r>
        <r>    -4.9358     0.0000     0.0000     0.0000     0.0000 </r>
        <r>    -4.8910     0.0000     0.0000     0.0000     0.0000 </r>
        <r>    -4.8461     0.0000     0.0000     0.0000     0.0000 </r>
        <r>    -4.8012     0.0000     0.0000     0.0000     0.0000 </r>
        <r>    -4.7563     0.0000     0.0000     0.0000     0.0000 </r>
        <r>    -4.7114     0.0128     0.0007     0.0872     0.0033 </r>
        <r>    -4.6665     2.1181     0.0130     0.0725     0.0035 </r>
        <r>    -4.6216     0.0000     0.0000     0.0000     0.0000 </r>
        <r>    -4.5768     0.0000     0.0000     0.0000     0.0000 </r>
        <r>    -4.5319     0.0000     0.0000     0.0000     0.0000 </r>
        <r>    -4.4870     0.0000     0.0000     0.0000     0.0000 </r>
        <r>    -4.4421     0.0000     0.0000     0.0000     0.0000 </r>
        <r>    -4.3972     0.0000     0.0000     0.0000     0.0000 </r>
        <r>    -4.3523     0.0000     0.0000     0.0000     0.0000 </r>
        <r>    -4.3074     0.0000     0.0000     0.0000     0.0000 </r>
        <r>    -4.2625     0.0000     0.0000     0.0000     0.0000 </r>
        <r>    -4.2177     0.0000     0.0000     0.0000     0.0000 </r>
        <r>    -4.1728     0.0000     0.0000     0.0000     0.0000 </r>
        <r>    -4.1279     0.0000     0.0000     0.0000     0.0000 </r>
        <r>    -4.0830     0.0000     0.0000     0.0000     0.0000 </r>
        <r>    -4.0381     0.0000     0.0000     0.0000     0.0000 </r>
        <r>    -3.9932     0.0000     0.0000     0.0000     0.0000 </r>
        <r>    -3.9483     0.0000     0.0000     0.0000     0.0000 </r>
        <r>    -3.9035     0.0000     0.0000     0.0000     0.0000 </r>
        <r>    -3.8586     0.0000     0.0000     0.0000     0.0000 </r>
        <r>    -3.8137     0.0000     0.0000     0.0000     0.0000 </r>
        <r>    -3.7688     0.0000     0.0000     0.0000     0.0000 </r>
        <r>    -3.7239     0.0000     0.0000     0.0000     0.0000 </r>
        <r>    -3.6790     0.0000     0.0000     0.0000     0.0000 </r>
        <r>    -3.6341     0.0000     0.0000     0.0000     0.0000 </r>
        <r>    -3.5892     0.0000     0.0000     0.0000     0.0000 </r>
        <r>    -3.5444     0.0000     0.0000     0.0000     0.0000 </r>
        <r>    -3.4995     0.0000     0.0000     0.0000     0.0000 </r>
        <r>    -3.4546     0.0000     0.0000     0.0000     0.0000 </r>
        <r>    -3.4097     0.0000     0.0000     0.0000     0.0000 </r>
        <r>    -3.3648     0.0000     0.0000     0.0000     0.0000 </r>
        <r>    -3.3199     0.0000     0.0000     0.0000     0.0000 </r>
        <r>    -3.2750     0.0000     0.0000     0.0000     0.0000 </r>
        <r>    -3.2302     0.0000     0.0000     0.0000     0.0000 </r>
        <r>    -3.1853     0.0000     0.0000     0.0000     0.0000 </r>
        <r>    -3.1404     0.0000     0.0000     0.0000     0.0000 </r>
        <r>    -3.0955     0.0000     0.0000     0.0000     0.0000 </r>
        <r>    -3.0506     0.0000     0.0000     0.0000     0.0000 </r>
        <r>    -3.0057     0.0000     0.0000     0.0000     0.0000 </r>
        <r>    -2.9608     0.0000     0.0000     0.0000     0.0000 </r>
        <r>    -2.9159     0.0000     0.0000     0.0000     0.0000 </r>
        <r>    -2.8711     0.0000     0.0000     0.0000     0.0000 </r>
        <r>    -2.8262     0.0000     0.0000     0.0000     0.0000 </r>
        <r>    -2.7813     0.0000     0.0000     0.0000     0.0000 </r>
        <r>    -2.7364     0.0000     0.0000     0.0000     0.0000 </r>
        <r>    -2.6915     0.0000     0.0000     0.0000     0.0000 </r>
        <r>    -2.6466     0.0000     0.0000     0.0000     0.0000 </r>
        <r>    -2.6017     0.0000     0.0000     0.0000     0.0000 </r>
        <r>    -2.5568     0.0000     0.0000     0.0000     0.0000 </r>
        <r>    -2.5120     0.0000     0.0000     0.0000     0.0000 </r>
        <r>    -2.4671     0.0000     0.0000     0.0000     0.0000 </r>
        <r>    -2.4222     0.0000     0.0000     0.0000     0.0000 </r>
        <r>    -2.3773     0.0000     0.0000     0.0000     0.0000 </r>
        <r>    -2.3324     0.0000     0.0000     0.0000     0.0000 </r>
        <r>    -2.2875     0.0000     0.9311     0.0060     0.0048 </r>
        <r>    -2.2426     0.0000     0.0000     0.0000     0.0000 </r>
        <r>    -2.1978     0.0000     0.0000     0.0000     0.0000 </r>
        <r>    -2.1529     0.0000     0.0000     0.0000     0.0000 </r>
        <r>    -2.1080     0.0000     0.0000     0.0000     0.0000 </r>
        <r>    -2.0631     0.2313     2.8184     0.0941     0.0042 </r>
        <r>    -2.0182     0.0000     0.0000     0.0000     0.0000 </r>
        <r>    -1.9733     0.0000     0.0000     0.0000     0.0000 </r>
        <r>    -1.9284     0.0000     0.0000     0.0000     0.0000 </r>
        <r>    -1.8835     0.0000     0.0000     0.0000     0.0000 </r>
        <r>    -1.8387     0.0541     1.2072     0.0462     0.0024 </r>
        <r>    -1.7938     0.0522     0.1367     0.0634     0.0038 </r>
        <r>    -1.7489     0.0000     0.0000     0.0000     0.0000 </r>
        <r>    -1.7040     0.0000     0.0000     0.0000     0.0000 </r>
        <r>    -1.6591     0.0000     0.0000     0.0000     0.0000 </r>
        <r>    -1.6142     0.0000     0.0000     0.0000     0.0000 </r>
        <r>    -1.5693     0.0000     0.0000     0.0000     0.0000 </r>
        <r>    -1.5245     0.0246     1.0898     0.0155     0.0054 </r>
        <r>    -1.4796     0.0000     0.0000     0.0000     0.0000 </r>
        <r>    -1.4347     0.0000     0.0000     0.0000     0.0000 </r>
        <r>    -1.3898     0.0000     0.0000     0.0000     0.0000 </r>
        <r>    -1.3449     0.0000     0.0000     0.0000     0.0000 </r>
        <r>    -1.3000     0.0000     0.0000     0.0000     0.0000 </r>
        <r>    -1.2551     0.0000     0.0000     0.0000     0.0000 </r>
        <r>    -1.2102     0.0000     0.0000     0.0000     0.0000 </r>
        <r>    -1.1654     0.0000     0.0591     0.0064     0.0049 </r>
        <r>    -1.1205     0.0000     0.0000     0.0000     0.0000 </r>
        <r>    -1.0756     0.0000     0.0000     0.0000     0.0000 </r>
        <r>    -1.0307     0.0000     0.0000     0.0000     0.0000 </r>
        <r>    -0.9858     0.0000     0.0000     0.0000     0.0000 </r>
        <r>    -0.9409     0.0000     0.0000     0.0000     0.0000 </r>
        <r>    -0.8960     0.0000     0.0000     0.0000     0.0000 </r>
        <r>    -0.8511     0.0000     0.0000     0.0000     0.0000 </r>
        <r>    -0.8063     0.0000     0.0000     0.0000     0.0000 </r>
        <r>    -0.7614     0.0000     0.0000     0.0000     0.0000 </r>
        <r>    -0.7165     0.0000     0.0000     0.0000     0.0000 </r>
        <r>    -0.6716     0.0000     0.0000     0.0000     0.0000 </r>
        <r>    -0.6267     0.6794     0.1628     0.0460     0.0002 </r>
        <r>    -0.5818     0.0000     0.0000     0.0000     0.0000 </r>
        <r>    -0.5369     0.0000     0.0000     0.0000     0.0000 </r>
        <r>    -0.4921     0.0000     0.0000     0.0000     0.0000 </r>
        <r>    -0.4472     0.0000     0.0000     0.0000     0.0000 </r>
        <r>    -0.4023     0.0000     0.0000     0.0000     0.0000 </r>
        <r>    -0.3574     0.0000     0.0000     0.0000     0.0000 </r>
        <r>    -0.3125     0.0000     0.0000     0.0000     0.0000 </r>
        <r>    -0.2676     0.0000     0.0000     0.0000     0.0000 </r>
        <r>    -0.2227     0.0000     0.0004     0.1051     0.0006 </r>
        <r>    -0.1778     0.0000     0.0000     0.0000     0.0000 </r>
        <r>    -0.1330     0.0000     0.0000     0.0000     0.0000 </r>
        <r>    -0.0881     0.0000     0.0000     0.0000     0.0000 </r>
        <r>    -0.0432     0.0000     0.0000     0.0000     0.0000 </r>
        <r>     0.0017     0.0000     0.0000     0.0000     0.0000 </r>
        <r>     0.0466     0.1247     0.2092     0.0459     0.0054 </r>
        <r>     0.0915     0.0000     0.0000     0.0000     0.0000 </r>
        <r>     0.1364     0.0000     0.0000     0.0000     0.0000 </r>
        <r>     0.1812     0.0000     0.0000     0.0000     0.0000 </r>
        <r>     0.2261     0.0000     0.0000     0.0000     0.0000 </r>
        <r>     0.2710     0.0000     0.0000     0.0000     0.0000 </r>
        <r>     0.3159     0.0000     0.0000     0.0000     0.0000 </r>
        <r>     0.3608     0.0000     0.0000     0.0000     0.0000 </r>
        <r>     0.4057     0.0000     0.0000     0.0000     0.0000 </r>
        <r>     0.4506     0.0000     0.0000     0.0000     0.0000 </r>
        <r>     0.4955     0.0000     0.0000     0.0000     0.0000 </r>
        <r>     0.5403     0.0000     0.0000     0.0000     0.0000 </r>
        <r>     0.5852     0.0000     0.0000     0.0000     0.0000 </r>
        <r>     0.6301     0.0000     0.0000     0.0000     0.0000 </r>
       </set>
       <set comment="spin 2">
        <r>   -12.8359     0.0000     0.0000     0.0000     0.0000 </r>
        <r>   -12.7910     0.0000     0.0000     0.0000     0.0000 </r>
        <r>   -12.7462     0.0000     0.0000     0.0000     0.0000 </r>
        <r>   -12.7013     0.0000     0.0000     0.0000     0.0000 </r>
        <r>   -12.6564     0.0000     0.0000     0.0000     0.0000 </r>
        <r>   -12.6115     0.0000     0.0000     0.0000     0.0000 </r>
        <r>   -12.5666     0.0000     0.0000     0.0000     0.0000 </r>
        <r>   -12.5217     0.0000     0.0000     0.0000     0.0000 </r>
        <r>   -12.4768     0.0000     0.0000     0.0000     0.0000 </r>
        <r>   -12.4319     0.0000     0.0000     0.0000     0.0000 </r>
        <r>   -12.3871     0.0000     0.0000     0.0000     0.0000 </r>
        <r>   -12.3422     0.0000     0.0000     0.0000     0.0000 </r>
        <r>   -12.2973     0.0000     0.0000     0.0000     0.0000 </r>
        <r>   -12.2524     0.0000     0.0000     0.0000     0.0000 </r>
        <r>   -12.2075     0.0463     0.0368    17.9208     0.0025 </r>
        <r>   -12.1626     0.0000     0.0000     0.0000     0.0000 </r>
        <r>   -12.1177     0.0000     0.0000     0.0103     0.0000 </r>
        <r>   -12.0729     0.0001     0.0055     9.0770     0.0008 </r>
        <r>   -12.0280     0.0085     0.0013     7.2587     0.0006 </r>
        <r>   -11.9831     0.0179     0.0019    21.3008     0.0006 </r>
        <r>   -11.9382     0.0000     0.0000     0.0000     0.0000 </r>
        <r>   -11.8933     0.0000     0.0032     5.9762     0.0005 </r>
        <r>   -11.8484     0.0277     0.0048     7.3431     0.0006 </r>
        <r>   -11.8035     0.0003     0.0001     0.1752     0.0000 </r>
        <r>   -11.7586     0.0130     0.0026     7.9230     0.0002 </r>
        <r>   -11.7138     0.0199     0.0070     4.1464     0.0006 </r>
        <r>   -11.6689     0.0001     0.0002     1.4860     0.0003 </r>
        <r>   -11.6240     0.0002     0.0144     8.1495     0.0003 </r>
        <r>   -11.5791     0.0001     0.0019     1.8941     0.0006 </r>
        <r>   -11.5342     0.0006     0.0046     9.4181     0.0016 </r>
        <r>   -11.4893     0.0000     0.0000     1.3502     0.0003 </r>
        <r>   -11.4444     0.0000     0.0000     0.0000     0.0000 </r>
        <r>   -11.3995     0.0000     0.0000     0.0000     0.0000 </r>
        <r>   -11.3547     0.0000     0.0000     0.0000     0.0000 </r>
        <r>   -11.3098     0.0000     0.0000     0.0000     0.0000 </r>
        <r>   -11.2649     0.0000     0.0000     0.0000     0.0000 </r>
        <r>   -11.2200     0.0000     0.0000     0.0000     0.0000 </r>
        <r>   -11.1751     0.0000     0.0000     0.0000     0.0000 </r>
        <r>   -11.1302     0.0000     0.0000     0.0000     0.0000 </r>
        <r>   -11.0853     0.0000     0.0000     0.0000     0.0000 </r>
        <r>   -11.0405     0.0000     0.0000     0.0000     0.0000 </r>
        <r>   -10.9956     0.0000     0.0000     0.0000     0.0000 </r>
        <r>   -10.9507     0.0000     0.0000     0.0000     0.0000 </r>
        <r>   -10.9058     0.0000     0.0000     0.0000     0.0000 </r>
        <r>   -10.8609     0.0000     0.0000     0.0000     0.0000 </r>
        <r>   -10.8160     0.0000     0.0000     0.0000     0.0000 </r>
        <r>   -10.7711     0.0000     0.0000     0.0000     0.0000 </r>
        <r>   -10.7262     0.0000     0.0000     0.0000     0.0000 </r>
        <r>   -10.6814     0.0000     0.0000     0.0000     0.0000 </r>
        <r>   -10.6365     0.0000     0.0000     0.0000     0.0000 </r>
        <r>   -10.5916     0.0000     0.0000     0.0000     0.0000 </r>
        <r>   -10.5467     0.0000     0.0000     0.0000     0.0000 </r>
        <r>   -10.5018     0.0000     0.0000     0.0000     0.0000 </r>
        <r>   -10.4569     0.0000     0.0000     0.0000     0.0000 </r>
        <r>   -10.4120     0.0000     0.0000     0.0000     0.0000 </r>
        <r>   -10.3672     0.0000     0.0000     0.0000     0.0000 </r>
        <r>   -10.3223     0.0000     0.0000     0.0000     0.0000 </r>
        <r>   -10.2774     0.0000     0.0000     0.0000     0.0000 </r>
        <r>   -10.2325     0.0000     0.0000     0.0000     0.0000 </r>
        <r>   -10.1876     0.0000     0.0000     0.0000     0.0000 </r>
        <r>   -10.1427     0.0000     0.0000     0.0000     0.0000 </r>
        <r>   -10.0978     0.0000     0.0000     0.0000     0.0000 </r>
        <r>   -10.0529     0.0000     0.0000     0.0000     0.0000 </r>
        <r>   -10.0081     0.0000     0.0000     0.0000     0.0000 </r>
        <r>    -9.9632     0.0000     0.0000     0.0000     0.0000 </r>
        <r>    -9.9183     0.0000     0.0000     0.0000     0.0000 </r>
        <r>    -9.8734     0.0000     0.0000     0.0000     0.0000 </r>
        <r>    -9.8285     0.0000     0.0000     0.0000     0.0000 </r>
        <r>    -9.7836     0.0000     0.0000     0.0000     0.0000 </r>
        <r>    -9.7387     0.0000     0.0000     0.0000     0.0000 </r>
        <r>    -9.6939     0.0000     0.0000     0.0000     0.0000 </r>
        <r>    -9.6490     0.0000     0.0000     0.0000     0.0000 </r>
        <r>    -9.6041     0.0000     0.0000     0.0000     0.0000 </r>
        <r>    -9.5592     0.0000     0.0000     0.0000     0.0000 </r>
        <r>    -9.5143     0.0000     0.0000     0.0000     0.0000 </r>
        <r>    -9.4694     0.0000     0.0000     0.0000     0.0000 </r>
        <r>    -9.4245     0.0000     0.0000     0.0000     0.0000 </r>
        <r>    -9.3796     0.0000     0.0000     0.0000     0.0000 </r>
        <r>    -9.3348     0.0000     0.0000     0.0000     0.0000 </r>
        <r>    -9.2899     0.0000     0.0000     0.0000     0.0000 </r>
        <r>    -9.2450     0.0000     0.0000     0.0000     0.0000 </r>
        <r>    -9.2001     0.0000     0.0000     0.0000     0.0000 </r>
        <r>    -9.1552     0.0000     0.0000     0.0000     0.0000 </r>
        <r>    -9.1103     0.0000     0.0000     0.0000     0.0000 </r>
        <r>    -9.0654     0.0000     0.0000     0.0000     0.0000 </r>
        <r>    -9.0205     0.0000     0.0000     0.0000     0.0000 </r>
        <r>    -8.9757     0.0000     0.0000     0.0000     0.0000 </r>
        <r>    -8.9308     0.0000     0.0000     0.0000     0.0000 </r>
        <r>    -8.8859     0.0000     0.0000     0.0000     0.0000 </r>
        <r>    -8.8410     0.0000     0.0000     0.0000     0.0000 </r>
        <r>    -8.7961     0.0000     0.0000     0.0000     0.0000 </r>
        <r>    -8.7512     0.0000     0.0000     0.0000     0.0000 </r>
        <r>    -8.7063     0.0000     0.0000     0.0000     0.0000 </r>
        <r>    -8.6615     0.0000     0.0000     0.0000     0.0000 </r>
        <r>    -8.6166     0.0000     0.0000     0.0000     0.0000 </r>
        <r>    -8.5717     0.0000     0.0000     0.0000     0.0000 </r>
        <r>    -8.5268     0.0000     0.0000     0.0000     0.0000 </r>
        <r>    -8.4819     0.0000     0.0000     0.0000     0.0000 </r>
        <r>    -8.4370     0.0000     0.0000     0.0000     0.0000 </r>
        <r>    -8.3921     0.0000     0.0000     0.0000     0.0000 </r>
        <r>    -8.3472     0.0062     0.0004     0.0002     0.0000 </r>
        <r>    -8.3024     2.5574     0.1711     0.0629     0.0003 </r>
        <r>    -8.2575     0.0000     0.0000     0.0000     0.0000 </r>
        <r>    -8.2126     0.0000     0.0000     0.0000     0.0000 </r>
        <r>    -8.1677     0.0000     0.0000     0.0000     0.0000 </r>
        <r>    -8.1228     0.0000     0.0000     0.0000     0.0000 </r>
        <r>    -8.0779     0.0000     0.0000     0.0000     0.0000 </r>
        <r>    -8.0330     0.0000     0.0000     0.0000     0.0000 </r>
        <r>    -7.9882     0.0000     0.0000     0.0000     0.0000 </r>
        <r>    -7.9433     0.0000     0.0000     0.0000     0.0000 </r>
        <r>    -7.8984     0.0000     0.0000     0.0000     0.0000 </r>
        <r>    -7.8535     0.0000     0.0000     0.0000     0.0000 </r>
        <r>    -7.8086     0.0000     0.0000     0.0000     0.0000 </r>
        <r>    -7.7637     0.0000     0.0000     0.0000     0.0000 </r>
        <r>    -7.7188     0.0000     0.0000     0.0000     0.0000 </r>
        <r>    -7.6739     0.0000     0.0000     0.0000     0.0000 </r>
        <r>    -7.6291     0.0000     0.0000     0.0000     0.0000 </r>
        <r>    -7.5842     0.0000     0.0000     0.0000     0.0000 </r>
        <r>    -7.5393     0.0000     0.0000     0.0000     0.0000 </r>
        <r>    -7.4944     0.0000     0.0000     0.0000     0.0000 </r>
        <r>    -7.4495     0.0000     0.0000     0.0000     0.0000 </r>
        <r>    -7.4046     0.0000     0.0000     0.0000     0.0000 </r>
        <r>    -7.3597     0.0000     0.0000     0.0000     0.0000 </r>
        <r>    -7.3149     0.0000     0.0000     0.0000     0.0000 </r>
        <r>    -7.2700     0.0000     0.0000     0.0000     0.0000 </r>
        <r>    -7.2251     0.0000     0.0000     0.0000     0.0000 </r>
        <r>    -7.1802     0.0000     0.0000     0.0000     0.0000 </r>
        <r>    -7.1353     0.0000     0.0000     0.0000     0.0000 </r>
        <r>    -7.0904     0.0000     0.0000     0.0000     0.0000 </r>
        <r>    -7.0455     0.0000     0.0000     0.0000     0.0000 </r>
        <r>    -7.0006     0.0000     0.0000     0.0000     0.0000 </r>
        <r>    -6.9558     0.0000     0.0000     0.0000     0.0000 </r>
        <r>    -6.9109     0.0000     0.0000     0.0000     0.0000 </r>
        <r>    -6.8660     0.0000     0.0000     0.0000     0.0000 </r>
        <r>    -6.8211     0.0000     0.0000     0.0000     0.0000 </r>
        <r>    -6.7762     0.0000     0.0000     0.0000     0.0000 </r>
        <r>    -6.7313     0.0000     0.0000     0.0000     0.0000 </r>
        <r>    -6.6864     0.0000     0.2808     0.1123     0.0001 </r>
        <r>    -6.6415     0.0000     0.0000     0.0000     0.0000 </r>
        <r>    -6.5967     0.0000     0.0000     0.0000     0.0000 </r>
        <r>    -6.5518     0.0000     0.0000     0.0000     0.0000 </r>
        <r>    -6.5069     0.0000     0.0000     0.0000     0.0000 </r>
        <r>    -6.4620     0.0000     0.0000     0.0000     0.0000 </r>
        <r>    -6.4171     0.0000     0.0000     0.0000     0.0000 </r>
        <r>    -6.3722     0.0000     0.0000     0.0000     0.0000 </r>
        <r>    -6.3273     0.0000     0.0000     0.0000     0.0000 </r>
        <r>    -6.2825     0.0000     0.0000     0.0000     0.0000 </r>
        <r>    -6.2376     0.0000     0.0000     0.0000     0.0000 </r>
        <r>    -6.1927     0.0000     0.0000     0.0000     0.0000 </r>
        <r>    -6.1478     0.0000     0.0000     0.0000     0.0000 </r>
        <r>    -6.1029     0.0000     0.0000     0.0000     0.0000 </r>
        <r>    -6.0580     0.0000     0.0000     0.0000     0.0000 </r>
        <r>    -6.0131     0.0000     0.0000     0.0000     0.0000 </r>
        <r>    -5.9682     0.0000     0.0000     0.0000     0.0000 </r>
        <r>    -5.9234     0.0000     0.0000     0.0000     0.0000 </r>
        <r>    -5.8785     0.0000     0.0000     0.0000     0.0000 </r>
        <r>    -5.8336     0.0000     0.0000     0.0000     0.0000 </r>
        <r>    -5.7887     0.0000     0.0000     0.0000     0.0000 </r>
        <r>    -5.7438     0.0000     0.0000     0.0000     0.0000 </r>
        <r>    -5.6989     0.0000     0.0000     0.0000     0.0000 </r>
        <r>    -5.6540     0.0000     0.0000     0.0000     0.0000 </r>
        <r>    -5.6092     0.0000     0.0000     0.0000     0.0000 </r>
        <r>    -5.5643     0.0000     0.0000     0.0000     0.0000 </r>
        <r>    -5.5194     0.0000     0.0000     0.0000     0.0000 </r>
        <r>    -5.4745     0.0000     0.0000     0.0000     0.0000 </r>
        <r>    -5.4296     0.0000     0.0000     0.0000     0.0000 </r>
        <r>    -5.3847     0.0000     0.0000     0.0000     0.0000 </r>
        <r>    -5.3398     0.0951     0.3355     0.0706     0.0022 </r>
        <r>    -5.2949     0.0000     0.0000     0.0000     0.0000 </r>
        <r>    -5.2501     0.0000     0.0000     0.0000     0.0000 </r>
        <r>    -5.2052     1.4947     0.0495     0.0228     0.0007 </r>
        <r>    -5.1603     0.0000     0.0000     0.0000     0.0000 </r>
        <r>    -5.1154     0.0000     0.0000     0.0000     0.0000 </r>
        <r>    -5.0705     0.0000     0.0000     0.0000     0.0000 </r>
        <r>    -5.0256     0.0000     0.0000     0.0000     0.0000 </r>
        <r>    -4.9807     0.0000     0.0000     0.0000     0.0000 </r>
        <r>    -4.9358     0.0000     0.0000     0.0000     0.0000 </r>
        <r>    -4.8910     0.0000     0.0000     0.0000     0.0000 </r>
        <r>    -4.8461     0.0000     0.0000     0.0000     0.0000 </r>
        <r>    -4.8012     0.0000     0.0000     0.0000     0.0000 </r>
        <r>    -4.7563     0.0000     0.0000     0.0000     0.0000 </r>
        <r>    -4.7114     0.0128     0.0007     0.0872     0.0033 </r>
        <r>    -4.6665     2.1181     0.0130     0.0725     0.0035 </r>
        <r>    -4.6216     0.0000     0.0000     0.0000     0.0000 </r>
        <r>    -4.5768     0.0000     0.0000     0.0000     0.0000 </r>
        <r>    -4.5319     0.0000     0.0000     0.0000     0.0000 </r>
        <r>    -4.4870     0.0000     0.0000     0.0000     0.0000 </r>
        <r>    -4.4421     0.0000     0.0000     0.0000     0.0000 </r>
        <r>    -4.3972     0.0000     0.0000     0.0000     0.0000 </r>
        <r>    -4.3523     0.0000     0.0000     0.0000     0.0000 </r>
        <r>    -4.3074     0.0000     0.0000     0.0000     0.0000 </r>
        <r>    -4.2625     0.0000     0.0000     0.0000     0.0000 </r>
        <r>    -4.2177     0.0000     0.0000     0.0000     0.0000 </r>
        <r>    -4.1728     0.0000     0.0000     0.0000     0.0000 </r>
        <r>    -4.1279     0.0000     0.0000     0.0000     0.0000 </r>
        <r>    -4.0830     0.0000     0.0000     0.0000     0.0000 </r>
        <r>    -4.0381     0.0000     0.0000     0.0000     0.0000 </r>
        <r>    -3.9932     0.0000     0.0000     0.0000     0.0000 </r>
        <r>    -3.9483     0.0000     0.0000     0.0000     0.0000 </r>
        <r>    -3.9035     0.0000     0.0000     0.0000     0.0000 </r>
        <r>    -3.8586     0.0000     0.0000     0.0000     0.0000 </r>
        <r>    -3.8137     0.0000     0.0000     0.0000     0.0000 </r>
        <r>    -3.7688     0.0000     0.0000     0.0000     0.0000 </r>
        <r>    -3.7239     0.0000     0.0000     0.0000     0.0000 </r>
        <r>    -3.6790     0.0000     0.0000     0.0000     0.0000 </r>
        <r>    -3.6341     0.0000     0.0000     0.0000     0.0000 </r>
        <r>    -3.5892     0.0000     0.0000     0.0000     0.0000 </r>
        <r>    -3.5444     0.0000     0.0000     0.0000     0.0000 </r>
        <r>    -3.4995     0.0000     0.0000     0.0000     0.0000 </r>
        <r>    -3.4546     0.0000     0.0000     0.0000     0.0000 </r>
        <r>    -3.4097     0.0000     0.0000     0.0000     0.0000 </r>
        <r>    -3.3648     0.0000     0.0000     0.0000     0.0000 </r>
        <r>    -3.3199     0.0000     0.0000     0.0000     0.0000 </r>
        <r>    -3.2750     0.0000     0.0000     0.0000     0.0000 </r>
        <r>    -3.2302     0.0000     0.0000     0.0000     0.0000 </r>
        <r>    -3.1853     0.0000     0.0000     0.0000     0.0000 </r>
        <r>    -3.1404     0.0000     0.0000     0.0000     0.0000 </r>
        <r>    -3.0955     0.0000     0.0000     0.0000     0.0000 </r>
        <r>    -3.0506     0.0000     0.0000     0.0000     0.0000 </r>
        <r>    -3.0057     0.0000     0.0000     0.0000     0.0000 </r>
        <r>    -2.9608     0.0000     0.0000     0.0000     0.0000 </r>
        <r>    -2.9159     0.0000     0.0000     0.0000     0.0000 </r>
        <r>    -2.8711     0.0000     0.0000     0.0000     0.0000 </r>
        <r>    -2.8262     0.0000     0.0000     0.0000     0.0000 </r>
        <r>    -2.7813     0.0000     0.0000     0.0000     0.0000 </r>
        <r>    -2.7364     0.0000     0.0000     0.0000     0.0000 </r>
        <r>    -2.6915     0.0000     0.0000     0.0000     0.0000 </r>
        <r>    -2.6466     0.0000     0.0000     0.0000     0.0000 </r>
        <r>    -2.6017     0.0000     0.0000     0.0000     0.0000 </r>
        <r>    -2.5568     0.0000     0.0000     0.0000     0.0000 </r>
        <r>    -2.5120     0.0000     0.0000     0.0000     0.0000 </r>
        <r>    -2.4671     0.0000     0.0000     0.0000     0.0000 </r>
        <r>    -2.4222     0.0000     0.0000     0.0000     0.0000 </r>
        <r>    -2.3773     0.0000     0.0000     0.0000     0.0000 </r>
        <r>    -2.3324     0.0000     0.0000     0.0000     0.0000 </r>
        <r>    -2.2875     0.0000     0.9311     0.0060     0.0048 </r>
        <r>    -2.2426     0.0000     0.0000     0.0000     0.0000 </r>
        <r>    -2.1978     0.0000     0.0000     0.0000     0.0000 </r>
        <r>    -2.1529     0.0000     0.0000     0.0000     0.0000 </r>
        <r>    -2.1080     0.0000     0.0000     0.0000     0.0000 </r>
        <r>    -2.0631     0.2313     2.8184     0.0941     0.0042 </r>
        <r>    -2.0182     0.0000     0.0000     0.0000     0.0000 </r>
        <r>    -1.9733     0.0000     0.0000     0.0000     0.0000 </r>
        <r>    -1.9284     0.0000     0.0000     0.0000     0.0000 </r>
        <r>    -1.8835     0.0000     0.0000     0.0000     0.0000 </r>
        <r>    -1.8387     0.0541     1.2072     0.0462     0.0024 </r>
        <r>    -1.7938     0.0522     0.1367     0.0634     0.0038 </r>
        <r>    -1.7489     0.0000     0.0000     0.0000     0.0000 </r>
        <r>    -1.7040     0.0000     0.0000     0.0000     0.0000 </r>
        <r>    -1.6591     0.0000     0.0000     0.0000     0.0000 </r>
        <r>    -1.6142     0.0000     0.0000     0.0000     0.0000 </r>
        <r>    -1.5693     0.0000     0.0000     0.0000     0.0000 </r>
        <r>    -1.5245     0.0246     1.0898     0.0155     0.0054 </r>
        <r>    -1.4796     0.0000     0.0000     0.0000     0.0000 </r>
        <r>    -1.4347     0.0000     0.0000     0.0000     0.0000 </r>
        <r>    -1.3898     0.0000     0.0000     0.0000     0.0000 </r>
        <r>    -1.3449     0.0000     0.0000     0.0000     0.0000 </r>
        <r>    -1.3000     0.0000     0.0000     0.0000     0.0000 </r>
        <r>    -1.2551     0.0000     0.0000     0.0000     0.0000 </r>
        <r>    -1.2102     0.0000     0.0000     0.0000     0.0000 </r>
        <r>    -1.1654     0.0000     0.0591     0.0064     0.0049 </r>
        <r>    -1.1205     0.0000     0.0000     0.0000     0.0000 </r>
        <r>    -1.0756     0.0000     0.0000     0.0000     0.0000 </r>
        <r>    -1.0307     0.0000     0.0000     0.0000     0.0000 </r>
        <r>    -0.9858     0.0000     0.0000     0.0000     0.0000 </r>
        <r>    -0.9409     0.0000     0.0000     0.0000     0.0000 </r>
        <r>    -0.8960     0.0000     0.0000     0.0000     0.0000 </r>
        <r>    -0.8511     0.0000     0.0000     0.0000     0.0000 </r>
        <r>    -0.8063     0.0000     0.0000     0.0000     0.0000 </r>
        <r>    -0.7614     0.0000     0.0000     0.0000     0.0000 </r>
        <r>    -0.7165     0.0000     0.0000     0.0000     0.0000 </r>
        <r>    -0.6716     0.0000     0.0000     0.0000     0.0000 </r>
        <r>    -0.6267     0.6794     0.1628     0.0460     0.0002 </r>
        <r>    -0.5818     0.0000     0.0000     0.0000     0.0000 </r>
        <r>    -0.5369     0.0000     0.0000     0.0000     0.0000 </r>
        <r>    -0.4921     0.0000     0.0000     0.0000     0.0000 </r>
        <r>    -0.4472     0.0000     0.0000     0.0000     0.0000 </r>
        <r>    -0.4023     0.0000     0.0000     0.0000     0.0000 </r>
        <r>    -0.3574     0.0000     0.0000     0.0000     0.0000 </r>
        <r>    -0.3125     0.0000     0.0000     0.0000     0.0000 </r>
        <r>    -0.2676     0.0000     0.0000     0.0000     0.0000 </r>
        <r>    -0.2227     0.0000     0.0004     0.1051     0.0006 </r>
        <r>    -0.1778     0.0000     0.0000     0.0000     0.0000 </r>
        <r>    -0.1330     0.0000     0.0000     0.0000     0.0000 </r>
        <r>    -0.0881     0.0000     0.0000     0.0000     0.0000 </r>
        <r>    -0.0432     0.0000     0.0000     0.0000     0.0000 </r>
        <r>     0.0017     0.0000     0.0000     0.0000     0.0000 </r>
        <r>     0.0466     0.1247     0.2092     0.0459     0.0054 </r>
        <r>     0.0915     0.0000     0.0000     0.0000     0.0000 </r>
        <r>     0.1364     0.0000     0.0000     0.0000     0.0000 </r>
        <r>     0.1812     0.0000     0.0000     0.0000     0.0000 </r>
        <r>     0.2261     0.0000     0.0000     0.0000     0.0000 </r>
        <r>     0.2710     0.0000     0.0000     0.0000     0.0000 </r>
        <r>     0.3159     0.0000     0.0000     0.0000     0.0000 </r>
        <r>     0.3608     0.0000     0.0000     0.0000     0.0000 </r>
        <r>     0.4057     0.0000     0.0000     0.0000     0.0000 </r>
        <r>     0.4506     0.0000     0.0000     0.0000     0.0000 </r>
        <r>     0.4955     0.0000     0.0000     0.0000     0.0000 </r>
        <r>     0.5403     0.0000     0.0000     0.0000     0.0000 </r>
        <r>     0.5852     0.0000     0.0000     0.0000     0.0000 </r>
        <r>     0.6301     0.0000     0.0000     0.0000     0.0000 </r>
       </set>
      </set>
      <set comment="ion 2">
       <set comment="spin 1">
        <r>   -12.8359     0.0000     0.0000     0.0000     0.0000 </r>
        <r>   -12.7910     0.0000     0.0000     0.0000     0.0000 </r>
        <r>   -12.7462     0.0000     0.0000     0.0000     0.0000 </r>
        <r>   -12.7013     0.0000     0.0000     0.0000     0.0000 </r>
        <r>   -12.6564     0.0000     0.0000     0.0000     0.0000 </r>
        <r>   -12.6115     0.0000     0.0000     0.0000     0.0000 </r>
        <r>   -12.5666     0.0000     0.0000     0.0000     0.0000 </r>
        <r>   -12.5217     0.0000     0.0000     0.0000     0.0000 </r>
        <r>   -12.4768     0.0000     0.0000     0.0000     0.0000 </r>
        <r>   -12.4319     0.0000     0.0000     0.0000     0.0000 </r>
        <r>   -12.3871     0.0000     0.0000     0.0000     0.0000 </r>
        <r>   -12.3422     0.0000     0.0000     0.0000     0.0000 </r>
        <r>   -12.2973     0.0000     0.0000     0.0000     0.0000 </r>
        <r>   -12.2524     0.0000     0.0000     0.0000     0.0000 </r>
        <r>   -12.2075     0.0145     0.0085     1.3999     0.0006 </r>
        <r>   -12.1626     0.0000     0.0000     0.0000     0.0000 </r>
        <r>   -12.1177     0.0000     0.0000     0.0004     0.0000 </r>
        <r>   -12.0729     0.0038     0.0018     0.3942     0.0001 </r>
        <r>   -12.0280     0.0139     0.0069     1.8866     0.0002 </r>
        <r>   -11.9831     0.0087     0.0062     3.8227     0.0008 </r>
        <r>   -11.9382     0.0000     0.0000     0.0000     0.0000 </r>
        <r>   -11.8933     0.0001     0.0013     3.0121     0.0004 </r>
        <r>   -11.8484     0.0077     0.0059     9.8446     0.0008 </r>
        <r>   -11.8035     0.0000     0.0000     0.0471     0.0000 </r>
        <r>   -11.7586     0.0000     0.0002     2.1797     0.0001 </r>
        <r>   -11.7138     0.0012     0.0008     9.8895     0.0002 </r>
        <r>   -11.6689     0.0007     0.0002     2.9390     0.0000 </r>
        <r>   -11.6240     0.0013     0.0004    25.2911     0.0001 </r>
        <r>   -11.5791     0.0023     0.0014    17.8402     0.0001 </r>
        <r>   -11.5342     0.0017     0.0021    10.8736     0.0002 </r>
        <r>   -11.4893     0.0007     0.0017     5.3073     0.0002 </r>
        <r>   -11.4444     0.0000     0.0000     0.0000     0.0000 </r>
        <r>   -11.3995     0.0000     0.0000     0.0000     0.0000 </r>
        <r>   -11.3547     0.0000     0.0000     0.0000     0.0000 </r>
        <r>   -11.3098     0.0000     0.0000     0.0000     0.0000 </r>
        <r>   -11.2649     0.0000     0.0000     0.0000     0.0000 </r>
        <r>   -11.2200     0.0000     0.0000     0.0000     0.0000 </r>
        <r>   -11.1751     0.0000     0.0000     0.0000     0.0000 </r>
        <r>   -11.1302     0.0000     0.0000     0.0000     0.0000 </r>
        <r>   -11.0853     0.0000     0.0000     0.0000     0.0000 </r>
        <r>   -11.0405     0.0000     0.0000     0.0000     0.0000 </r>
        <r>   -10.9956     0.0000     0.0000     0.0000     0.0000 </r>
        <r>   -10.9507     0.0000     0.0000     0.0000     0.0000 </r>
        <r>   -10.9058     0.0000     0.0000     0.0000     0.0000 </r>
        <r>   -10.8609     0.0000     0.0000     0.0000     0.0000 </r>
        <r>   -10.8160     0.0000     0.0000     0.0000     0.0000 </r>
        <r>   -10.7711     0.0000     0.0000     0.0000     0.0000 </r>
        <r>   -10.7262     0.0000     0.0000     0.0000     0.0000 </r>
        <r>   -10.6814     0.0000     0.0000     0.0000     0.0000 </r>
        <r>   -10.6365     0.0000     0.0000     0.0000     0.0000 </r>
        <r>   -10.5916     0.0000     0.0000     0.0000     0.0000 </r>
        <r>   -10.5467     0.0000     0.0000     0.0000     0.0000 </r>
        <r>   -10.5018     0.0000     0.0000     0.0000     0.0000 </r>
        <r>   -10.4569     0.0000     0.0000     0.0000     0.0000 </r>
        <r>   -10.4120     0.0000     0.0000     0.0000     0.0000 </r>
        <r>   -10.3672     0.0000     0.0000     0.0000     0.0000 </r>
        <r>   -10.3223     0.0000     0.0000     0.0000     0.0000 </r>
        <r>   -10.2774     0.0000     0.0000     0.0000     0.0000 </r>
        <r>   -10.2325     0.0000     0.0000     0.0000     0.0000 </r>
        <r>   -10.1876     0.0000     0.0000     0.0000     0.0000 </r>
        <r>   -10.1427     0.0000     0.0000     0.0000     0.0000 </r>
        <r>   -10.0978     0.0000     0.0000     0.0000     0.0000 </r>
        <r>   -10.0529     0.0000     0.0000     0.0000     0.0000 </r>
        <r>   -10.0081     0.0000     0.0000     0.0000     0.0000 </r>
        <r>    -9.9632     0.0000     0.0000     0.0000     0.0000 </r>
        <r>    -9.9183     0.0000     0.0000     0.0000     0.0000 </r>
        <r>    -9.8734     0.0000     0.0000     0.0000     0.0000 </r>
        <r>    -9.8285     0.0000     0.0000     0.0000     0.0000 </r>
        <r>    -9.7836     0.0000     0.0000     0.0000     0.0000 </r>
        <r>    -9.7387     0.0000     0.0000     0.0000     0.0000 </r>
        <r>    -9.6939     0.0000     0.0000     0.0000     0.0000 </r>
        <r>    -9.6490     0.0000     0.0000     0.0000     0.0000 </r>
        <r>    -9.6041     0.0000     0.0000     0.0000     0.0000 </r>
        <r>    -9.5592     0.0000     0.0000     0.0000     0.0000 </r>
        <r>    -9.5143     0.0000     0.0000     0.0000     0.0000 </r>
        <r>    -9.4694     0.0000     0.0000     0.0000     0.0000 </r>
        <r>    -9.4245     0.0000     0.0000     0.0000     0.0000 </r>
        <r>    -9.3796     0.0000     0.0000     0.0000     0.0000 </r>
        <r>    -9.3348     0.0000     0.0000     0.0000     0.0000 </r>
        <r>    -9.2899     0.0000     0.0000     0.0000     0.0000 </r>
        <r>    -9.2450     0.0000     0.0000     0.0000     0.0000 </r>
        <r>    -9.2001     0.0000     0.0000     0.0000     0.0000 </r>
        <r>    -9.1552     0.0000     0.0000     0.0000     0.0000 </r>
        <r>    -9.1103     0.0000     0.0000     0.0000     0.0000 </r>
        <r>    -9.0654     0.0000     0.0000     0.0000     0.0000 </r>
        <r>    -9.0205     0.0000     0.0000     0.0000     0.0000 </r>
        <r>    -8.9757     0.0000     0.0000     0.0000     0.0000 </r>
        <r>    -8.9308     0.0000     0.0000     0.0000     0.0000 </r>
        <r>    -8.8859     0.0000     0.0000     0.0000     0.0000 </r>
        <r>    -8.8410     0.0000     0.0000     0.0000     0.0000 </r>
        <r>    -8.7961     0.0000     0.0000     0.0000     0.0000 </r>
        <r>    -8.7512     0.0000     0.0000     0.0000     0.0000 </r>
        <r>    -8.7063     0.0000     0.0000     0.0000     0.0000 </r>
        <r>    -8.6615     0.0000     0.0000     0.0000     0.0000 </r>
        <r>    -8.6166     0.0000     0.0000     0.0000     0.0000 </r>
        <r>    -8.5717     0.0000     0.0000     0.0000     0.0000 </r>
        <r>    -8.5268     0.0000     0.0000     0.0000     0.0000 </r>
        <r>    -8.4819     0.0000     0.0000     0.0000     0.0000 </r>
        <r>    -8.4370     0.0000     0.0000     0.0000     0.0000 </r>
        <r>    -8.3921     0.0000     0.0000     0.0000     0.0000 </r>
        <r>    -8.3472     0.0022     0.0003     0.0002     0.0000 </r>
        <r>    -8.3024     0.8848     0.1057     0.0965     0.0003 </r>
        <r>    -8.2575     0.0000     0.0000     0.0000     0.0000 </r>
        <r>    -8.2126     0.0000     0.0000     0.0000     0.0000 </r>
        <r>    -8.1677     0.0000     0.0000     0.0000     0.0000 </r>
        <r>    -8.1228     0.0000     0.0000     0.0000     0.0000 </r>
        <r>    -8.0779     0.0000     0.0000     0.0000     0.0000 </r>
        <r>    -8.0330     0.0000     0.0000     0.0000     0.0000 </r>
        <r>    -7.9882     0.0000     0.0000     0.0000     0.0000 </r>
        <r>    -7.9433     0.0000     0.0000     0.0000     0.0000 </r>
        <r>    -7.8984     0.0000     0.0000     0.0000     0.0000 </r>
        <r>    -7.8535     0.0000     0.0000     0.0000     0.0000 </r>
        <r>    -7.8086     0.0000     0.0000     0.0000     0.0000 </r>
        <r>    -7.7637     0.0000     0.0000     0.0000     0.0000 </r>
        <r>    -7.7188     0.0000     0.0000     0.0000     0.0000 </r>
        <r>    -7.6739     0.0000     0.0000     0.0000     0.0000 </r>
        <r>    -7.6291     0.0000     0.0000     0.0000     0.0000 </r>
        <r>    -7.5842     0.0000     0.0000     0.0000     0.0000 </r>
        <r>    -7.5393     0.0000     0.0000     0.0000     0.0000 </r>
        <r>    -7.4944     0.0000     0.0000     0.0000     0.0000 </r>
        <r>    -7.4495     0.0000     0.0000     0.0000     0.0000 </r>
        <r>    -7.4046     0.0000     0.0000     0.0000     0.0000 </r>
        <r>    -7.3597     0.0000     0.0000     0.0000     0.0000 </r>
        <r>    -7.3149     0.0000     0.0000     0.0000     0.0000 </r>
        <r>    -7.2700     0.0000     0.0000     0.0000     0.0000 </r>
        <r>    -7.2251     0.0000     0.0000     0.0000     0.0000 </r>
        <r>    -7.1802     0.0000     0.0000     0.0000     0.0000 </r>
        <r>    -7.1353     0.0000     0.0000     0.0000     0.0000 </r>
        <r>    -7.0904     0.0000     0.0000     0.0000     0.0000 </r>
        <r>    -7.0455     0.0000     0.0000     0.0000     0.0000 </r>
        <r>    -7.0006     0.0000     0.0000     0.0000     0.0000 </r>
        <r>    -6.9558     0.0000     0.0000     0.0000     0.0000 </r>
        <r>    -6.9109     0.0000     0.0000     0.0000     0.0000 </r>
        <r>    -6.8660     0.0000     0.0000     0.0000     0.0000 </r>
        <r>    -6.8211     0.0000     0.0000     0.0000     0.0000 </r>
        <r>    -6.7762     0.0000     0.0000     0.0000     0.0000 </r>
        <r>    -6.7313     0.0000     0.0000     0.0000     0.0000 </r>
        <r>    -6.6864     1.9295     0.0676     0.0268     0.0003 </r>
        <r>    -6.6415     0.0000     0.0000     0.0000     0.0000 </r>
        <r>    -6.5967     0.0000     0.0000     0.0000     0.0000 </r>
        <r>    -6.5518     0.0000     0.0000     0.0000     0.0000 </r>
        <r>    -6.5069     0.0000     0.0000     0.0000     0.0000 </r>
        <r>    -6.4620     0.0000     0.0000     0.0000     0.0000 </r>
        <r>    -6.4171     0.0000     0.0000     0.0000     0.0000 </r>
        <r>    -6.3722     0.0000     0.0000     0.0000     0.0000 </r>
        <r>    -6.3273     0.0000     0.0000     0.0000     0.0000 </r>
        <r>    -6.2825     0.0000     0.0000     0.0000     0.0000 </r>
        <r>    -6.2376     0.0000     0.0000     0.0000     0.0000 </r>
        <r>    -6.1927     0.0000     0.0000     0.0000     0.0000 </r>
        <r>    -6.1478     0.0000     0.0000     0.0000     0.0000 </r>
        <r>    -6.1029     0.0000     0.0000     0.0000     0.0000 </r>
        <r>    -6.0580     0.0000     0.0000     0.0000     0.0000 </r>
        <r>    -6.0131     0.0000     0.0000     0.0000     0.0000 </r>
        <r>    -5.9682     0.0000     0.0000     0.0000     0.0000 </r>
        <r>    -5.9234     0.0000     0.0000     0.0000     0.0000 </r>
        <r>    -5.8785     0.0000     0.0000     0.0000     0.0000 </r>
        <r>    -5.8336     0.0000     0.0000     0.0000     0.0000 </r>
        <r>    -5.7887     0.0000     0.0000     0.0000     0.0000 </r>
        <r>    -5.7438     0.0000     0.0000     0.0000     0.0000 </r>
        <r>    -5.6989     0.0000     0.0000     0.0000     0.0000 </r>
        <r>    -5.6540     0.0000     0.0000     0.0000     0.0000 </r>
        <r>    -5.6092     0.0000     0.0000     0.0000     0.0000 </r>
        <r>    -5.5643     0.0000     0.0000     0.0000     0.0000 </r>
        <r>    -5.5194     0.0000     0.0000     0.0000     0.0000 </r>
        <r>    -5.4745     0.0000     0.0000     0.0000     0.0000 </r>
        <r>    -5.4296     0.0000     0.0000     0.0000     0.0000 </r>
        <r>    -5.3847     0.0000     0.0000     0.0000     0.0000 </r>
        <r>    -5.3398     1.9407     0.0585     0.0305     0.0009 </r>
        <r>    -5.2949     0.0000     0.0000     0.0000     0.0000 </r>
        <r>    -5.2501     0.0000     0.0000     0.0000     0.0000 </r>
        <r>    -5.2052     0.0000     0.0438     0.0233     0.0008 </r>
        <r>    -5.1603     0.0000     0.0000     0.0000     0.0000 </r>
        <r>    -5.1154     0.0000     0.0000     0.0000     0.0000 </r>
        <r>    -5.0705     0.0000     0.0000     0.0000     0.0000 </r>
        <r>    -5.0256     0.0000     0.0000     0.0000     0.0000 </r>
        <r>    -4.9807     0.0000     0.0000     0.0000     0.0000 </r>
        <r>    -4.9358     0.0000     0.0000     0.0000     0.0000 </r>
        <r>    -4.8910     0.0000     0.0000     0.0000     0.0000 </r>
        <r>    -4.8461     0.0000     0.0000     0.0000     0.0000 </r>
        <r>    -4.8012     0.0000     0.0000     0.0000     0.0000 </r>
        <r>    -4.7563     0.0000     0.0000     0.0000     0.0000 </r>
        <r>    -4.7114     2.1658     0.0614     0.0114     0.0004 </r>
        <r>    -4.6665     1.6806     0.1674     0.0537     0.0020 </r>
        <r>    -4.6216     0.0000     0.0000     0.0000     0.0000 </r>
        <r>    -4.5768     0.0000     0.0000     0.0000     0.0000 </r>
        <r>    -4.5319     0.0000     0.0000     0.0000     0.0000 </r>
        <r>    -4.4870     0.0000     0.0000     0.0000     0.0000 </r>
        <r>    -4.4421     0.0000     0.0000     0.0000     0.0000 </r>
        <r>    -4.3972     0.0000     0.0000     0.0000     0.0000 </r>
        <r>    -4.3523     0.0000     0.0000     0.0000     0.0000 </r>
        <r>    -4.3074     0.0000     0.0000     0.0000     0.0000 </r>
        <r>    -4.2625     0.0000     0.0000     0.0000     0.0000 </r>
        <r>    -4.2177     0.0000     0.0000     0.0000     0.0000 </r>
        <r>    -4.1728     0.0000     0.0000     0.0000     0.0000 </r>
        <r>    -4.1279     0.0000     0.0000     0.0000     0.0000 </r>
        <r>    -4.0830     0.0000     0.0000     0.0000     0.0000 </r>
        <r>    -4.0381     0.0000     0.0000     0.0000     0.0000 </r>
        <r>    -3.9932     0.0000     0.0000     0.0000     0.0000 </r>
        <r>    -3.9483     0.0000     0.0000     0.0000     0.0000 </r>
        <r>    -3.9035     0.0000     0.0000     0.0000     0.0000 </r>
        <r>    -3.8586     0.0000     0.0000     0.0000     0.0000 </r>
        <r>    -3.8137     0.0000     0.0000     0.0000     0.0000 </r>
        <r>    -3.7688     0.0000     0.0000     0.0000     0.0000 </r>
        <r>    -3.7239     0.0000     0.0000     0.0000     0.0000 </r>
        <r>    -3.6790     0.0000     0.0000     0.0000     0.0000 </r>
        <r>    -3.6341     0.0000     0.0000     0.0000     0.0000 </r>
        <r>    -3.5892     0.0000     0.0000     0.0000     0.0000 </r>
        <r>    -3.5444     0.0000     0.0000     0.0000     0.0000 </r>
        <r>    -3.4995     0.0000     0.0000     0.0000     0.0000 </r>
        <r>    -3.4546     0.0000     0.0000     0.0000     0.0000 </r>
        <r>    -3.4097     0.0000     0.0000     0.0000     0.0000 </r>
        <r>    -3.3648     0.0000     0.0000     0.0000     0.0000 </r>
        <r>    -3.3199     0.0000     0.0000     0.0000     0.0000 </r>
        <r>    -3.2750     0.0000     0.0000     0.0000     0.0000 </r>
        <r>    -3.2302     0.0000     0.0000     0.0000     0.0000 </r>
        <r>    -3.1853     0.0000     0.0000     0.0000     0.0000 </r>
        <r>    -3.1404     0.0000     0.0000     0.0000     0.0000 </r>
        <r>    -3.0955     0.0000     0.0000     0.0000     0.0000 </r>
        <r>    -3.0506     0.0000     0.0000     0.0000     0.0000 </r>
        <r>    -3.0057     0.0000     0.0000     0.0000     0.0000 </r>
        <r>    -2.9608     0.0000     0.0000     0.0000     0.0000 </r>
        <r>    -2.9159     0.0000     0.0000     0.0000     0.0000 </r>
        <r>    -2.8711     0.0000     0.0000     0.0000     0.0000 </r>
        <r>    -2.8262     0.0000     0.0000     0.0000     0.0000 </r>
        <r>    -2.7813     0.0000     0.0000     0.0000     0.0000 </r>
        <r>    -2.7364     0.0000     0.0000     0.0000     0.0000 </r>
        <r>    -2.6915     0.0000     0.0000     0.0000     0.0000 </r>
        <r>    -2.6466     0.0000     0.0000     0.0000     0.0000 </r>
        <r>    -2.6017     0.0000     0.0000     0.0000     0.0000 </r>
        <r>    -2.5568     0.0000     0.0000     0.0000     0.0000 </r>
        <r>    -2.5120     0.0000     0.0000     0.0000     0.0000 </r>
        <r>    -2.4671     0.0000     0.0000     0.0000     0.0000 </r>
        <r>    -2.4222     0.0000     0.0000     0.0000     0.0000 </r>
        <r>    -2.3773     0.0000     0.0000     0.0000     0.0000 </r>
        <r>    -2.3324     0.0000     0.0000     0.0000     0.0000 </r>
        <r>    -2.2875     0.0000     0.8327     0.0445     0.0021 </r>
        <r>    -2.2426     0.0000     0.0000     0.0000     0.0000 </r>
        <r>    -2.1978     0.0000     0.0000     0.0000     0.0000 </r>
        <r>    -2.1529     0.0000     0.0000     0.0000     0.0000 </r>
        <r>    -2.1080     0.0000     0.0000     0.0000     0.0000 </r>
        <r>    -2.0631     0.2154     1.2293     0.0605     0.0044 </r>
        <r>    -2.0182     0.0000     0.0000     0.0000     0.0000 </r>
        <r>    -1.9733     0.0000     0.0000     0.0000     0.0000 </r>
        <r>    -1.9284     0.0000     0.0000     0.0000     0.0000 </r>
        <r>    -1.8835     0.0000     0.0000     0.0000     0.0000 </r>
        <r>    -1.8387     0.1195     0.7648     0.0246     0.0020 </r>
        <r>    -1.7938     0.1533     0.8330     0.0062     0.0007 </r>
        <r>    -1.7489     0.0000     0.0000     0.0000     0.0000 </r>
        <r>    -1.7040     0.0000     0.0000     0.0000     0.0000 </r>
        <r>    -1.6591     0.0000     0.0000     0.0000     0.0000 </r>
        <r>    -1.6142     0.0000     0.0000     0.0000     0.0000 </r>
        <r>    -1.5693     0.0000     0.0000     0.0000     0.0000 </r>
        <r>    -1.5245     0.0000     0.3329     0.0286     0.0028 </r>
        <r>    -1.4796     0.0000     0.0000     0.0000     0.0000 </r>
        <r>    -1.4347     0.0000     0.0000     0.0000     0.0000 </r>
        <r>    -1.3898     0.0000     0.0000     0.0000     0.0000 </r>
        <r>    -1.3449     0.0000     0.0000     0.0000     0.0000 </r>
        <r>    -1.3000     0.0000     0.0000     0.0000     0.0000 </r>
        <r>    -1.2551     0.0000     0.0000     0.0000     0.0000 </r>
        <r>    -1.2102     0.0000     0.0000     0.0000     0.0000 </r>
        <r>    -1.1654     0.0127     1.0627     0.0095     0.0007 </r>
        <r>    -1.1205     0.0000     0.0000     0.0000     0.0000 </r>
        <r>    -1.0756     0.0000     0.0000     0.0000     0.0000 </r>
        <r>    -1.0307     0.0000     0.0000     0.0000     0.0000 </r>
        <r>    -0.9858     0.0000     0.0000     0.0000     0.0000 </r>
        <r>    -0.9409     0.0000     0.0000     0.0000     0.0000 </r>
        <r>    -0.8960     0.0000     0.0000     0.0000     0.0000 </r>
        <r>    -0.8511     0.0000     0.0000     0.0000     0.0000 </r>
        <r>    -0.8063     0.0000     0.0000     0.0000     0.0000 </r>
        <r>    -0.7614     0.0000     0.0000     0.0000     0.0000 </r>
        <r>    -0.7165     0.0000     0.0000     0.0000     0.0000 </r>
        <r>    -0.6716     0.0000     0.0000     0.0000     0.0000 </r>
        <r>    -0.6267     0.0001     1.0925     0.0151     0.0014 </r>
        <r>    -0.5818     0.0000     0.0000     0.0000     0.0000 </r>
        <r>    -0.5369     0.0000     0.0000     0.0000     0.0000 </r>
        <r>    -0.4921     0.0000     0.0000     0.0000     0.0000 </r>
        <r>    -0.4472     0.0000     0.0000     0.0000     0.0000 </r>
        <r>    -0.4023     0.0000     0.0000     0.0000     0.0000 </r>
        <r>    -0.3574     0.0000     0.0000     0.0000     0.0000 </r>
        <r>    -0.3125     0.0000     0.0000     0.0000     0.0000 </r>
        <r>    -0.2676     0.0000     0.0000     0.0000     0.0000 </r>
        <r>    -0.2227     0.0001     0.8367     0.0189     0.0012 </r>
        <r>    -0.1778     0.0000     0.0000     0.0000     0.0000 </r>
        <r>    -0.1330     0.0000     0.0000     0.0000     0.0000 </r>
        <r>    -0.0881     0.0000     0.0000     0.0000     0.0000 </r>
        <r>    -0.0432     0.0000     0.0000     0.0000     0.0000 </r>
        <r>     0.0017     0.0000     0.0000     0.0000     0.0000 </r>
        <r>     0.0466     0.0603     0.0016     0.0208     0.0023 </r>
        <r>     0.0915     0.0000     0.0000     0.0000     0.0000 </r>
        <r>     0.1364     0.0000     0.0000     0.0000     0.0000 </r>
        <r>     0.1812     0.0000     0.0000     0.0000     0.0000 </r>
        <r>     0.2261     0.0000     0.0000     0.0000     0.0000 </r>
        <r>     0.2710     0.0000     0.0000     0.0000     0.0000 </r>
        <r>     0.3159     0.0000     0.0000     0.0000     0.0000 </r>
        <r>     0.3608     0.0000     0.0000     0.0000     0.0000 </r>
        <r>     0.4057     0.0000     0.0000     0.0000     0.0000 </r>
        <r>     0.4506     0.0000     0.0000     0.0000     0.0000 </r>
        <r>     0.4955     0.0000     0.0000     0.0000     0.0000 </r>
        <r>     0.5403     0.0000     0.0000     0.0000     0.0000 </r>
        <r>     0.5852     0.0000     0.0000     0.0000     0.0000 </r>
        <r>     0.6301     0.0000     0.0000     0.0000     0.0000 </r>
       </set>
       <set comment="spin 2">
        <r>   -12.8359     0.0000     0.0000     0.0000     0.0000 </r>
        <r>   -12.7910     0.0000     0.0000     0.0000     0.0000 </r>
        <r>   -12.7462     0.0000     0.0000     0.0000     0.0000 </r>
        <r>   -12.7013     0.0000     0.0000     0.0000     0.0000 </r>
        <r>   -12.6564     0.0000     0.0000     0.0000     0.0000 </r>
        <r>   -12.6115     0.0000     0.0000     0.0000     0.0000 </r>
        <r>   -12.5666     0.0000     0.0000     0.0000     0.0000 </r>
        <r>   -12.5217     0.0000     0.0000     0.0000     0.0000 </r>
        <r>   -12.4768     0.0000     0.0000     0.0000     0.0000 </r>
        <r>   -12.4319     0.0000     0.0000     0.0000     0.0000 </r>
        <r>   -12.3871     0.0000     0.0000     0.0000     0.0000 </r>
        <r>   -12.3422     0.0000     0.0000     0.0000     0.0000 </r>
        <r>   -12.2973     0.0000     0.0000     0.0000     0.0000 </r>
        <r>   -12.2524     0.0000     0.0000     0.0000     0.0000 </r>
        <r>   -12.2075     0.0145     0.0085     1.3999     0.0006 </r>
        <r>   -12.1626     0.0000     0.0000     0.0000     0.0000 </r>
        <r>   -12.1177     0.0000     0.0000     0.0004     0.0000 </r>
        <r>   -12.0729     0.0038     0.0018     0.3942     0.0001 </r>
        <r>   -12.0280     0.0139     0.0069     1.8866     0.0002 </r>
        <r>   -11.9831     0.0087     0.0062     3.8227     0.0008 </r>
        <r>   -11.9382     0.0000     0.0000     0.0000     0.0000 </r>
        <r>   -11.8933     0.0001     0.0013     3.0121     0.0004 </r>
        <r>   -11.8484     0.0077     0.0059     9.8446     0.0008 </r>
        <r>   -11.8035     0.0000     0.0000     0.0471     0.0000 </r>
        <r>   -11.7586     0.0000     0.0002     2.1797     0.0001 </r>
        <r>   -11.7138     0.0012     0.0008     9.8895     0.0002 </r>
        <r>   -11.6689     0.0007     0.0002     2.9390     0.0000 </r>
        <r>   -11.6240     0.0013     0.0004    25.2911     0.0001 </r>
        <r>   -11.5791     0.0023     0.0014    17.8402     0.0001 </r>
        <r>   -11.5342     0.0017     0.0021    10.8736     0.0002 </r>
        <r>   -11.4893     0.0007     0.0017     5.3073     0.0002 </r>
        <r>   -11.4444     0.0000     0.0000     0.0000     0.0000 </r>
        <r>   -11.3995     0.0000     0.0000     0.0000     0.0000 </r>
        <r>   -11.3547     0.0000     0.0000     0.0000     0.0000 </r>
        <r>   -11.3098     0.0000     0.0000     0.0000     0.0000 </r>
        <r>   -11.2649     0.0000     0.0000     0.0000     0.0000 </r>
        <r>   -11.2200     0.0000     0.0000     0.0000     0.0000 </r>
        <r>   -11.1751     0.0000     0.0000     0.0000     0.0000 </r>
        <r>   -11.1302     0.0000     0.0000     0.0000     0.0000 </r>
        <r>   -11.0853     0.0000     0.0000     0.0000     0.0000 </r>
        <r>   -11.0405     0.0000     0.0000     0.0000     0.0000 </r>
        <r>   -10.9956     0.0000     0.0000     0.0000     0.0000 </r>
        <r>   -10.9507     0.0000     0.0000     0.0000     0.0000 </r>
        <r>   -10.9058     0.0000     0.0000     0.0000     0.0000 </r>
        <r>   -10.8609     0.0000     0.0000     0.0000     0.0000 </r>
        <r>   -10.8160     0.0000     0.0000     0.0000     0.0000 </r>
        <r>   -10.7711     0.0000     0.0000     0.0000     0.0000 </r>
        <r>   -10.7262     0.0000     0.0000     0.0000     0.0000 </r>
        <r>   -10.6814     0.0000     0.0000     0.0000     0.0000 </r>
        <r>   -10.6365     0.0000     0.0000     0.0000     0.0000 </r>
        <r>   -10.5916     0.0000     0.0000     0.0000     0.0000 </r>
        <r>   -10.5467     0.0000     0.0000     0.0000     0.0000 </r>
        <r>   -10.5018     0.0000     0.0000     0.0000     0.0000 </r>
        <r>   -10.4569     0.0000     0.0000     0.0000     0.0000 </r>
        <r>   -10.4120     0.0000     0.0000     0.0000     0.0000 </r>
        <r>   -10.3672     0.0000     0.0000     0.0000     0.0000 </r>
        <r>   -10.3223     0.0000     0.0000     0.0000     0.0000 </r>
        <r>   -10.2774     0.0000     0.0000     0.0000     0.0000 </r>
        <r>   -10.2325     0.0000     0.0000     0.0000     0.0000 </r>
        <r>   -10.1876     0.0000     0.0000     0.0000     0.0000 </r>
        <r>   -10.1427     0.0000     0.0000     0.0000     0.0000 </r>
        <r>   -10.0978     0.0000     0.0000     0.0000     0.0000 </r>
        <r>   -10.0529     0.0000     0.0000     0.0000     0.0000 </r>
        <r>   -10.0081     0.0000     0.0000     0.0000     0.0000 </r>
        <r>    -9.9632     0.0000     0.0000     0.0000     0.0000 </r>
        <r>    -9.9183     0.0000     0.0000     0.0000     0.0000 </r>
        <r>    -9.8734     0.0000     0.0000     0.0000     0.0000 </r>
        <r>    -9.8285     0.0000     0.0000     0.0000     0.0000 </r>
        <r>    -9.7836     0.0000     0.0000     0.0000     0.0000 </r>
        <r>    -9.7387     0.0000     0.0000     0.0000     0.0000 </r>
        <r>    -9.6939     0.0000     0.0000     0.0000     0.0000 </r>
        <r>    -9.6490     0.0000     0.0000     0.0000     0.0000 </r>
        <r>    -9.6041     0.0000     0.0000     0.0000     0.0000 </r>
        <r>    -9.5592     0.0000     0.0000     0.0000     0.0000 </r>
        <r>    -9.5143     0.0000     0.0000     0.0000     0.0000 </r>
        <r>    -9.4694     0.0000     0.0000     0.0000     0.0000 </r>
        <r>    -9.4245     0.0000     0.0000     0.0000     0.0000 </r>
        <r>    -9.3796     0.0000     0.0000     0.0000     0.0000 </r>
        <r>    -9.3348     0.0000     0.0000     0.0000     0.0000 </r>
        <r>    -9.2899     0.0000     0.0000     0.0000     0.0000 </r>
        <r>    -9.2450     0.0000     0.0000     0.0000     0.0000 </r>
        <r>    -9.2001     0.0000     0.0000     0.0000     0.0000 </r>
        <r>    -9.1552     0.0000     0.0000     0.0000     0.0000 </r>
        <r>    -9.1103     0.0000     0.0000     0.0000     0.0000 </r>
        <r>    -9.0654     0.0000     0.0000     0.0000     0.0000 </r>
        <r>    -9.0205     0.0000     0.0000     0.0000     0.0000 </r>
        <r>    -8.9757     0.0000     0.0000     0.0000     0.0000 </r>
        <r>    -8.9308     0.0000     0.0000     0.0000     0.0000 </r>
        <r>    -8.8859     0.0000     0.0000     0.0000     0.0000 </r>
        <r>    -8.8410     0.0000     0.0000     0.0000     0.0000 </r>
        <r>    -8.7961     0.0000     0.0000     0.0000     0.0000 </r>
        <r>    -8.7512     0.0000     0.0000     0.0000     0.0000 </r>
        <r>    -8.7063     0.0000     0.0000     0.0000     0.0000 </r>
        <r>    -8.6615     0.0000     0.0000     0.0000     0.0000 </r>
        <r>    -8.6166     0.0000     0.0000     0.0000     0.0000 </r>
        <r>    -8.5717     0.0000     0.0000     0.0000     0.0000 </r>
        <r>    -8.5268     0.0000     0.0000     0.0000     0.0000 </r>
        <r>    -8.4819     0.0000     0.0000     0.0000     0.0000 </r>
        <r>    -8.4370     0.0000     0.0000     0.0000     0.0000 </r>
        <r>    -8.3921     0.0000     0.0000     0.0000     0.0000 </r>
        <r>    -8.3472     0.0022     0.0003     0.0002     0.0000 </r>
        <r>    -8.3024     0.8848     0.1057     0.0965     0.0003 </r>
        <r>    -8.2575     0.0000     0.0000     0.0000     0.0000 </r>
        <r>    -8.2126     0.0000     0.0000     0.0000     0.0000 </r>
        <r>    -8.1677     0.0000     0.0000     0.0000     0.0000 </r>
        <r>    -8.1228     0.0000     0.0000     0.0000     0.0000 </r>
        <r>    -8.0779     0.0000     0.0000     0.0000     0.0000 </r>
        <r>    -8.0330     0.0000     0.0000     0.0000     0.0000 </r>
        <r>    -7.9882     0.0000     0.0000     0.0000     0.0000 </r>
        <r>    -7.9433     0.0000     0.0000     0.0000     0.0000 </r>
        <r>    -7.8984     0.0000     0.0000     0.0000     0.0000 </r>
        <r>    -7.8535     0.0000     0.0000     0.0000     0.0000 </r>
        <r>    -7.8086     0.0000     0.0000     0.0000     0.0000 </r>
        <r>    -7.7637     0.0000     0.0000     0.0000     0.0000 </r>
        <r>    -7.7188     0.0000     0.0000     0.0000     0.0000 </r>
        <r>    -7.6739     0.0000     0.0000     0.0000     0.0000 </r>
        <r>    -7.6291     0.0000     0.0000     0.0000     0.0000 </r>
        <r>    -7.5842     0.0000     0.0000     0.0000     0.0000 </r>
        <r>    -7.5393     0.0000     0.0000     0.0000     0.0000 </r>
        <r>    -7.4944     0.0000     0.0000     0.0000     0.0000 </r>
        <r>    -7.4495     0.0000     0.0000     0.0000     0.0000 </r>
        <r>    -7.4046     0.0000     0.0000     0.0000     0.0000 </r>
        <r>    -7.3597     0.0000     0.0000     0.0000     0.0000 </r>
        <r>    -7.3149     0.0000     0.0000     0.0000     0.0000 </r>
        <r>    -7.2700     0.0000     0.0000     0.0000     0.0000 </r>
        <r>    -7.2251     0.0000     0.0000     0.0000     0.0000 </r>
        <r>    -7.1802     0.0000     0.0000     0.0000     0.0000 </r>
        <r>    -7.1353     0.0000     0.0000     0.0000     0.0000 </r>
        <r>    -7.0904     0.0000     0.0000     0.0000     0.0000 </r>
        <r>    -7.0455     0.0000     0.0000     0.0000     0.0000 </r>
        <r>    -7.0006     0.0000     0.0000     0.0000     0.0000 </r>
        <r>    -6.9558     0.0000     0.0000     0.0000     0.0000 </r>
        <r>    -6.9109     0.0000     0.0000     0.0000     0.0000 </r>
        <r>    -6.8660     0.0000     0.0000     0.0000     0.0000 </r>
        <r>    -6.8211     0.0000     0.0000     0.0000     0.0000 </r>
        <r>    -6.7762     0.0000     0.0000     0.0000     0.0000 </r>
        <r>    -6.7313     0.0000     0.0000     0.0000     0.0000 </r>
        <r>    -6.6864     1.9296     0.0676     0.0268     0.0003 </r>
        <r>    -6.6415     0.0000     0.0000     0.0000     0.0000 </r>
        <r>    -6.5967     0.0000     0.0000     0.0000     0.0000 </r>
        <r>    -6.5518     0.0000     0.0000     0.0000     0.0000 </r>
        <r>    -6.5069     0.0000     0.0000     0.0000     0.0000 </r>
        <r>    -6.4620     0.0000     0.0000     0.0000     0.0000 </r>
        <r>    -6.4171     0.0000     0.0000     0.0000     0.0000 </r>
        <r>    -6.3722     0.0000     0.0000     0.0000     0.0000 </r>
        <r>    -6.3273     0.0000     0.0000     0.0000     0.0000 </r>
        <r>    -6.2825     0.0000     0.0000     0.0000     0.0000 </r>
        <r>    -6.2376     0.0000     0.0000     0.0000     0.0000 </r>
        <r>    -6.1927     0.0000     0.0000     0.0000     0.0000 </r>
        <r>    -6.1478     0.0000     0.0000     0.0000     0.0000 </r>
        <r>    -6.1029     0.0000     0.0000     0.0000     0.0000 </r>
        <r>    -6.0580     0.0000     0.0000     0.0000     0.0000 </r>
        <r>    -6.0131     0.0000     0.0000     0.0000     0.0000 </r>
        <r>    -5.9682     0.0000     0.0000     0.0000     0.0000 </r>
        <r>    -5.9234     0.0000     0.0000     0.0000     0.0000 </r>
        <r>    -5.8785     0.0000     0.0000     0.0000     0.0000 </r>
        <r>    -5.8336     0.0000     0.0000     0.0000     0.0000 </r>
        <r>    -5.7887     0.0000     0.0000     0.0000     0.0000 </r>
        <r>    -5.7438     0.0000     0.0000     0.0000     0.0000 </r>
        <r>    -5.6989     0.0000     0.0000     0.0000     0.0000 </r>
        <r>    -5.6540     0.0000     0.0000     0.0000     0.0000 </r>
        <r>    -5.6092     0.0000     0.0000     0.0000     0.0000 </r>
        <r>    -5.5643     0.0000     0.0000     0.0000     0.0000 </r>
        <r>    -5.5194     0.0000     0.0000     0.0000     0.0000 </r>
        <r>    -5.4745     0.0000     0.0000     0.0000     0.0000 </r>
        <r>    -5.4296     0.0000     0.0000     0.0000     0.0000 </r>
        <r>    -5.3847     0.0000     0.0000     0.0000     0.0000 </r>
        <r>    -5.3398     1.9407     0.0585     0.0305     0.0009 </r>
        <r>    -5.2949     0.0000     0.0000     0.0000     0.0000 </r>
        <r>    -5.2501     0.0000     0.0000     0.0000     0.0000 </r>
        <r>    -5.2052     0.0000     0.0438     0.0233     0.0008 </r>
        <r>    -5.1603     0.0000     0.0000     0.0000     0.0000 </r>
        <r>    -5.1154     0.0000     0.0000     0.0000     0.0000 </r>
        <r>    -5.0705     0.0000     0.0000     0.0000     0.0000 </r>
        <r>    -5.0256     0.0000     0.0000     0.0000     0.0000 </r>
        <r>    -4.9807     0.0000     0.0000     0.0000     0.0000 </r>
        <r>    -4.9358     0.0000     0.0000     0.0000     0.0000 </r>
        <r>    -4.8910     0.0000     0.0000     0.0000     0.0000 </r>
        <r>    -4.8461     0.0000     0.0000     0.0000     0.0000 </r>
        <r>    -4.8012     0.0000     0.0000     0.0000     0.0000 </r>
        <r>    -4.7563     0.0000     0.0000     0.0000     0.0000 </r>
        <r>    -4.7114     2.1658     0.0614     0.0114     0.0004 </r>
        <r>    -4.6665     1.6806     0.1674     0.0537     0.0020 </r>
        <r>    -4.6216     0.0000     0.0000     0.0000     0.0000 </r>
        <r>    -4.5768     0.0000     0.0000     0.0000     0.0000 </r>
        <r>    -4.5319     0.0000     0.0000     0.0000     0.0000 </r>
        <r>    -4.4870     0.0000     0.0000     0.0000     0.0000 </r>
        <r>    -4.4421     0.0000     0.0000     0.0000     0.0000 </r>
        <r>    -4.3972     0.0000     0.0000     0.0000     0.0000 </r>
        <r>    -4.3523     0.0000     0.0000     0.0000     0.0000 </r>
        <r>    -4.3074     0.0000     0.0000     0.0000     0.0000 </r>
        <r>    -4.2625     0.0000     0.0000     0.0000     0.0000 </r>
        <r>    -4.2177     0.0000     0.0000     0.0000     0.0000 </r>
        <r>    -4.1728     0.0000     0.0000     0.0000     0.0000 </r>
        <r>    -4.1279     0.0000     0.0000     0.0000     0.0000 </r>
        <r>    -4.0830     0.0000     0.0000     0.0000     0.0000 </r>
        <r>    -4.0381     0.0000     0.0000     0.0000     0.0000 </r>
        <r>    -3.9932     0.0000     0.0000     0.0000     0.0000 </r>
        <r>    -3.9483     0.0000     0.0000     0.0000     0.0000 </r>
        <r>    -3.9035     0.0000     0.0000     0.0000     0.0000 </r>
        <r>    -3.8586     0.0000     0.0000     0.0000     0.0000 </r>
        <r>    -3.8137     0.0000     0.0000     0.0000     0.0000 </r>
        <r>    -3.7688     0.0000     0.0000     0.0000     0.0000 </r>
        <r>    -3.7239     0.0000     0.0000     0.0000     0.0000 </r>
        <r>    -3.6790     0.0000     0.0000     0.0000     0.0000 </r>
        <r>    -3.6341     0.0000     0.0000     0.0000     0.0000 </r>
        <r>    -3.5892     0.0000     0.0000     0.0000     0.0000 </r>
        <r>    -3.5444     0.0000     0.0000     0.0000     0.0000 </r>
        <r>    -3.4995     0.0000     0.0000     0.0000     0.0000 </r>
        <r>    -3.4546     0.0000     0.0000     0.0000     0.0000 </r>
        <r>    -3.4097     0.0000     0.0000     0.0000     0.0000 </r>
        <r>    -3.3648     0.0000     0.0000     0.0000     0.0000 </r>
        <r>    -3.3199     0.0000     0.0000     0.0000     0.0000 </r>
        <r>    -3.2750     0.0000     0.0000     0.0000     0.0000 </r>
        <r>    -3.2302     0.0000     0.0000     0.0000     0.0000 </r>
        <r>    -3.1853     0.0000     0.0000     0.0000     0.0000 </r>
        <r>    -3.1404     0.0000     0.0000     0.0000     0.0000 </r>
        <r>    -3.0955     0.0000     0.0000     0.0000     0.0000 </r>
        <r>    -3.0506     0.0000     0.0000     0.0000     0.0000 </r>
        <r>    -3.0057     0.0000     0.0000     0.0000     0.0000 </r>
        <r>    -2.9608     0.0000     0.0000     0.0000     0.0000 </r>
        <r>    -2.9159     0.0000     0.0000     0.0000     0.0000 </r>
        <r>    -2.8711     0.0000     0.0000     0.0000     0.0000 </r>
        <r>    -2.8262     0.0000     0.0000     0.0000     0.0000 </r>
        <r>    -2.7813     0.0000     0.0000     0.0000     0.0000 </r>
        <r>    -2.7364     0.0000     0.0000     0.0000     0.0000 </r>
        <r>    -2.6915     0.0000     0.0000     0.0000     0.0000 </r>
        <r>    -2.6466     0.0000     0.0000     0.0000     0.0000 </r>
        <r>    -2.6017     0.0000     0.0000     0.0000     0.0000 </r>
        <r>    -2.5568     0.0000     0.0000     0.0000     0.0000 </r>
        <r>    -2.5120     0.0000     0.0000     0.0000     0.0000 </r>
        <r>    -2.4671     0.0000     0.0000     0.0000     0.0000 </r>
        <r>    -2.4222     0.0000     0.0000     0.0000     0.0000 </r>
        <r>    -2.3773     0.0000     0.0000     0.0000     0.0000 </r>
        <r>    -2.3324     0.0000     0.0000     0.0000     0.0000 </r>
        <r>    -2.2875     0.0000     0.8327     0.0445     0.0021 </r>
        <r>    -2.2426     0.0000     0.0000     0.0000     0.0000 </r>
        <r>    -2.1978     0.0000     0.0000     0.0000     0.0000 </r>
        <r>    -2.1529     0.0000     0.0000     0.0000     0.0000 </r>
        <r>    -2.1080     0.0000     0.0000     0.0000     0.0000 </r>
        <r>    -2.0631     0.2154     1.2293     0.0605     0.0044 </r>
        <r>    -2.0182     0.0000     0.0000     0.0000     0.0000 </r>
        <r>    -1.9733     0.0000     0.0000     0.0000     0.0000 </r>
        <r>    -1.9284     0.0000     0.0000     0.0000     0.0000 </r>
        <r>    -1.8835     0.0000     0.0000     0.0000     0.0000 </r>
        <r>    -1.8387     0.1195     0.7648     0.0246     0.0020 </r>
        <r>    -1.7938     0.1533     0.8330     0.0062     0.0007 </r>
        <r>    -1.7489     0.0000     0.0000     0.0000     0.0000 </r>
        <r>    -1.7040     0.0000     0.0000     0.0000     0.0000 </r>
        <r>    -1.6591     0.0000     0.0000     0.0000     0.0000 </r>
        <r>    -1.6142     0.0000     0.0000     0.0000     0.0000 </r>
        <r>    -1.5693     0.0000     0.0000     0.0000     0.0000 </r>
        <r>    -1.5245     0.0000     0.3329     0.0286     0.0028 </r>
        <r>    -1.4796     0.0000     0.0000     0.0000     0.0000 </r>
        <r>    -1.4347     0.0000     0.0000     0.0000     0.0000 </r>
        <r>    -1.3898     0.0000     0.0000     0.0000     0.0000 </r>
        <r>    -1.3449     0.0000     0.0000     0.0000     0.0000 </r>
        <r>    -1.3000     0.0000     0.0000     0.0000     0.0000 </r>
        <r>    -1.2551     0.0000     0.0000     0.0000     0.0000 </r>
        <r>    -1.2102     0.0000     0.0000     0.0000     0.0000 </r>
        <r>    -1.1654     0.0127     1.0627     0.0095     0.0007 </r>
        <r>    -1.1205     0.0000     0.0000     0.0000     0.0000 </r>
        <r>    -1.0756     0.0000     0.0000     0.0000     0.0000 </r>
        <r>    -1.0307     0.0000     0.0000     0.0000     0.0000 </r>
        <r>    -0.9858     0.0000     0.0000     0.0000     0.0000 </r>
        <r>    -0.9409     0.0000     0.0000     0.0000     0.0000 </r>
        <r>    -0.8960     0.0000     0.0000     0.0000     0.0000 </r>
        <r>    -0.8511     0.0000     0.0000     0.0000     0.0000 </r>
        <r>    -0.8063     0.0000     0.0000     0.0000     0.0000 </r>
        <r>    -0.7614     0.0000     0.0000     0.0000     0.0000 </r>
        <r>    -0.7165     0.0000     0.0000     0.0000     0.0000 </r>
        <r>    -0.6716     0.0000     0.0000     0.0000     0.0000 </r>
        <r>    -0.6267     0.0001     1.0925     0.0151     0.0014 </r>
        <r>    -0.5818     0.0000     0.0000     0.0000     0.0000 </r>
        <r>    -0.5369     0.0000     0.0000     0.0000     0.0000 </r>
        <r>    -0.4921     0.0000     0.0000     0.0000     0.0000 </r>
        <r>    -0.4472     0.0000     0.0000     0.0000     0.0000 </r>
        <r>    -0.4023     0.0000     0.0000     0.0000     0.0000 </r>
        <r>    -0.3574     0.0000     0.0000     0.0000     0.0000 </r>
        <r>    -0.3125     0.0000     0.0000     0.0000     0.0000 </r>
        <r>    -0.2676     0.0000     0.0000     0.0000     0.0000 </r>
        <r>    -0.2227     0.0001     0.8367     0.0189     0.0012 </r>
        <r>    -0.1778     0.0000     0.0000     0.0000     0.0000 </r>
        <r>    -0.1330     0.0000     0.0000     0.0000     0.0000 </r>
        <r>    -0.0881     0.0000     0.0000     0.0000     0.0000 </r>
        <r>    -0.0432     0.0000     0.0000     0.0000     0.0000 </r>
        <r>     0.0017     0.0000     0.0000     0.0000     0.0000 </r>
        <r>     0.0466     0.0603     0.0016     0.0208     0.0023 </r>
        <r>     0.0915     0.0000     0.0000     0.0000     0.0000 </r>
        <r>     0.1364     0.0000     0.0000     0.0000     0.0000 </r>
        <r>     0.1812     0.0000     0.0000     0.0000     0.0000 </r>
        <r>     0.2261     0.0000     0.0000     0.0000     0.0000 </r>
        <r>     0.2710     0.0000     0.0000     0.0000     0.0000 </r>
        <r>     0.3159     0.0000     0.0000     0.0000     0.0000 </r>
        <r>     0.3608     0.0000     0.0000     0.0000     0.0000 </r>
        <r>     0.4057     0.0000     0.0000     0.0000     0.0000 </r>
        <r>     0.4506     0.0000     0.0000     0.0000     0.0000 </r>
        <r>     0.4955     0.0000     0.0000     0.0000     0.0000 </r>
        <r>     0.5403     0.0000     0.0000     0.0000     0.0000 </r>
        <r>     0.5852     0.0000     0.0000     0.0000     0.0000 </r>
        <r>     0.6301     0.0000     0.0000     0.0000     0.0000 </r>
       </set>
      </set>
      <set comment="ion 3">
       <set comment="spin 1">
        <r>   -12.8359     0.0000     0.0000     0.0000     0.0000 </r>
        <r>   -12.7910     0.0000     0.0000     0.0000     0.0000 </r>
        <r>   -12.7462     0.0000     0.0000     0.0000     0.0000 </r>
        <r>   -12.7013     0.0000     0.0000     0.0000     0.0000 </r>
        <r>   -12.6564     0.0000     0.0000     0.0000     0.0000 </r>
        <r>   -12.6115     0.0000     0.0000     0.0000     0.0000 </r>
        <r>   -12.5666     0.0000     0.0000     0.0000     0.0000 </r>
        <r>   -12.5217     0.0000     0.0000     0.0000     0.0000 </r>
        <r>   -12.4768     0.0000     0.0000     0.0000     0.0000 </r>
        <r>   -12.4319     0.0000     0.0000     0.0000     0.0000 </r>
        <r>   -12.3871     0.0000     0.0000     0.0000     0.0000 </r>
        <r>   -12.3422     0.0000     0.0000     0.0000     0.0000 </r>
        <r>   -12.2973     0.0000     0.0000     0.0000     0.0000 </r>
        <r>   -12.2524     0.0000     0.0000     0.0000     0.0000 </r>
        <r>   -12.2075     0.0150     0.0088     1.4515     0.0006 </r>
        <r>   -12.1626     0.0000     0.0000     0.0000     0.0000 </r>
        <r>   -12.1177     0.0000     0.0000     0.0005     0.0000 </r>
        <r>   -12.0729     0.0038     0.0018     0.4029     0.0001 </r>
        <r>   -12.0280     0.0136     0.0069     1.9607     0.0003 </r>
        <r>   -11.9831     0.0092     0.0065     4.0470     0.0008 </r>
        <r>   -11.9382     0.0000     0.0000     0.0000     0.0000 </r>
        <r>   -11.8933     0.0001     0.0012     2.9502     0.0004 </r>
        <r>   -11.8484     0.0076     0.0059     9.8080     0.0008 </r>
        <r>   -11.8035     0.0000     0.0000     0.0486     0.0000 </r>
        <r>   -11.7586     0.0000     0.0002     2.2488     0.0001 </r>
        <r>   -11.7138     0.0010     0.0008    10.6741     0.0002 </r>
        <r>   -11.6689     0.0007     0.0002     3.1677     0.0000 </r>
        <r>   -11.6240     0.0013     0.0004    24.3627     0.0001 </r>
        <r>   -11.5791     0.0024     0.0015    16.6774     0.0001 </r>
        <r>   -11.5342     0.0017     0.0022    10.8178     0.0003 </r>
        <r>   -11.4893     0.0007     0.0016     4.8734     0.0002 </r>
        <r>   -11.4444     0.0000     0.0000     0.0000     0.0000 </r>
        <r>   -11.3995     0.0000     0.0000     0.0000     0.0000 </r>
        <r>   -11.3547     0.0000     0.0000     0.0000     0.0000 </r>
        <r>   -11.3098     0.0000     0.0000     0.0000     0.0000 </r>
        <r>   -11.2649     0.0000     0.0000     0.0000     0.0000 </r>
        <r>   -11.2200     0.0000     0.0000     0.0000     0.0000 </r>
        <r>   -11.1751     0.0000     0.0000     0.0000     0.0000 </r>
        <r>   -11.1302     0.0000     0.0000     0.0000     0.0000 </r>
        <r>   -11.0853     0.0000     0.0000     0.0000     0.0000 </r>
        <r>   -11.0405     0.0000     0.0000     0.0000     0.0000 </r>
        <r>   -10.9956     0.0000     0.0000     0.0000     0.0000 </r>
        <r>   -10.9507     0.0000     0.0000     0.0000     0.0000 </r>
        <r>   -10.9058     0.0000     0.0000     0.0000     0.0000 </r>
        <r>   -10.8609     0.0000     0.0000     0.0000     0.0000 </r>
        <r>   -10.8160     0.0000     0.0000     0.0000     0.0000 </r>
        <r>   -10.7711     0.0000     0.0000     0.0000     0.0000 </r>
        <r>   -10.7262     0.0000     0.0000     0.0000     0.0000 </r>
        <r>   -10.6814     0.0000     0.0000     0.0000     0.0000 </r>
        <r>   -10.6365     0.0000     0.0000     0.0000     0.0000 </r>
        <r>   -10.5916     0.0000     0.0000     0.0000     0.0000 </r>
        <r>   -10.5467     0.0000     0.0000     0.0000     0.0000 </r>
        <r>   -10.5018     0.0000     0.0000     0.0000     0.0000 </r>
        <r>   -10.4569     0.0000     0.0000     0.0000     0.0000 </r>
        <r>   -10.4120     0.0000     0.0000     0.0000     0.0000 </r>
        <r>   -10.3672     0.0000     0.0000     0.0000     0.0000 </r>
        <r>   -10.3223     0.0000     0.0000     0.0000     0.0000 </r>
        <r>   -10.2774     0.0000     0.0000     0.0000     0.0000 </r>
        <r>   -10.2325     0.0000     0.0000     0.0000     0.0000 </r>
        <r>   -10.1876     0.0000     0.0000     0.0000     0.0000 </r>
        <r>   -10.1427     0.0000     0.0000     0.0000     0.0000 </r>
        <r>   -10.0978     0.0000     0.0000     0.0000     0.0000 </r>
        <r>   -10.0529     0.0000     0.0000     0.0000     0.0000 </r>
        <r>   -10.0081     0.0000     0.0000     0.0000     0.0000 </r>
        <r>    -9.9632     0.0000     0.0000     0.0000     0.0000 </r>
        <r>    -9.9183     0.0000     0.0000     0.0000     0.0000 </r>
        <r>    -9.8734     0.0000     0.0000     0.0000     0.0000 </r>
        <r>    -9.8285     0.0000     0.0000     0.0000     0.0000 </r>
        <r>    -9.7836     0.0000     0.0000     0.0000     0.0000 </r>
        <r>    -9.7387     0.0000     0.0000     0.0000     0.0000 </r>
        <r>    -9.6939     0.0000     0.0000     0.0000     0.0000 </r>
        <r>    -9.6490     0.0000     0.0000     0.0000     0.0000 </r>
        <r>    -9.6041     0.0000     0.0000     0.0000     0.0000 </r>
        <r>    -9.5592     0.0000     0.0000     0.0000     0.0000 </r>
        <r>    -9.5143     0.0000     0.0000     0.0000     0.0000 </r>
        <r>    -9.4694     0.0000     0.0000     0.0000     0.0000 </r>
        <r>    -9.4245     0.0000     0.0000     0.0000     0.0000 </r>
        <r>    -9.3796     0.0000     0.0000     0.0000     0.0000 </r>
        <r>    -9.3348     0.0000     0.0000     0.0000     0.0000 </r>
        <r>    -9.2899     0.0000     0.0000     0.0000     0.0000 </r>
        <r>    -9.2450     0.0000     0.0000     0.0000     0.0000 </r>
        <r>    -9.2001     0.0000     0.0000     0.0000     0.0000 </r>
        <r>    -9.1552     0.0000     0.0000     0.0000     0.0000 </r>
        <r>    -9.1103     0.0000     0.0000     0.0000     0.0000 </r>
        <r>    -9.0654     0.0000     0.0000     0.0000     0.0000 </r>
        <r>    -9.0205     0.0000     0.0000     0.0000     0.0000 </r>
        <r>    -8.9757     0.0000     0.0000     0.0000     0.0000 </r>
        <r>    -8.9308     0.0000     0.0000     0.0000     0.0000 </r>
        <r>    -8.8859     0.0000     0.0000     0.0000     0.0000 </r>
        <r>    -8.8410     0.0000     0.0000     0.0000     0.0000 </r>
        <r>    -8.7961     0.0000     0.0000     0.0000     0.0000 </r>
        <r>    -8.7512     0.0000     0.0000     0.0000     0.0000 </r>
        <r>    -8.7063     0.0000     0.0000     0.0000     0.0000 </r>
        <r>    -8.6615     0.0000     0.0000     0.0000     0.0000 </r>
        <r>    -8.6166     0.0000     0.0000     0.0000     0.0000 </r>
        <r>    -8.5717     0.0000     0.0000     0.0000     0.0000 </r>
        <r>    -8.5268     0.0000     0.0000     0.0000     0.0000 </r>
        <r>    -8.4819     0.0000     0.0000     0.0000     0.0000 </r>
        <r>    -8.4370     0.0000     0.0000     0.0000     0.0000 </r>
        <r>    -8.3921     0.0000     0.0000     0.0000     0.0000 </r>
        <r>    -8.3472     0.0022     0.0003     0.0002     0.0000 </r>
        <r>    -8.3024     0.8957     0.1068     0.0969     0.0003 </r>
        <r>    -8.2575     0.0000     0.0000     0.0000     0.0000 </r>
        <r>    -8.2126     0.0000     0.0000     0.0000     0.0000 </r>
        <r>    -8.1677     0.0000     0.0000     0.0000     0.0000 </r>
        <r>    -8.1228     0.0000     0.0000     0.0000     0.0000 </r>
        <r>    -8.0779     0.0000     0.0000     0.0000     0.0000 </r>
        <r>    -8.0330     0.0000     0.0000     0.0000     0.0000 </r>
        <r>    -7.9882     0.0000     0.0000     0.0000     0.0000 </r>
        <r>    -7.9433     0.0000     0.0000     0.0000     0.0000 </r>
        <r>    -7.8984     0.0000     0.0000     0.0000     0.0000 </r>
        <r>    -7.8535     0.0000     0.0000     0.0000     0.0000 </r>
        <r>    -7.8086     0.0000     0.0000     0.0000     0.0000 </r>
        <r>    -7.7637     0.0000     0.0000     0.0000     0.0000 </r>
        <r>    -7.7188     0.0000     0.0000     0.0000     0.0000 </r>
        <r>    -7.6739     0.0000     0.0000     0.0000     0.0000 </r>
        <r>    -7.6291     0.0000     0.0000     0.0000     0.0000 </r>
        <r>    -7.5842     0.0000     0.0000     0.0000     0.0000 </r>
        <r>    -7.5393     0.0000     0.0000     0.0000     0.0000 </r>
        <r>    -7.4944     0.0000     0.0000     0.0000     0.0000 </r>
        <r>    -7.4495     0.0000     0.0000     0.0000     0.0000 </r>
        <r>    -7.4046     0.0000     0.0000     0.0000     0.0000 </r>
        <r>    -7.3597     0.0000     0.0000     0.0000     0.0000 </r>
        <r>    -7.3149     0.0000     0.0000     0.0000     0.0000 </r>
        <r>    -7.2700     0.0000     0.0000     0.0000     0.0000 </r>
        <r>    -7.2251     0.0000     0.0000     0.0000     0.0000 </r>
        <r>    -7.1802     0.0000     0.0000     0.0000     0.0000 </r>
        <r>    -7.1353     0.0000     0.0000     0.0000     0.0000 </r>
        <r>    -7.0904     0.0000     0.0000     0.0000     0.0000 </r>
        <r>    -7.0455     0.0000     0.0000     0.0000     0.0000 </r>
        <r>    -7.0006     0.0000     0.0000     0.0000     0.0000 </r>
        <r>    -6.9558     0.0000     0.0000     0.0000     0.0000 </r>
        <r>    -6.9109     0.0000     0.0000     0.0000     0.0000 </r>
        <r>    -6.8660     0.0000     0.0000     0.0000     0.0000 </r>
        <r>    -6.8211     0.0000     0.0000     0.0000     0.0000 </r>
        <r>    -6.7762     0.0000     0.0000     0.0000     0.0000 </r>
        <r>    -6.7313     0.0000     0.0000     0.0000     0.0000 </r>
        <r>    -6.6864     1.9312     0.0677     0.0270     0.0003 </r>
        <r>    -6.6415     0.0000     0.0000     0.0000     0.0000 </r>
        <r>    -6.5967     0.0000     0.0000     0.0000     0.0000 </r>
        <r>    -6.5518     0.0000     0.0000     0.0000     0.0000 </r>
        <r>    -6.5069     0.0000     0.0000     0.0000     0.0000 </r>
        <r>    -6.4620     0.0000     0.0000     0.0000     0.0000 </r>
        <r>    -6.4171     0.0000     0.0000     0.0000     0.0000 </r>
        <r>    -6.3722     0.0000     0.0000     0.0000     0.0000 </r>
        <r>    -6.3273     0.0000     0.0000     0.0000     0.0000 </r>
        <r>    -6.2825     0.0000     0.0000     0.0000     0.0000 </r>
        <r>    -6.2376     0.0000     0.0000     0.0000     0.0000 </r>
        <r>    -6.1927     0.0000     0.0000     0.0000     0.0000 </r>
        <r>    -6.1478     0.0000     0.0000     0.0000     0.0000 </r>
        <r>    -6.1029     0.0000     0.0000     0.0000     0.0000 </r>
        <r>    -6.0580     0.0000     0.0000     0.0000     0.0000 </r>
        <r>    -6.0131     0.0000     0.0000     0.0000     0.0000 </r>
        <r>    -5.9682     0.0000     0.0000     0.0000     0.0000 </r>
        <r>    -5.9234     0.0000     0.0000     0.0000     0.0000 </r>
        <r>    -5.8785     0.0000     0.0000     0.0000     0.0000 </r>
        <r>    -5.8336     0.0000     0.0000     0.0000     0.0000 </r>
        <r>    -5.7887     0.0000     0.0000     0.0000     0.0000 </r>
        <r>    -5.7438     0.0000     0.0000     0.0000     0.0000 </r>
        <r>    -5.6989     0.0000     0.0000     0.0000     0.0000 </r>
        <r>    -5.6540     0.0000     0.0000     0.0000     0.0000 </r>
        <r>    -5.6092     0.0000     0.0000     0.0000     0.0000 </r>
        <r>    -5.5643     0.0000     0.0000     0.0000     0.0000 </r>
        <r>    -5.5194     0.0000     0.0000     0.0000     0.0000 </r>
        <r>    -5.4745     0.0000     0.0000     0.0000     0.0000 </r>
        <r>    -5.4296     0.0000     0.0000     0.0000     0.0000 </r>
        <r>    -5.3847     0.0000     0.0000     0.0000     0.0000 </r>
        <r>    -5.3398     1.9114     0.0585     0.0304     0.0009 </r>
        <r>    -5.2949     0.0000     0.0000     0.0000     0.0000 </r>
        <r>    -5.2501     0.0000     0.0000     0.0000     0.0000 </r>
        <r>    -5.2052     0.0021     0.0443     0.0235     0.0009 </r>
        <r>    -5.1603     0.0000     0.0000     0.0000     0.0000 </r>
        <r>    -5.1154     0.0000     0.0000     0.0000     0.0000 </r>
        <r>    -5.0705     0.0000     0.0000     0.0000     0.0000 </r>
        <r>    -5.0256     0.0000     0.0000     0.0000     0.0000 </r>
        <r>    -4.9807     0.0000     0.0000     0.0000     0.0000 </r>
        <r>    -4.9358     0.0000     0.0000     0.0000     0.0000 </r>
        <r>    -4.8910     0.0000     0.0000     0.0000     0.0000 </r>
        <r>    -4.8461     0.0000     0.0000     0.0000     0.0000 </r>
        <r>    -4.8012     0.0000     0.0000     0.0000     0.0000 </r>
        <r>    -4.7563     0.0000     0.0000     0.0000     0.0000 </r>
        <r>    -4.7114     1.7822     0.0637     0.0155     0.0006 </r>
        <r>    -4.6665     2.1550     0.1677     0.0497     0.0018 </r>
        <r>    -4.6216     0.0000     0.0000     0.0000     0.0000 </r>
        <r>    -4.5768     0.0000     0.0000     0.0000     0.0000 </r>
        <r>    -4.5319     0.0000     0.0000     0.0000     0.0000 </r>
        <r>    -4.4870     0.0000     0.0000     0.0000     0.0000 </r>
        <r>    -4.4421     0.0000     0.0000     0.0000     0.0000 </r>
        <r>    -4.3972     0.0000     0.0000     0.0000     0.0000 </r>
        <r>    -4.3523     0.0000     0.0000     0.0000     0.0000 </r>
        <r>    -4.3074     0.0000     0.0000     0.0000     0.0000 </r>
        <r>    -4.2625     0.0000     0.0000     0.0000     0.0000 </r>
        <r>    -4.2177     0.0000     0.0000     0.0000     0.0000 </r>
        <r>    -4.1728     0.0000     0.0000     0.0000     0.0000 </r>
        <r>    -4.1279     0.0000     0.0000     0.0000     0.0000 </r>
        <r>    -4.0830     0.0000     0.0000     0.0000     0.0000 </r>
        <r>    -4.0381     0.0000     0.0000     0.0000     0.0000 </r>
        <r>    -3.9932     0.0000     0.0000     0.0000     0.0000 </r>
        <r>    -3.9483     0.0000     0.0000     0.0000     0.0000 </r>
        <r>    -3.9035     0.0000     0.0000     0.0000     0.0000 </r>
        <r>    -3.8586     0.0000     0.0000     0.0000     0.0000 </r>
        <r>    -3.8137     0.0000     0.0000     0.0000     0.0000 </r>
        <r>    -3.7688     0.0000     0.0000     0.0000     0.0000 </r>
        <r>    -3.7239     0.0000     0.0000     0.0000     0.0000 </r>
        <r>    -3.6790     0.0000     0.0000     0.0000     0.0000 </r>
        <r>    -3.6341     0.0000     0.0000     0.0000     0.0000 </r>
        <r>    -3.5892     0.0000     0.0000     0.0000     0.0000 </r>
        <r>    -3.5444     0.0000     0.0000     0.0000     0.0000 </r>
        <r>    -3.4995     0.0000     0.0000     0.0000     0.0000 </r>
        <r>    -3.4546     0.0000     0.0000     0.0000     0.0000 </r>
        <r>    -3.4097     0.0000     0.0000     0.0000     0.0000 </r>
        <r>    -3.3648     0.0000     0.0000     0.0000     0.0000 </r>
        <r>    -3.3199     0.0000     0.0000     0.0000     0.0000 </r>
        <r>    -3.2750     0.0000     0.0000     0.0000     0.0000 </r>
        <r>    -3.2302     0.0000     0.0000     0.0000     0.0000 </r>
        <r>    -3.1853     0.0000     0.0000     0.0000     0.0000 </r>
        <r>    -3.1404     0.0000     0.0000     0.0000     0.0000 </r>
        <r>    -3.0955     0.0000     0.0000     0.0000     0.0000 </r>
        <r>    -3.0506     0.0000     0.0000     0.0000     0.0000 </r>
        <r>    -3.0057     0.0000     0.0000     0.0000     0.0000 </r>
        <r>    -2.9608     0.0000     0.0000     0.0000     0.0000 </r>
        <r>    -2.9159     0.0000     0.0000     0.0000     0.0000 </r>
        <r>    -2.8711     0.0000     0.0000     0.0000     0.0000 </r>
        <r>    -2.8262     0.0000     0.0000     0.0000     0.0000 </r>
        <r>    -2.7813     0.0000     0.0000     0.0000     0.0000 </r>
        <r>    -2.7364     0.0000     0.0000     0.0000     0.0000 </r>
        <r>    -2.6915     0.0000     0.0000     0.0000     0.0000 </r>
        <r>    -2.6466     0.0000     0.0000     0.0000     0.0000 </r>
        <r>    -2.6017     0.0000     0.0000     0.0000     0.0000 </r>
        <r>    -2.5568     0.0000     0.0000     0.0000     0.0000 </r>
        <r>    -2.5120     0.0000     0.0000     0.0000     0.0000 </r>
        <r>    -2.4671     0.0000     0.0000     0.0000     0.0000 </r>
        <r>    -2.4222     0.0000     0.0000     0.0000     0.0000 </r>
        <r>    -2.3773     0.0000     0.0000     0.0000     0.0000 </r>
        <r>    -2.3324     0.0000     0.0000     0.0000     0.0000 </r>
        <r>    -2.2875     0.0001     0.8375     0.0447     0.0021 </r>
        <r>    -2.2426     0.0000     0.0000     0.0000     0.0000 </r>
        <r>    -2.1978     0.0000     0.0000     0.0000     0.0000 </r>
        <r>    -2.1529     0.0000     0.0000     0.0000     0.0000 </r>
        <r>    -2.1080     0.0000     0.0000     0.0000     0.0000 </r>
        <r>    -2.0631     0.2065     1.2007     0.0610     0.0044 </r>
        <r>    -2.0182     0.0000     0.0000     0.0000     0.0000 </r>
        <r>    -1.9733     0.0000     0.0000     0.0000     0.0000 </r>
        <r>    -1.9284     0.0000     0.0000     0.0000     0.0000 </r>
        <r>    -1.8835     0.0000     0.0000     0.0000     0.0000 </r>
        <r>    -1.8387     0.1238     0.7798     0.0246     0.0019 </r>
        <r>    -1.7938     0.1602     0.8588     0.0061     0.0007 </r>
        <r>    -1.7489     0.0000     0.0000     0.0000     0.0000 </r>
        <r>    -1.7040     0.0000     0.0000     0.0000     0.0000 </r>
        <r>    -1.6591     0.0000     0.0000     0.0000     0.0000 </r>
        <r>    -1.6142     0.0000     0.0000     0.0000     0.0000 </r>
        <r>    -1.5693     0.0000     0.0000     0.0000     0.0000 </r>
        <r>    -1.5245     0.0000     0.3327     0.0288     0.0028 </r>
        <r>    -1.4796     0.0000     0.0000     0.0000     0.0000 </r>
        <r>    -1.4347     0.0000     0.0000     0.0000     0.0000 </r>
        <r>    -1.3898     0.0000     0.0000     0.0000     0.0000 </r>
        <r>    -1.3449     0.0000     0.0000     0.0000     0.0000 </r>
        <r>    -1.3000     0.0000     0.0000     0.0000     0.0000 </r>
        <r>    -1.2551     0.0000     0.0000     0.0000     0.0000 </r>
        <r>    -1.2102     0.0000     0.0000     0.0000     0.0000 </r>
        <r>    -1.1654     0.0116     1.0625     0.0095     0.0007 </r>
        <r>    -1.1205     0.0000     0.0000     0.0000     0.0000 </r>
        <r>    -1.0756     0.0000     0.0000     0.0000     0.0000 </r>
        <r>    -1.0307     0.0000     0.0000     0.0000     0.0000 </r>
        <r>    -0.9858     0.0000     0.0000     0.0000     0.0000 </r>
        <r>    -0.9409     0.0000     0.0000     0.0000     0.0000 </r>
        <r>    -0.8960     0.0000     0.0000     0.0000     0.0000 </r>
        <r>    -0.8511     0.0000     0.0000     0.0000     0.0000 </r>
        <r>    -0.8063     0.0000     0.0000     0.0000     0.0000 </r>
        <r>    -0.7614     0.0000     0.0000     0.0000     0.0000 </r>
        <r>    -0.7165     0.0000     0.0000     0.0000     0.0000 </r>
        <r>    -0.6716     0.0000     0.0000     0.0000     0.0000 </r>
        <r>    -0.6267     0.0001     1.0947     0.0152     0.0014 </r>
        <r>    -0.5818     0.0000     0.0000     0.0000     0.0000 </r>
        <r>    -0.5369     0.0000     0.0000     0.0000     0.0000 </r>
        <r>    -0.4921     0.0000     0.0000     0.0000     0.0000 </r>
        <r>    -0.4472     0.0000     0.0000     0.0000     0.0000 </r>
        <r>    -0.4023     0.0000     0.0000     0.0000     0.0000 </r>
        <r>    -0.3574     0.0000     0.0000     0.0000     0.0000 </r>
        <r>    -0.3125     0.0000     0.0000     0.0000     0.0000 </r>
        <r>    -0.2676     0.0000     0.0000     0.0000     0.0000 </r>
        <r>    -0.2227     0.0000     0.8120     0.0194     0.0012 </r>
        <r>    -0.1778     0.0000     0.0000     0.0000     0.0000 </r>
        <r>    -0.1330     0.0000     0.0000     0.0000     0.0000 </r>
        <r>    -0.0881     0.0000     0.0000     0.0000     0.0000 </r>
        <r>    -0.0432     0.0000     0.0000     0.0000     0.0000 </r>
        <r>     0.0017     0.0000     0.0000     0.0000     0.0000 </r>
        <r>     0.0466     0.2302     0.2620     0.0327     0.0013 </r>
        <r>     0.0915     0.0000     0.0000     0.0000     0.0000 </r>
        <r>     0.1364     0.0000     0.0000     0.0000     0.0000 </r>
        <r>     0.1812     0.0000     0.0000     0.0000     0.0000 </r>
        <r>     0.2261     0.0000     0.0000     0.0000     0.0000 </r>
        <r>     0.2710     0.0000     0.0000     0.0000     0.0000 </r>
        <r>     0.3159     0.0000     0.0000     0.0000     0.0000 </r>
        <r>     0.3608     0.0000     0.0000     0.0000     0.0000 </r>
        <r>     0.4057     0.0000     0.0000     0.0000     0.0000 </r>
        <r>     0.4506     0.0000     0.0000     0.0000     0.0000 </r>
        <r>     0.4955     0.0000     0.0000     0.0000     0.0000 </r>
        <r>     0.5403     0.0000     0.0000     0.0000     0.0000 </r>
        <r>     0.5852     0.0000     0.0000     0.0000     0.0000 </r>
        <r>     0.6301     0.0000     0.0000     0.0000     0.0000 </r>
       </set>
       <set comment="spin 2">
        <r>   -12.8359     0.0000     0.0000     0.0000     0.0000 </r>
        <r>   -12.7910     0.0000     0.0000     0.0000     0.0000 </r>
        <r>   -12.7462     0.0000     0.0000     0.0000     0.0000 </r>
        <r>   -12.7013     0.0000     0.0000     0.0000     0.0000 </r>
        <r>   -12.6564     0.0000     0.0000     0.0000     0.0000 </r>
        <r>   -12.6115     0.0000     0.0000     0.0000     0.0000 </r>
        <r>   -12.5666     0.0000     0.0000     0.0000     0.0000 </r>
        <r>   -12.5217     0.0000     0.0000     0.0000     0.0000 </r>
        <r>   -12.4768     0.0000     0.0000     0.0000     0.0000 </r>
        <r>   -12.4319     0.0000     0.0000     0.0000     0.0000 </r>
        <r>   -12.3871     0.0000     0.0000     0.0000     0.0000 </r>
        <r>   -12.3422     0.0000     0.0000     0.0000     0.0000 </r>
        <r>   -12.2973     0.0000     0.0000     0.0000     0.0000 </r>
        <r>   -12.2524     0.0000     0.0000     0.0000     0.0000 </r>
        <r>   -12.2075     0.0150     0.0088     1.4515     0.0006 </r>
        <r>   -12.1626     0.0000     0.0000     0.0000     0.0000 </r>
        <r>   -12.1177     0.0000     0.0000     0.0005     0.0000 </r>
        <r>   -12.0729     0.0038     0.0018     0.4029     0.0001 </r>
        <r>   -12.0280     0.0136     0.0069     1.9607     0.0003 </r>
        <r>   -11.9831     0.0092     0.0065     4.0470     0.0008 </r>
        <r>   -11.9382     0.0000     0.0000     0.0000     0.0000 </r>
        <r>   -11.8933     0.0001     0.0012     2.9502     0.0004 </r>
        <r>   -11.8484     0.0076     0.0059     9.8080     0.0008 </r>
        <r>   -11.8035     0.0000     0.0000     0.0486     0.0000 </r>
        <r>   -11.7586     0.0000     0.0002     2.2488     0.0001 </r>
        <r>   -11.7138     0.0010     0.0008    10.6741     0.0002 </r>
        <r>   -11.6689     0.0007     0.0002     3.1677     0.0000 </r>
        <r>   -11.6240     0.0013     0.0004    24.3627     0.0001 </r>
        <r>   -11.5791     0.0024     0.0015    16.6774     0.0001 </r>
        <r>   -11.5342     0.0017     0.0022    10.8178     0.0003 </r>
        <r>   -11.4893     0.0007     0.0016     4.8734     0.0002 </r>
        <r>   -11.4444     0.0000     0.0000     0.0000     0.0000 </r>
        <r>   -11.3995     0.0000     0.0000     0.0000     0.0000 </r>
        <r>   -11.3547     0.0000     0.0000     0.0000     0.0000 </r>
        <r>   -11.3098     0.0000     0.0000     0.0000     0.0000 </r>
        <r>   -11.2649     0.0000     0.0000     0.0000     0.0000 </r>
        <r>   -11.2200     0.0000     0.0000     0.0000     0.0000 </r>
        <r>   -11.1751     0.0000     0.0000     0.0000     0.0000 </r>
        <r>   -11.1302     0.0000     0.0000     0.0000     0.0000 </r>
        <r>   -11.0853     0.0000     0.0000     0.0000     0.0000 </r>
        <r>   -11.0405     0.0000     0.0000     0.0000     0.0000 </r>
        <r>   -10.9956     0.0000     0.0000     0.0000     0.0000 </r>
        <r>   -10.9507     0.0000     0.0000     0.0000     0.0000 </r>
        <r>   -10.9058     0.0000     0.0000     0.0000     0.0000 </r>
        <r>   -10.8609     0.0000     0.0000     0.0000     0.0000 </r>
        <r>   -10.8160     0.0000     0.0000     0.0000     0.0000 </r>
        <r>   -10.7711     0.0000     0.0000     0.0000     0.0000 </r>
        <r>   -10.7262     0.0000     0.0000     0.0000     0.0000 </r>
        <r>   -10.6814     0.0000     0.0000     0.0000     0.0000 </r>
        <r>   -10.6365     0.0000     0.0000     0.0000     0.0000 </r>
        <r>   -10.5916     0.0000     0.0000     0.0000     0.0000 </r>
        <r>   -10.5467     0.0000     0.0000     0.0000     0.0000 </r>
        <r>   -10.5018     0.0000     0.0000     0.0000     0.0000 </r>
        <r>   -10.4569     0.0000     0.0000     0.0000     0.0000 </r>
        <r>   -10.4120     0.0000     0.0000     0.0000     0.0000 </r>
        <r>   -10.3672     0.0000     0.0000     0.0000     0.0000 </r>
        <r>   -10.3223     0.0000     0.0000     0.0000     0.0000 </r>
        <r>   -10.2774     0.0000     0.0000     0.0000     0.0000 </r>
        <r>   -10.2325     0.0000     0.0000     0.0000     0.0000 </r>
        <r>   -10.1876     0.0000     0.0000     0.0000     0.0000 </r>
        <r>   -10.1427     0.0000     0.0000     0.0000     0.0000 </r>
        <r>   -10.0978     0.0000     0.0000     0.0000     0.0000 </r>
        <r>   -10.0529     0.0000     0.0000     0.0000     0.0000 </r>
        <r>   -10.0081     0.0000     0.0000     0.0000     0.0000 </r>
        <r>    -9.9632     0.0000     0.0000     0.0000     0.0000 </r>
        <r>    -9.9183     0.0000     0.0000     0.0000     0.0000 </r>
        <r>    -9.8734     0.0000     0.0000     0.0000     0.0000 </r>
        <r>    -9.8285     0.0000     0.0000     0.0000     0.0000 </r>
        <r>    -9.7836     0.0000     0.0000     0.0000     0.0000 </r>
        <r>    -9.7387     0.0000     0.0000     0.0000     0.0000 </r>
        <r>    -9.6939     0.0000     0.0000     0.0000     0.0000 </r>
        <r>    -9.6490     0.0000     0.0000     0.0000     0.0000 </r>
        <r>    -9.6041     0.0000     0.0000     0.0000     0.0000 </r>
        <r>    -9.5592     0.0000     0.0000     0.0000     0.0000 </r>
        <r>    -9.5143     0.0000     0.0000     0.0000     0.0000 </r>
        <r>    -9.4694     0.0000     0.0000     0.0000     0.0000 </r>
        <r>    -9.4245     0.0000     0.0000     0.0000     0.0000 </r>
        <r>    -9.3796     0.0000     0.0000     0.0000     0.0000 </r>
        <r>    -9.3348     0.0000     0.0000     0.0000     0.0000 </r>
        <r>    -9.2899     0.0000     0.0000     0.0000     0.0000 </r>
        <r>    -9.2450     0.0000     0.0000     0.0000     0.0000 </r>
        <r>    -9.2001     0.0000     0.0000     0.0000     0.0000 </r>
        <r>    -9.1552     0.0000     0.0000     0.0000     0.0000 </r>
        <r>    -9.1103     0.0000     0.0000     0.0000     0.0000 </r>
        <r>    -9.0654     0.0000     0.0000     0.0000     0.0000 </r>
        <r>    -9.0205     0.0000     0.0000     0.0000     0.0000 </r>
        <r>    -8.9757     0.0000     0.0000     0.0000     0.0000 </r>
        <r>    -8.9308     0.0000     0.0000     0.0000     0.0000 </r>
        <r>    -8.8859     0.0000     0.0000     0.0000     0.0000 </r>
        <r>    -8.8410     0.0000     0.0000     0.0000     0.0000 </r>
        <r>    -8.7961     0.0000     0.0000     0.0000     0.0000 </r>
        <r>    -8.7512     0.0000     0.0000     0.0000     0.0000 </r>
        <r>    -8.7063     0.0000     0.0000     0.0000     0.0000 </r>
        <r>    -8.6615     0.0000     0.0000     0.0000     0.0000 </r>
        <r>    -8.6166     0.0000     0.0000     0.0000     0.0000 </r>
        <r>    -8.5717     0.0000     0.0000     0.0000     0.0000 </r>
        <r>    -8.5268     0.0000     0.0000     0.0000     0.0000 </r>
        <r>    -8.4819     0.0000     0.0000     0.0000     0.0000 </r>
        <r>    -8.4370     0.0000     0.0000     0.0000     0.0000 </r>
        <r>    -8.3921     0.0000     0.0000     0.0000     0.0000 </r>
        <r>    -8.3472     0.0022     0.0003     0.0002     0.0000 </r>
        <r>    -8.3024     0.8957     0.1068     0.0969     0.0003 </r>
        <r>    -8.2575     0.0000     0.0000     0.0000     0.0000 </r>
        <r>    -8.2126     0.0000     0.0000     0.0000     0.0000 </r>
        <r>    -8.1677     0.0000     0.0000     0.0000     0.0000 </r>
        <r>    -8.1228     0.0000     0.0000     0.0000     0.0000 </r>
        <r>    -8.0779     0.0000     0.0000     0.0000     0.0000 </r>
        <r>    -8.0330     0.0000     0.0000     0.0000     0.0000 </r>
        <r>    -7.9882     0.0000     0.0000     0.0000     0.0000 </r>
        <r>    -7.9433     0.0000     0.0000     0.0000     0.0000 </r>
        <r>    -7.8984     0.0000     0.0000     0.0000     0.0000 </r>
        <r>    -7.8535     0.0000     0.0000     0.0000     0.0000 </r>
        <r>    -7.8086     0.0000     0.0000     0.0000     0.0000 </r>
        <r>    -7.7637     0.0000     0.0000     0.0000     0.0000 </r>
        <r>    -7.7188     0.0000     0.0000     0.0000     0.0000 </r>
        <r>    -7.6739     0.0000     0.0000     0.0000     0.0000 </r>
        <r>    -7.6291     0.0000     0.0000     0.0000     0.0000 </r>
        <r>    -7.5842     0.0000     0.0000     0.0000     0.0000 </r>
        <r>    -7.5393     0.0000     0.0000     0.0000     0.0000 </r>
        <r>    -7.4944     0.0000     0.0000     0.0000     0.0000 </r>
        <r>    -7.4495     0.0000     0.0000     0.0000     0.0000 </r>
        <r>    -7.4046     0.0000     0.0000     0.0000     0.0000 </r>
        <r>    -7.3597     0.0000     0.0000     0.0000     0.0000 </r>
        <r>    -7.3149     0.0000     0.0000     0.0000     0.0000 </r>
        <r>    -7.2700     0.0000     0.0000     0.0000     0.0000 </r>
        <r>    -7.2251     0.0000     0.0000     0.0000     0.0000 </r>
        <r>    -7.1802     0.0000     0.0000     0.0000     0.0000 </r>
        <r>    -7.1353     0.0000     0.0000     0.0000     0.0000 </r>
        <r>    -7.0904     0.0000     0.0000     0.0000     0.0000 </r>
        <r>    -7.0455     0.0000     0.0000     0.0000     0.0000 </r>
        <r>    -7.0006     0.0000     0.0000     0.0000     0.0000 </r>
        <r>    -6.9558     0.0000     0.0000     0.0000     0.0000 </r>
        <r>    -6.9109     0.0000     0.0000     0.0000     0.0000 </r>
        <r>    -6.8660     0.0000     0.0000     0.0000     0.0000 </r>
        <r>    -6.8211     0.0000     0.0000     0.0000     0.0000 </r>
        <r>    -6.7762     0.0000     0.0000     0.0000     0.0000 </r>
        <r>    -6.7313     0.0000     0.0000     0.0000     0.0000 </r>
        <r>    -6.6864     1.9312     0.0677     0.0270     0.0003 </r>
        <r>    -6.6415     0.0000     0.0000     0.0000     0.0000 </r>
        <r>    -6.5967     0.0000     0.0000     0.0000     0.0000 </r>
        <r>    -6.5518     0.0000     0.0000     0.0000     0.0000 </r>
        <r>    -6.5069     0.0000     0.0000     0.0000     0.0000 </r>
        <r>    -6.4620     0.0000     0.0000     0.0000     0.0000 </r>
        <r>    -6.4171     0.0000     0.0000     0.0000     0.0000 </r>
        <r>    -6.3722     0.0000     0.0000     0.0000     0.0000 </r>
        <r>    -6.3273     0.0000     0.0000     0.0000     0.0000 </r>
        <r>    -6.2825     0.0000     0.0000     0.0000     0.0000 </r>
        <r>    -6.2376     0.0000     0.0000     0.0000     0.0000 </r>
        <r>    -6.1927     0.0000     0.0000     0.0000     0.0000 </r>
        <r>    -6.1478     0.0000     0.0000     0.0000     0.0000 </r>
        <r>    -6.1029     0.0000     0.0000     0.0000     0.0000 </r>
        <r>    -6.0580     0.0000     0.0000     0.0000     0.0000 </r>
        <r>    -6.0131     0.0000     0.0000     0.0000     0.0000 </r>
        <r>    -5.9682     0.0000     0.0000     0.0000     0.0000 </r>
        <r>    -5.9234     0.0000     0.0000     0.0000     0.0000 </r>
        <r>    -5.8785     0.0000     0.0000     0.0000     0.0000 </r>
        <r>    -5.8336     0.0000     0.0000     0.0000     0.0000 </r>
        <r>    -5.7887     0.0000     0.0000     0.0000     0.0000 </r>
        <r>    -5.7438     0.0000     0.0000     0.0000     0.0000 </r>
        <r>    -5.6989     0.0000     0.0000     0.0000     0.0000 </r>
        <r>    -5.6540     0.0000     0.0000     0.0000     0.0000 </r>
        <r>    -5.6092     0.0000     0.0000     0.0000     0.0000 </r>
        <r>    -5.5643     0.0000     0.0000     0.0000     0.0000 </r>
        <r>    -5.5194     0.0000     0.0000     0.0000     0.0000 </r>
        <r>    -5.4745     0.0000     0.0000     0.0000     0.0000 </r>
        <r>    -5.4296     0.0000     0.0000     0.0000     0.0000 </r>
        <r>    -5.3847     0.0000     0.0000     0.0000     0.0000 </r>
        <r>    -5.3398     1.9114     0.0585     0.0304     0.0009 </r>
        <r>    -5.2949     0.0000     0.0000     0.0000     0.0000 </r>
        <r>    -5.2501     0.0000     0.0000     0.0000     0.0000 </r>
        <r>    -5.2052     0.0021     0.0443     0.0235     0.0009 </r>
        <r>    -5.1603     0.0000     0.0000     0.0000     0.0000 </r>
        <r>    -5.1154     0.0000     0.0000     0.0000     0.0000 </r>
        <r>    -5.0705     0.0000     0.0000     0.0000     0.0000 </r>
        <r>    -5.0256     0.0000     0.0000     0.0000     0.0000 </r>
        <r>    -4.9807     0.0000     0.0000     0.0000     0.0000 </r>
        <r>    -4.9358     0.0000     0.0000     0.0000     0.0000 </r>
        <r>    -4.8910     0.0000     0.0000     0.0000     0.0000 </r>
        <r>    -4.8461     0.0000     0.0000     0.0000     0.0000 </r>
        <r>    -4.8012     0.0000     0.0000     0.0000     0.0000 </r>
        <r>    -4.7563     0.0000     0.0000     0.0000     0.0000 </r>
        <r>    -4.7114     1.7822     0.0637     0.0155     0.0006 </r>
        <r>    -4.6665     2.1550     0.1677     0.0497     0.0018 </r>
        <r>    -4.6216     0.0000     0.0000     0.0000     0.0000 </r>
        <r>    -4.5768     0.0000     0.0000     0.0000     0.0000 </r>
        <r>    -4.5319     0.0000     0.0000     0.0000     0.0000 </r>
        <r>    -4.4870     0.0000     0.0000     0.0000     0.0000 </r>
        <r>    -4.4421     0.0000     0.0000     0.0000     0.0000 </r>
        <r>    -4.3972     0.0000     0.0000     0.0000     0.0000 </r>
        <r>    -4.3523     0.0000     0.0000     0.0000     0.0000 </r>
        <r>    -4.3074     0.0000     0.0000     0.0000     0.0000 </r>
        <r>    -4.2625     0.0000     0.0000     0.0000     0.0000 </r>
        <r>    -4.2177     0.0000     0.0000     0.0000     0.0000 </r>
        <r>    -4.1728     0.0000     0.0000     0.0000     0.0000 </r>
        <r>    -4.1279     0.0000     0.0000     0.0000     0.0000 </r>
        <r>    -4.0830     0.0000     0.0000     0.0000     0.0000 </r>
        <r>    -4.0381     0.0000     0.0000     0.0000     0.0000 </r>
        <r>    -3.9932     0.0000     0.0000     0.0000     0.0000 </r>
        <r>    -3.9483     0.0000     0.0000     0.0000     0.0000 </r>
        <r>    -3.9035     0.0000     0.0000     0.0000     0.0000 </r>
        <r>    -3.8586     0.0000     0.0000     0.0000     0.0000 </r>
        <r>    -3.8137     0.0000     0.0000     0.0000     0.0000 </r>
        <r>    -3.7688     0.0000     0.0000     0.0000     0.0000 </r>
        <r>    -3.7239     0.0000     0.0000     0.0000     0.0000 </r>
        <r>    -3.6790     0.0000     0.0000     0.0000     0.0000 </r>
        <r>    -3.6341     0.0000     0.0000     0.0000     0.0000 </r>
        <r>    -3.5892     0.0000     0.0000     0.0000     0.0000 </r>
        <r>    -3.5444     0.0000     0.0000     0.0000     0.0000 </r>
        <r>    -3.4995     0.0000     0.0000     0.0000     0.0000 </r>
        <r>    -3.4546     0.0000     0.0000     0.0000     0.0000 </r>
        <r>    -3.4097     0.0000     0.0000     0.0000     0.0000 </r>
        <r>    -3.3648     0.0000     0.0000     0.0000     0.0000 </r>
        <r>    -3.3199     0.0000     0.0000     0.0000     0.0000 </r>
        <r>    -3.2750     0.0000     0.0000     0.0000     0.0000 </r>
        <r>    -3.2302     0.0000     0.0000     0.0000     0.0000 </r>
        <r>    -3.1853     0.0000     0.0000     0.0000     0.0000 </r>
        <r>    -3.1404     0.0000     0.0000     0.0000     0.0000 </r>
        <r>    -3.0955     0.0000     0.0000     0.0000     0.0000 </r>
        <r>    -3.0506     0.0000     0.0000     0.0000     0.0000 </r>
        <r>    -3.0057     0.0000     0.0000     0.0000     0.0000 </r>
        <r>    -2.9608     0.0000     0.0000     0.0000     0.0000 </r>
        <r>    -2.9159     0.0000     0.0000     0.0000     0.0000 </r>
        <r>    -2.8711     0.0000     0.0000     0.0000     0.0000 </r>
        <r>    -2.8262     0.0000     0.0000     0.0000     0.0000 </r>
        <r>    -2.7813     0.0000     0.0000     0.0000     0.0000 </r>
        <r>    -2.7364     0.0000     0.0000     0.0000     0.0000 </r>
        <r>    -2.6915     0.0000     0.0000     0.0000     0.0000 </r>
        <r>    -2.6466     0.0000     0.0000     0.0000     0.0000 </r>
        <r>    -2.6017     0.0000     0.0000     0.0000     0.0000 </r>
        <r>    -2.5568     0.0000     0.0000     0.0000     0.0000 </r>
        <r>    -2.5120     0.0000     0.0000     0.0000     0.0000 </r>
        <r>    -2.4671     0.0000     0.0000     0.0000     0.0000 </r>
        <r>    -2.4222     0.0000     0.0000     0.0000     0.0000 </r>
        <r>    -2.3773     0.0000     0.0000     0.0000     0.0000 </r>
        <r>    -2.3324     0.0000     0.0000     0.0000     0.0000 </r>
        <r>    -2.2875     0.0001     0.8375     0.0447     0.0021 </r>
        <r>    -2.2426     0.0000     0.0000     0.0000     0.0000 </r>
        <r>    -2.1978     0.0000     0.0000     0.0000     0.0000 </r>
        <r>    -2.1529     0.0000     0.0000     0.0000     0.0000 </r>
        <r>    -2.1080     0.0000     0.0000     0.0000     0.0000 </r>
        <r>    -2.0631     0.2065     1.2007     0.0610     0.0044 </r>
        <r>    -2.0182     0.0000     0.0000     0.0000     0.0000 </r>
        <r>    -1.9733     0.0000     0.0000     0.0000     0.0000 </r>
        <r>    -1.9284     0.0000     0.0000     0.0000     0.0000 </r>
        <r>    -1.8835     0.0000     0.0000     0.0000     0.0000 </r>
        <r>    -1.8387     0.1238     0.7798     0.0246     0.0019 </r>
        <r>    -1.7938     0.1602     0.8588     0.0061     0.0007 </r>
        <r>    -1.7489     0.0000     0.0000     0.0000     0.0000 </r>
        <r>    -1.7040     0.0000     0.0000     0.0000     0.0000 </r>
        <r>    -1.6591     0.0000     0.0000     0.0000     0.0000 </r>
        <r>    -1.6142     0.0000     0.0000     0.0000     0.0000 </r>
        <r>    -1.5693     0.0000     0.0000     0.0000     0.0000 </r>
        <r>    -1.5245     0.0000     0.3327     0.0288     0.0028 </r>
        <r>    -1.4796     0.0000     0.0000     0.0000     0.0000 </r>
        <r>    -1.4347     0.0000     0.0000     0.0000     0.0000 </r>
        <r>    -1.3898     0.0000     0.0000     0.0000     0.0000 </r>
        <r>    -1.3449     0.0000     0.0000     0.0000     0.0000 </r>
        <r>    -1.3000     0.0000     0.0000     0.0000     0.0000 </r>
        <r>    -1.2551     0.0000     0.0000     0.0000     0.0000 </r>
        <r>    -1.2102     0.0000     0.0000     0.0000     0.0000 </r>
        <r>    -1.1654     0.0116     1.0625     0.0095     0.0007 </r>
        <r>    -1.1205     0.0000     0.0000     0.0000     0.0000 </r>
        <r>    -1.0756     0.0000     0.0000     0.0000     0.0000 </r>
        <r>    -1.0307     0.0000     0.0000     0.0000     0.0000 </r>
        <r>    -0.9858     0.0000     0.0000     0.0000     0.0000 </r>
        <r>    -0.9409     0.0000     0.0000     0.0000     0.0000 </r>
        <r>    -0.8960     0.0000     0.0000     0.0000     0.0000 </r>
        <r>    -0.8511     0.0000     0.0000     0.0000     0.0000 </r>
        <r>    -0.8063     0.0000     0.0000     0.0000     0.0000 </r>
        <r>    -0.7614     0.0000     0.0000     0.0000     0.0000 </r>
        <r>    -0.7165     0.0000     0.0000     0.0000     0.0000 </r>
        <r>    -0.6716     0.0000     0.0000     0.0000     0.0000 </r>
        <r>    -0.6267     0.0001     1.0947     0.0152     0.0014 </r>
        <r>    -0.5818     0.0000     0.0000     0.0000     0.0000 </r>
        <r>    -0.5369     0.0000     0.0000     0.0000     0.0000 </r>
        <r>    -0.4921     0.0000     0.0000     0.0000     0.0000 </r>
        <r>    -0.4472     0.0000     0.0000     0.0000     0.0000 </r>
        <r>    -0.4023     0.0000     0.0000     0.0000     0.0000 </r>
        <r>    -0.3574     0.0000     0.0000     0.0000     0.0000 </r>
        <r>    -0.3125     0.0000     0.0000     0.0000     0.0000 </r>
        <r>    -0.2676     0.0000     0.0000     0.0000     0.0000 </r>
        <r>    -0.2227     0.0000     0.8120     0.0194     0.0012 </r>
        <r>    -0.1778     0.0000     0.0000     0.0000     0.0000 </r>
        <r>    -0.1330     0.0000     0.0000     0.0000     0.0000 </r>
        <r>    -0.0881     0.0000     0.0000     0.0000     0.0000 </r>
        <r>    -0.0432     0.0000     0.0000     0.0000     0.0000 </r>
        <r>     0.0017     0.0000     0.0000     0.0000     0.0000 </r>
        <r>     0.0466     0.2302     0.2620     0.0327     0.0013 </r>
        <r>     0.0915     0.0000     0.0000     0.0000     0.0000 </r>
        <r>     0.1364     0.0000     0.0000     0.0000     0.0000 </r>
        <r>     0.1812     0.0000     0.0000     0.0000     0.0000 </r>
        <r>     0.2261     0.0000     0.0000     0.0000     0.0000 </r>
        <r>     0.2710     0.0000     0.0000     0.0000     0.0000 </r>
        <r>     0.3159     0.0000     0.0000     0.0000     0.0000 </r>
        <r>     0.3608     0.0000     0.0000     0.0000     0.0000 </r>
        <r>     0.4057     0.0000     0.0000     0.0000     0.0000 </r>
        <r>     0.4506     0.0000     0.0000     0.0000     0.0000 </r>
        <r>     0.4955     0.0000     0.0000     0.0000     0.0000 </r>
        <r>     0.5403     0.0000     0.0000     0.0000     0.0000 </r>
        <r>     0.5852     0.0000     0.0000     0.0000     0.0000 </r>
        <r>     0.6301     0.0000     0.0000     0.0000     0.0000 </r>
       </set>
      </set>
      <set comment="ion 4">
       <set comment="spin 1">
        <r>   -12.8359     0.0000     0.0000     0.0000     0.0000 </r>
        <r>   -12.7910     0.0000     0.0000     0.0000     0.0000 </r>
        <r>   -12.7462     0.0000     0.0000     0.0000     0.0000 </r>
        <r>   -12.7013     0.0000     0.0000     0.0000     0.0000 </r>
        <r>   -12.6564     0.0000     0.0000     0.0000     0.0000 </r>
        <r>   -12.6115     0.0000     0.0000     0.0000     0.0000 </r>
        <r>   -12.5666     0.0000     0.0000     0.0000     0.0000 </r>
        <r>   -12.5217     0.0000     0.0000     0.0000     0.0000 </r>
        <r>   -12.4768     0.0000     0.0000     0.0000     0.0000 </r>
        <r>   -12.4319     0.0000     0.0000     0.0000     0.0000 </r>
        <r>   -12.3871     0.0000     0.0000     0.0000     0.0000 </r>
        <r>   -12.3422     0.0000     0.0000     0.0000     0.0000 </r>
        <r>   -12.2973     0.0000     0.0000     0.0000     0.0000 </r>
        <r>   -12.2524     0.0000     0.0000     0.0000     0.0000 </r>
        <r>   -12.2075     0.0164     0.0095     1.6789     0.0007 </r>
        <r>   -12.1626     0.0000     0.0000     0.0000     0.0000 </r>
        <r>   -12.1177     0.0000     0.0000     0.0012     0.0000 </r>
        <r>   -12.0729     0.0084     0.0044     1.0872     0.0003 </r>
        <r>   -12.0280     0.0076     0.0054     2.2688     0.0003 </r>
        <r>   -11.9831     0.0133     0.0078     4.6007     0.0009 </r>
        <r>   -11.9382     0.0000     0.0000     0.0000     0.0000 </r>
        <r>   -11.8933     0.0001     0.0004     1.5385     0.0002 </r>
        <r>   -11.8484     0.0063     0.0058    14.0364     0.0011 </r>
        <r>   -11.8035     0.0000     0.0000     0.0104     0.0000 </r>
        <r>   -11.7586     0.0000     0.0001     0.5336     0.0000 </r>
        <r>   -11.7138     0.0019     0.0009    12.3244     0.0001 </r>
        <r>   -11.6689     0.0005     0.0001    10.8355     0.0000 </r>
        <r>   -11.6240     0.0019     0.0007    16.5516     0.0002 </r>
        <r>   -11.5791     0.0020     0.0017    12.8342     0.0002 </r>
        <r>   -11.5342     0.0027     0.0029    10.1584     0.0003 </r>
        <r>   -11.4893     0.0004     0.0015     4.4377     0.0003 </r>
        <r>   -11.4444     0.0000     0.0000     0.0000     0.0000 </r>
        <r>   -11.3995     0.0000     0.0000     0.0000     0.0000 </r>
        <r>   -11.3547     0.0000     0.0000     0.0000     0.0000 </r>
        <r>   -11.3098     0.0000     0.0000     0.0000     0.0000 </r>
        <r>   -11.2649     0.0000     0.0000     0.0000     0.0000 </r>
        <r>   -11.2200     0.0000     0.0000     0.0000     0.0000 </r>
        <r>   -11.1751     0.0000     0.0000     0.0000     0.0000 </r>
        <r>   -11.1302     0.0000     0.0000     0.0000     0.0000 </r>
        <r>   -11.0853     0.0000     0.0000     0.0000     0.0000 </r>
        <r>   -11.0405     0.0000     0.0000     0.0000     0.0000 </r>
        <r>   -10.9956     0.0000     0.0000     0.0000     0.0000 </r>
        <r>   -10.9507     0.0000     0.0000     0.0000     0.0000 </r>
        <r>   -10.9058     0.0000     0.0000     0.0000     0.0000 </r>
        <r>   -10.8609     0.0000     0.0000     0.0000     0.0000 </r>
        <r>   -10.8160     0.0000     0.0000     0.0000     0.0000 </r>
        <r>   -10.7711     0.0000     0.0000     0.0000     0.0000 </r>
        <r>   -10.7262     0.0000     0.0000     0.0000     0.0000 </r>
        <r>   -10.6814     0.0000     0.0000     0.0000     0.0000 </r>
        <r>   -10.6365     0.0000     0.0000     0.0000     0.0000 </r>
        <r>   -10.5916     0.0000     0.0000     0.0000     0.0000 </r>
        <r>   -10.5467     0.0000     0.0000     0.0000     0.0000 </r>
        <r>   -10.5018     0.0000     0.0000     0.0000     0.0000 </r>
        <r>   -10.4569     0.0000     0.0000     0.0000     0.0000 </r>
        <r>   -10.4120     0.0000     0.0000     0.0000     0.0000 </r>
        <r>   -10.3672     0.0000     0.0000     0.0000     0.0000 </r>
        <r>   -10.3223     0.0000     0.0000     0.0000     0.0000 </r>
        <r>   -10.2774     0.0000     0.0000     0.0000     0.0000 </r>
        <r>   -10.2325     0.0000     0.0000     0.0000     0.0000 </r>
        <r>   -10.1876     0.0000     0.0000     0.0000     0.0000 </r>
        <r>   -10.1427     0.0000     0.0000     0.0000     0.0000 </r>
        <r>   -10.0978     0.0000     0.0000     0.0000     0.0000 </r>
        <r>   -10.0529     0.0000     0.0000     0.0000     0.0000 </r>
        <r>   -10.0081     0.0000     0.0000     0.0000     0.0000 </r>
        <r>    -9.9632     0.0000     0.0000     0.0000     0.0000 </r>
        <r>    -9.9183     0.0000     0.0000     0.0000     0.0000 </r>
        <r>    -9.8734     0.0000     0.0000     0.0000     0.0000 </r>
        <r>    -9.8285     0.0000     0.0000     0.0000     0.0000 </r>
        <r>    -9.7836     0.0000     0.0000     0.0000     0.0000 </r>
        <r>    -9.7387     0.0000     0.0000     0.0000     0.0000 </r>
        <r>    -9.6939     0.0000     0.0000     0.0000     0.0000 </r>
        <r>    -9.6490     0.0000     0.0000     0.0000     0.0000 </r>
        <r>    -9.6041     0.0000     0.0000     0.0000     0.0000 </r>
        <r>    -9.5592     0.0000     0.0000     0.0000     0.0000 </r>
        <r>    -9.5143     0.0000     0.0000     0.0000     0.0000 </r>
        <r>    -9.4694     0.0000     0.0000     0.0000     0.0000 </r>
        <r>    -9.4245     0.0000     0.0000     0.0000     0.0000 </r>
        <r>    -9.3796     0.0000     0.0000     0.0000     0.0000 </r>
        <r>    -9.3348     0.0000     0.0000     0.0000     0.0000 </r>
        <r>    -9.2899     0.0000     0.0000     0.0000     0.0000 </r>
        <r>    -9.2450     0.0000     0.0000     0.0000     0.0000 </r>
        <r>    -9.2001     0.0000     0.0000     0.0000     0.0000 </r>
        <r>    -9.1552     0.0000     0.0000     0.0000     0.0000 </r>
        <r>    -9.1103     0.0000     0.0000     0.0000     0.0000 </r>
        <r>    -9.0654     0.0000     0.0000     0.0000     0.0000 </r>
        <r>    -9.0205     0.0000     0.0000     0.0000     0.0000 </r>
        <r>    -8.9757     0.0000     0.0000     0.0000     0.0000 </r>
        <r>    -8.9308     0.0000     0.0000     0.0000     0.0000 </r>
        <r>    -8.8859     0.0000     0.0000     0.0000     0.0000 </r>
        <r>    -8.8410     0.0000     0.0000     0.0000     0.0000 </r>
        <r>    -8.7961     0.0000     0.0000     0.0000     0.0000 </r>
        <r>    -8.7512     0.0000     0.0000     0.0000     0.0000 </r>
        <r>    -8.7063     0.0000     0.0000     0.0000     0.0000 </r>
        <r>    -8.6615     0.0000     0.0000     0.0000     0.0000 </r>
        <r>    -8.6166     0.0000     0.0000     0.0000     0.0000 </r>
        <r>    -8.5717     0.0000     0.0000     0.0000     0.0000 </r>
        <r>    -8.5268     0.0000     0.0000     0.0000     0.0000 </r>
        <r>    -8.4819     0.0000     0.0000     0.0000     0.0000 </r>
        <r>    -8.4370     0.0000     0.0000     0.0000     0.0000 </r>
        <r>    -8.3921     0.0000     0.0000     0.0000     0.0000 </r>
        <r>    -8.3472     0.0026     0.0003     0.0002     0.0000 </r>
        <r>    -8.3024     1.0478     0.1192     0.0989     0.0003 </r>
        <r>    -8.2575     0.0000     0.0000     0.0000     0.0000 </r>
        <r>    -8.2126     0.0000     0.0000     0.0000     0.0000 </r>
        <r>    -8.1677     0.0000     0.0000     0.0000     0.0000 </r>
        <r>    -8.1228     0.0000     0.0000     0.0000     0.0000 </r>
        <r>    -8.0779     0.0000     0.0000     0.0000     0.0000 </r>
        <r>    -8.0330     0.0000     0.0000     0.0000     0.0000 </r>
        <r>    -7.9882     0.0000     0.0000     0.0000     0.0000 </r>
        <r>    -7.9433     0.0000     0.0000     0.0000     0.0000 </r>
        <r>    -7.8984     0.0000     0.0000     0.0000     0.0000 </r>
        <r>    -7.8535     0.0000     0.0000     0.0000     0.0000 </r>
        <r>    -7.8086     0.0000     0.0000     0.0000     0.0000 </r>
        <r>    -7.7637     0.0000     0.0000     0.0000     0.0000 </r>
        <r>    -7.7188     0.0000     0.0000     0.0000     0.0000 </r>
        <r>    -7.6739     0.0000     0.0000     0.0000     0.0000 </r>
        <r>    -7.6291     0.0000     0.0000     0.0000     0.0000 </r>
        <r>    -7.5842     0.0000     0.0000     0.0000     0.0000 </r>
        <r>    -7.5393     0.0000     0.0000     0.0000     0.0000 </r>
        <r>    -7.4944     0.0000     0.0000     0.0000     0.0000 </r>
        <r>    -7.4495     0.0000     0.0000     0.0000     0.0000 </r>
        <r>    -7.4046     0.0000     0.0000     0.0000     0.0000 </r>
        <r>    -7.3597     0.0000     0.0000     0.0000     0.0000 </r>
        <r>    -7.3149     0.0000     0.0000     0.0000     0.0000 </r>
        <r>    -7.2700     0.0000     0.0000     0.0000     0.0000 </r>
        <r>    -7.2251     0.0000     0.0000     0.0000     0.0000 </r>
        <r>    -7.1802     0.0000     0.0000     0.0000     0.0000 </r>
        <r>    -7.1353     0.0000     0.0000     0.0000     0.0000 </r>
        <r>    -7.0904     0.0000     0.0000     0.0000     0.0000 </r>
        <r>    -7.0455     0.0000     0.0000     0.0000     0.0000 </r>
        <r>    -7.0006     0.0000     0.0000     0.0000     0.0000 </r>
        <r>    -6.9558     0.0000     0.0000     0.0000     0.0000 </r>
        <r>    -6.9109     0.0000     0.0000     0.0000     0.0000 </r>
        <r>    -6.8660     0.0000     0.0000     0.0000     0.0000 </r>
        <r>    -6.8211     0.0000     0.0000     0.0000     0.0000 </r>
        <r>    -6.7762     0.0000     0.0000     0.0000     0.0000 </r>
        <r>    -6.7313     0.0000     0.0000     0.0000     0.0000 </r>
        <r>    -6.6864     1.6434     0.0726     0.0361     0.0005 </r>
        <r>    -6.6415     0.0000     0.0000     0.0000     0.0000 </r>
        <r>    -6.5967     0.0000     0.0000     0.0000     0.0000 </r>
        <r>    -6.5518     0.0000     0.0000     0.0000     0.0000 </r>
        <r>    -6.5069     0.0000     0.0000     0.0000     0.0000 </r>
        <r>    -6.4620     0.0000     0.0000     0.0000     0.0000 </r>
        <r>    -6.4171     0.0000     0.0000     0.0000     0.0000 </r>
        <r>    -6.3722     0.0000     0.0000     0.0000     0.0000 </r>
        <r>    -6.3273     0.0000     0.0000     0.0000     0.0000 </r>
        <r>    -6.2825     0.0000     0.0000     0.0000     0.0000 </r>
        <r>    -6.2376     0.0000     0.0000     0.0000     0.0000 </r>
        <r>    -6.1927     0.0000     0.0000     0.0000     0.0000 </r>
        <r>    -6.1478     0.0000     0.0000     0.0000     0.0000 </r>
        <r>    -6.1029     0.0000     0.0000     0.0000     0.0000 </r>
        <r>    -6.0580     0.0000     0.0000     0.0000     0.0000 </r>
        <r>    -6.0131     0.0000     0.0000     0.0000     0.0000 </r>
        <r>    -5.9682     0.0000     0.0000     0.0000     0.0000 </r>
        <r>    -5.9234     0.0000     0.0000     0.0000     0.0000 </r>
        <r>    -5.8785     0.0000     0.0000     0.0000     0.0000 </r>
        <r>    -5.8336     0.0000     0.0000     0.0000     0.0000 </r>
        <r>    -5.7887     0.0000     0.0000     0.0000     0.0000 </r>
        <r>    -5.7438     0.0000     0.0000     0.0000     0.0000 </r>
        <r>    -5.6989     0.0000     0.0000     0.0000     0.0000 </r>
        <r>    -5.6540     0.0000     0.0000     0.0000     0.0000 </r>
        <r>    -5.6092     0.0000     0.0000     0.0000     0.0000 </r>
        <r>    -5.5643     0.0000     0.0000     0.0000     0.0000 </r>
        <r>    -5.5194     0.0000     0.0000     0.0000     0.0000 </r>
        <r>    -5.4745     0.0000     0.0000     0.0000     0.0000 </r>
        <r>    -5.4296     0.0000     0.0000     0.0000     0.0000 </r>
        <r>    -5.3847     0.0000     0.0000     0.0000     0.0000 </r>
        <r>    -5.3398     2.3568     0.0677     0.0275     0.0006 </r>
        <r>    -5.2949     0.0000     0.0000     0.0000     0.0000 </r>
        <r>    -5.2501     0.0000     0.0000     0.0000     0.0000 </r>
        <r>    -5.2052     0.0068     0.0501     0.0262     0.0010 </r>
        <r>    -5.1603     0.0000     0.0000     0.0000     0.0000 </r>
        <r>    -5.1154     0.0000     0.0000     0.0000     0.0000 </r>
        <r>    -5.0705     0.0000     0.0000     0.0000     0.0000 </r>
        <r>    -5.0256     0.0000     0.0000     0.0000     0.0000 </r>
        <r>    -4.9807     0.0000     0.0000     0.0000     0.0000 </r>
        <r>    -4.9358     0.0000     0.0000     0.0000     0.0000 </r>
        <r>    -4.8910     0.0000     0.0000     0.0000     0.0000 </r>
        <r>    -4.8461     0.0000     0.0000     0.0000     0.0000 </r>
        <r>    -4.8012     0.0000     0.0000     0.0000     0.0000 </r>
        <r>    -4.7563     0.0000     0.0000     0.0000     0.0000 </r>
        <r>    -4.7114     2.5777     0.0452     0.0070     0.0004 </r>
        <r>    -4.6665     0.9082     0.1673     0.0639     0.0025 </r>
        <r>    -4.6216     0.0000     0.0000     0.0000     0.0000 </r>
        <r>    -4.5768     0.0000     0.0000     0.0000     0.0000 </r>
        <r>    -4.5319     0.0000     0.0000     0.0000     0.0000 </r>
        <r>    -4.4870     0.0000     0.0000     0.0000     0.0000 </r>
        <r>    -4.4421     0.0000     0.0000     0.0000     0.0000 </r>
        <r>    -4.3972     0.0000     0.0000     0.0000     0.0000 </r>
        <r>    -4.3523     0.0000     0.0000     0.0000     0.0000 </r>
        <r>    -4.3074     0.0000     0.0000     0.0000     0.0000 </r>
        <r>    -4.2625     0.0000     0.0000     0.0000     0.0000 </r>
        <r>    -4.2177     0.0000     0.0000     0.0000     0.0000 </r>
        <r>    -4.1728     0.0000     0.0000     0.0000     0.0000 </r>
        <r>    -4.1279     0.0000     0.0000     0.0000     0.0000 </r>
        <r>    -4.0830     0.0000     0.0000     0.0000     0.0000 </r>
        <r>    -4.0381     0.0000     0.0000     0.0000     0.0000 </r>
        <r>    -3.9932     0.0000     0.0000     0.0000     0.0000 </r>
        <r>    -3.9483     0.0000     0.0000     0.0000     0.0000 </r>
        <r>    -3.9035     0.0000     0.0000     0.0000     0.0000 </r>
        <r>    -3.8586     0.0000     0.0000     0.0000     0.0000 </r>
        <r>    -3.8137     0.0000     0.0000     0.0000     0.0000 </r>
        <r>    -3.7688     0.0000     0.0000     0.0000     0.0000 </r>
        <r>    -3.7239     0.0000     0.0000     0.0000     0.0000 </r>
        <r>    -3.6790     0.0000     0.0000     0.0000     0.0000 </r>
        <r>    -3.6341     0.0000     0.0000     0.0000     0.0000 </r>
        <r>    -3.5892     0.0000     0.0000     0.0000     0.0000 </r>
        <r>    -3.5444     0.0000     0.0000     0.0000     0.0000 </r>
        <r>    -3.4995     0.0000     0.0000     0.0000     0.0000 </r>
        <r>    -3.4546     0.0000     0.0000     0.0000     0.0000 </r>
        <r>    -3.4097     0.0000     0.0000     0.0000     0.0000 </r>
        <r>    -3.3648     0.0000     0.0000     0.0000     0.0000 </r>
        <r>    -3.3199     0.0000     0.0000     0.0000     0.0000 </r>
        <r>    -3.2750     0.0000     0.0000     0.0000     0.0000 </r>
        <r>    -3.2302     0.0000     0.0000     0.0000     0.0000 </r>
        <r>    -3.1853     0.0000     0.0000     0.0000     0.0000 </r>
        <r>    -3.1404     0.0000     0.0000     0.0000     0.0000 </r>
        <r>    -3.0955     0.0000     0.0000     0.0000     0.0000 </r>
        <r>    -3.0506     0.0000     0.0000     0.0000     0.0000 </r>
        <r>    -3.0057     0.0000     0.0000     0.0000     0.0000 </r>
        <r>    -2.9608     0.0000     0.0000     0.0000     0.0000 </r>
        <r>    -2.9159     0.0000     0.0000     0.0000     0.0000 </r>
        <r>    -2.8711     0.0000     0.0000     0.0000     0.0000 </r>
        <r>    -2.8262     0.0000     0.0000     0.0000     0.0000 </r>
        <r>    -2.7813     0.0000     0.0000     0.0000     0.0000 </r>
        <r>    -2.7364     0.0000     0.0000     0.0000     0.0000 </r>
        <r>    -2.6915     0.0000     0.0000     0.0000     0.0000 </r>
        <r>    -2.6466     0.0000     0.0000     0.0000     0.0000 </r>
        <r>    -2.6017     0.0000     0.0000     0.0000     0.0000 </r>
        <r>    -2.5568     0.0000     0.0000     0.0000     0.0000 </r>
        <r>    -2.5120     0.0000     0.0000     0.0000     0.0000 </r>
        <r>    -2.4671     0.0000     0.0000     0.0000     0.0000 </r>
        <r>    -2.4222     0.0000     0.0000     0.0000     0.0000 </r>
        <r>    -2.3773     0.0000     0.0000     0.0000     0.0000 </r>
        <r>    -2.3324     0.0000     0.0000     0.0000     0.0000 </r>
        <r>    -2.2875     0.0000     0.6722     0.0425     0.0023 </r>
        <r>    -2.2426     0.0000     0.0000     0.0000     0.0000 </r>
        <r>    -2.1978     0.0000     0.0000     0.0000     0.0000 </r>
        <r>    -2.1529     0.0000     0.0000     0.0000     0.0000 </r>
        <r>    -2.1080     0.0000     0.0000     0.0000     0.0000 </r>
        <r>    -2.0631     0.1375     1.3277     0.0643     0.0046 </r>
        <r>    -2.0182     0.0000     0.0000     0.0000     0.0000 </r>
        <r>    -1.9733     0.0000     0.0000     0.0000     0.0000 </r>
        <r>    -1.9284     0.0000     0.0000     0.0000     0.0000 </r>
        <r>    -1.8835     0.0000     0.0000     0.0000     0.0000 </r>
        <r>    -1.8387     0.3263     0.5692     0.0093     0.0025 </r>
        <r>    -1.7938     0.0056     1.1881     0.0193     0.0005 </r>
        <r>    -1.7489     0.0000     0.0000     0.0000     0.0000 </r>
        <r>    -1.7040     0.0000     0.0000     0.0000     0.0000 </r>
        <r>    -1.6591     0.0000     0.0000     0.0000     0.0000 </r>
        <r>    -1.6142     0.0000     0.0000     0.0000     0.0000 </r>
        <r>    -1.5693     0.0000     0.0000     0.0000     0.0000 </r>
        <r>    -1.5245     0.0000     0.8082     0.0269     0.0022 </r>
        <r>    -1.4796     0.0000     0.0000     0.0000     0.0000 </r>
        <r>    -1.4347     0.0000     0.0000     0.0000     0.0000 </r>
        <r>    -1.3898     0.0000     0.0000     0.0000     0.0000 </r>
        <r>    -1.3449     0.0000     0.0000     0.0000     0.0000 </r>
        <r>    -1.3000     0.0000     0.0000     0.0000     0.0000 </r>
        <r>    -1.2551     0.0000     0.0000     0.0000     0.0000 </r>
        <r>    -1.2102     0.0000     0.0000     0.0000     0.0000 </r>
        <r>    -1.1654     0.0651     0.7257     0.0216     0.0013 </r>
        <r>    -1.1205     0.0000     0.0000     0.0000     0.0000 </r>
        <r>    -1.0756     0.0000     0.0000     0.0000     0.0000 </r>
        <r>    -1.0307     0.0000     0.0000     0.0000     0.0000 </r>
        <r>    -0.9858     0.0000     0.0000     0.0000     0.0000 </r>
        <r>    -0.9409     0.0000     0.0000     0.0000     0.0000 </r>
        <r>    -0.8960     0.0000     0.0000     0.0000     0.0000 </r>
        <r>    -0.8511     0.0000     0.0000     0.0000     0.0000 </r>
        <r>    -0.8063     0.0000     0.0000     0.0000     0.0000 </r>
        <r>    -0.7614     0.0000     0.0000     0.0000     0.0000 </r>
        <r>    -0.7165     0.0000     0.0000     0.0000     0.0000 </r>
        <r>    -0.6716     0.0000     0.0000     0.0000     0.0000 </r>
        <r>    -0.6267     0.0000     0.4748     0.0237     0.0027 </r>
        <r>    -0.5818     0.0000     0.0000     0.0000     0.0000 </r>
        <r>    -0.5369     0.0000     0.0000     0.0000     0.0000 </r>
        <r>    -0.4921     0.0000     0.0000     0.0000     0.0000 </r>
        <r>    -0.4472     0.0000     0.0000     0.0000     0.0000 </r>
        <r>    -0.4023     0.0000     0.0000     0.0000     0.0000 </r>
        <r>    -0.3574     0.0000     0.0000     0.0000     0.0000 </r>
        <r>    -0.3125     0.0000     0.0000     0.0000     0.0000 </r>
        <r>    -0.2676     0.0000     0.0001     0.0000     0.0000 </r>
        <r>    -0.2227     0.0000     1.1352     0.0115     0.0009 </r>
        <r>    -0.1778     0.0000     0.0000     0.0000     0.0000 </r>
        <r>    -0.1330     0.0000     0.0000     0.0000     0.0000 </r>
        <r>    -0.0881     0.0000     0.0000     0.0000     0.0000 </r>
        <r>    -0.0432     0.0000     0.0000     0.0000     0.0000 </r>
        <r>     0.0017     0.0000     0.0000     0.0000     0.0000 </r>
        <r>     0.0466     0.0135     0.0355     0.0168     0.0029 </r>
        <r>     0.0915     0.0000     0.0000     0.0000     0.0000 </r>
        <r>     0.1364     0.0000     0.0000     0.0000     0.0000 </r>
        <r>     0.1812     0.0000     0.0000     0.0000     0.0000 </r>
        <r>     0.2261     0.0000     0.0000     0.0000     0.0000 </r>
        <r>     0.2710     0.0000     0.0000     0.0000     0.0000 </r>
        <r>     0.3159     0.0000     0.0000     0.0000     0.0000 </r>
        <r>     0.3608     0.0000     0.0000     0.0000     0.0000 </r>
        <r>     0.4057     0.0000     0.0000     0.0000     0.0000 </r>
        <r>     0.4506     0.0000     0.0000     0.0000     0.0000 </r>
        <r>     0.4955     0.0000     0.0000     0.0000     0.0000 </r>
        <r>     0.5403     0.0000     0.0000     0.0000     0.0000 </r>
        <r>     0.5852     0.0000     0.0000     0.0000     0.0000 </r>
        <r>     0.6301     0.0000     0.0000     0.0000     0.0000 </r>
       </set>
       <set comment="spin 2">
        <r>   -12.8359     0.0000     0.0000     0.0000     0.0000 </r>
        <r>   -12.7910     0.0000     0.0000     0.0000     0.0000 </r>
        <r>   -12.7462     0.0000     0.0000     0.0000     0.0000 </r>
        <r>   -12.7013     0.0000     0.0000     0.0000     0.0000 </r>
        <r>   -12.6564     0.0000     0.0000     0.0000     0.0000 </r>
        <r>   -12.6115     0.0000     0.0000     0.0000     0.0000 </r>
        <r>   -12.5666     0.0000     0.0000     0.0000     0.0000 </r>
        <r>   -12.5217     0.0000     0.0000     0.0000     0.0000 </r>
        <r>   -12.4768     0.0000     0.0000     0.0000     0.0000 </r>
        <r>   -12.4319     0.0000     0.0000     0.0000     0.0000 </r>
        <r>   -12.3871     0.0000     0.0000     0.0000     0.0000 </r>
        <r>   -12.3422     0.0000     0.0000     0.0000     0.0000 </r>
        <r>   -12.2973     0.0000     0.0000     0.0000     0.0000 </r>
        <r>   -12.2524     0.0000     0.0000     0.0000     0.0000 </r>
        <r>   -12.2075     0.0164     0.0095     1.6789     0.0007 </r>
        <r>   -12.1626     0.0000     0.0000     0.0000     0.0000 </r>
        <r>   -12.1177     0.0000     0.0000     0.0012     0.0000 </r>
        <r>   -12.0729     0.0084     0.0044     1.0872     0.0003 </r>
        <r>   -12.0280     0.0076     0.0054     2.2688     0.0003 </r>
        <r>   -11.9831     0.0133     0.0078     4.6007     0.0009 </r>
        <r>   -11.9382     0.0000     0.0000     0.0000     0.0000 </r>
        <r>   -11.8933     0.0001     0.0004     1.5385     0.0002 </r>
        <r>   -11.8484     0.0063     0.0058    14.0364     0.0011 </r>
        <r>   -11.8035     0.0000     0.0000     0.0104     0.0000 </r>
        <r>   -11.7586     0.0000     0.0001     0.5336     0.0000 </r>
        <r>   -11.7138     0.0019     0.0009    12.3244     0.0001 </r>
        <r>   -11.6689     0.0005     0.0001    10.8355     0.0000 </r>
        <r>   -11.6240     0.0019     0.0007    16.5516     0.0002 </r>
        <r>   -11.5791     0.0020     0.0017    12.8342     0.0002 </r>
        <r>   -11.5342     0.0027     0.0029    10.1584     0.0003 </r>
        <r>   -11.4893     0.0004     0.0015     4.4377     0.0003 </r>
        <r>   -11.4444     0.0000     0.0000     0.0000     0.0000 </r>
        <r>   -11.3995     0.0000     0.0000     0.0000     0.0000 </r>
        <r>   -11.3547     0.0000     0.0000     0.0000     0.0000 </r>
        <r>   -11.3098     0.0000     0.0000     0.0000     0.0000 </r>
        <r>   -11.2649     0.0000     0.0000     0.0000     0.0000 </r>
        <r>   -11.2200     0.0000     0.0000     0.0000     0.0000 </r>
        <r>   -11.1751     0.0000     0.0000     0.0000     0.0000 </r>
        <r>   -11.1302     0.0000     0.0000     0.0000     0.0000 </r>
        <r>   -11.0853     0.0000     0.0000     0.0000     0.0000 </r>
        <r>   -11.0405     0.0000     0.0000     0.0000     0.0000 </r>
        <r>   -10.9956     0.0000     0.0000     0.0000     0.0000 </r>
        <r>   -10.9507     0.0000     0.0000     0.0000     0.0000 </r>
        <r>   -10.9058     0.0000     0.0000     0.0000     0.0000 </r>
        <r>   -10.8609     0.0000     0.0000     0.0000     0.0000 </r>
        <r>   -10.8160     0.0000     0.0000     0.0000     0.0000 </r>
        <r>   -10.7711     0.0000     0.0000     0.0000     0.0000 </r>
        <r>   -10.7262     0.0000     0.0000     0.0000     0.0000 </r>
        <r>   -10.6814     0.0000     0.0000     0.0000     0.0000 </r>
        <r>   -10.6365     0.0000     0.0000     0.0000     0.0000 </r>
        <r>   -10.5916     0.0000     0.0000     0.0000     0.0000 </r>
        <r>   -10.5467     0.0000     0.0000     0.0000     0.0000 </r>
        <r>   -10.5018     0.0000     0.0000     0.0000     0.0000 </r>
        <r>   -10.4569     0.0000     0.0000     0.0000     0.0000 </r>
        <r>   -10.4120     0.0000     0.0000     0.0000     0.0000 </r>
        <r>   -10.3672     0.0000     0.0000     0.0000     0.0000 </r>
        <r>   -10.3223     0.0000     0.0000     0.0000     0.0000 </r>
        <r>   -10.2774     0.0000     0.0000     0.0000     0.0000 </r>
        <r>   -10.2325     0.0000     0.0000     0.0000     0.0000 </r>
        <r>   -10.1876     0.0000     0.0000     0.0000     0.0000 </r>
        <r>   -10.1427     0.0000     0.0000     0.0000     0.0000 </r>
        <r>   -10.0978     0.0000     0.0000     0.0000     0.0000 </r>
        <r>   -10.0529     0.0000     0.0000     0.0000     0.0000 </r>
        <r>   -10.0081     0.0000     0.0000     0.0000     0.0000 </r>
        <r>    -9.9632     0.0000     0.0000     0.0000     0.0000 </r>
        <r>    -9.9183     0.0000     0.0000     0.0000     0.0000 </r>
        <r>    -9.8734     0.0000     0.0000     0.0000     0.0000 </r>
        <r>    -9.8285     0.0000     0.0000     0.0000     0.0000 </r>
        <r>    -9.7836     0.0000     0.0000     0.0000     0.0000 </r>
        <r>    -9.7387     0.0000     0.0000     0.0000     0.0000 </r>
        <r>    -9.6939     0.0000     0.0000     0.0000     0.0000 </r>
        <r>    -9.6490     0.0000     0.0000     0.0000     0.0000 </r>
        <r>    -9.6041     0.0000     0.0000     0.0000     0.0000 </r>
        <r>    -9.5592     0.0000     0.0000     0.0000     0.0000 </r>
        <r>    -9.5143     0.0000     0.0000     0.0000     0.0000 </r>
        <r>    -9.4694     0.0000     0.0000     0.0000     0.0000 </r>
        <r>    -9.4245     0.0000     0.0000     0.0000     0.0000 </r>
        <r>    -9.3796     0.0000     0.0000     0.0000     0.0000 </r>
        <r>    -9.3348     0.0000     0.0000     0.0000     0.0000 </r>
        <r>    -9.2899     0.0000     0.0000     0.0000     0.0000 </r>
        <r>    -9.2450     0.0000     0.0000     0.0000     0.0000 </r>
        <r>    -9.2001     0.0000     0.0000     0.0000     0.0000 </r>
        <r>    -9.1552     0.0000     0.0000     0.0000     0.0000 </r>
        <r>    -9.1103     0.0000     0.0000     0.0000     0.0000 </r>
        <r>    -9.0654     0.0000     0.0000     0.0000     0.0000 </r>
        <r>    -9.0205     0.0000     0.0000     0.0000     0.0000 </r>
        <r>    -8.9757     0.0000     0.0000     0.0000     0.0000 </r>
        <r>    -8.9308     0.0000     0.0000     0.0000     0.0000 </r>
        <r>    -8.8859     0.0000     0.0000     0.0000     0.0000 </r>
        <r>    -8.8410     0.0000     0.0000     0.0000     0.0000 </r>
        <r>    -8.7961     0.0000     0.0000     0.0000     0.0000 </r>
        <r>    -8.7512     0.0000     0.0000     0.0000     0.0000 </r>
        <r>    -8.7063     0.0000     0.0000     0.0000     0.0000 </r>
        <r>    -8.6615     0.0000     0.0000     0.0000     0.0000 </r>
        <r>    -8.6166     0.0000     0.0000     0.0000     0.0000 </r>
        <r>    -8.5717     0.0000     0.0000     0.0000     0.0000 </r>
        <r>    -8.5268     0.0000     0.0000     0.0000     0.0000 </r>
        <r>    -8.4819     0.0000     0.0000     0.0000     0.0000 </r>
        <r>    -8.4370     0.0000     0.0000     0.0000     0.0000 </r>
        <r>    -8.3921     0.0000     0.0000     0.0000     0.0000 </r>
        <r>    -8.3472     0.0026     0.0003     0.0002     0.0000 </r>
        <r>    -8.3024     1.0478     0.1192     0.0989     0.0003 </r>
        <r>    -8.2575     0.0000     0.0000     0.0000     0.0000 </r>
        <r>    -8.2126     0.0000     0.0000     0.0000     0.0000 </r>
        <r>    -8.1677     0.0000     0.0000     0.0000     0.0000 </r>
        <r>    -8.1228     0.0000     0.0000     0.0000     0.0000 </r>
        <r>    -8.0779     0.0000     0.0000     0.0000     0.0000 </r>
        <r>    -8.0330     0.0000     0.0000     0.0000     0.0000 </r>
        <r>    -7.9882     0.0000     0.0000     0.0000     0.0000 </r>
        <r>    -7.9433     0.0000     0.0000     0.0000     0.0000 </r>
        <r>    -7.8984     0.0000     0.0000     0.0000     0.0000 </r>
        <r>    -7.8535     0.0000     0.0000     0.0000     0.0000 </r>
        <r>    -7.8086     0.0000     0.0000     0.0000     0.0000 </r>
        <r>    -7.7637     0.0000     0.0000     0.0000     0.0000 </r>
        <r>    -7.7188     0.0000     0.0000     0.0000     0.0000 </r>
        <r>    -7.6739     0.0000     0.0000     0.0000     0.0000 </r>
        <r>    -7.6291     0.0000     0.0000     0.0000     0.0000 </r>
        <r>    -7.5842     0.0000     0.0000     0.0000     0.0000 </r>
        <r>    -7.5393     0.0000     0.0000     0.0000     0.0000 </r>
        <r>    -7.4944     0.0000     0.0000     0.0000     0.0000 </r>
        <r>    -7.4495     0.0000     0.0000     0.0000     0.0000 </r>
        <r>    -7.4046     0.0000     0.0000     0.0000     0.0000 </r>
        <r>    -7.3597     0.0000     0.0000     0.0000     0.0000 </r>
        <r>    -7.3149     0.0000     0.0000     0.0000     0.0000 </r>
        <r>    -7.2700     0.0000     0.0000     0.0000     0.0000 </r>
        <r>    -7.2251     0.0000     0.0000     0.0000     0.0000 </r>
        <r>    -7.1802     0.0000     0.0000     0.0000     0.0000 </r>
        <r>    -7.1353     0.0000     0.0000     0.0000     0.0000 </r>
        <r>    -7.0904     0.0000     0.0000     0.0000     0.0000 </r>
        <r>    -7.0455     0.0000     0.0000     0.0000     0.0000 </r>
        <r>    -7.0006     0.0000     0.0000     0.0000     0.0000 </r>
        <r>    -6.9558     0.0000     0.0000     0.0000     0.0000 </r>
        <r>    -6.9109     0.0000     0.0000     0.0000     0.0000 </r>
        <r>    -6.8660     0.0000     0.0000     0.0000     0.0000 </r>
        <r>    -6.8211     0.0000     0.0000     0.0000     0.0000 </r>
        <r>    -6.7762     0.0000     0.0000     0.0000     0.0000 </r>
        <r>    -6.7313     0.0000     0.0000     0.0000     0.0000 </r>
        <r>    -6.6864     1.6434     0.0726     0.0361     0.0005 </r>
        <r>    -6.6415     0.0000     0.0000     0.0000     0.0000 </r>
        <r>    -6.5967     0.0000     0.0000     0.0000     0.0000 </r>
        <r>    -6.5518     0.0000     0.0000     0.0000     0.0000 </r>
        <r>    -6.5069     0.0000     0.0000     0.0000     0.0000 </r>
        <r>    -6.4620     0.0000     0.0000     0.0000     0.0000 </r>
        <r>    -6.4171     0.0000     0.0000     0.0000     0.0000 </r>
        <r>    -6.3722     0.0000     0.0000     0.0000     0.0000 </r>
        <r>    -6.3273     0.0000     0.0000     0.0000     0.0000 </r>
        <r>    -6.2825     0.0000     0.0000     0.0000     0.0000 </r>
        <r>    -6.2376     0.0000     0.0000     0.0000     0.0000 </r>
        <r>    -6.1927     0.0000     0.0000     0.0000     0.0000 </r>
        <r>    -6.1478     0.0000     0.0000     0.0000     0.0000 </r>
        <r>    -6.1029     0.0000     0.0000     0.0000     0.0000 </r>
        <r>    -6.0580     0.0000     0.0000     0.0000     0.0000 </r>
        <r>    -6.0131     0.0000     0.0000     0.0000     0.0000 </r>
        <r>    -5.9682     0.0000     0.0000     0.0000     0.0000 </r>
        <r>    -5.9234     0.0000     0.0000     0.0000     0.0000 </r>
        <r>    -5.8785     0.0000     0.0000     0.0000     0.0000 </r>
        <r>    -5.8336     0.0000     0.0000     0.0000     0.0000 </r>
        <r>    -5.7887     0.0000     0.0000     0.0000     0.0000 </r>
        <r>    -5.7438     0.0000     0.0000     0.0000     0.0000 </r>
        <r>    -5.6989     0.0000     0.0000     0.0000     0.0000 </r>
        <r>    -5.6540     0.0000     0.0000     0.0000     0.0000 </r>
        <r>    -5.6092     0.0000     0.0000     0.0000     0.0000 </r>
        <r>    -5.5643     0.0000     0.0000     0.0000     0.0000 </r>
        <r>    -5.5194     0.0000     0.0000     0.0000     0.0000 </r>
        <r>    -5.4745     0.0000     0.0000     0.0000     0.0000 </r>
        <r>    -5.4296     0.0000     0.0000     0.0000     0.0000 </r>
        <r>    -5.3847     0.0000     0.0000     0.0000     0.0000 </r>
        <r>    -5.3398     2.3568     0.0677     0.0275     0.0006 </r>
        <r>    -5.2949     0.0000     0.0000     0.0000     0.0000 </r>
        <r>    -5.2501     0.0000     0.0000     0.0000     0.0000 </r>
        <r>    -5.2052     0.0068     0.0501     0.0262     0.0010 </r>
        <r>    -5.1603     0.0000     0.0000     0.0000     0.0000 </r>
        <r>    -5.1154     0.0000     0.0000     0.0000     0.0000 </r>
        <r>    -5.0705     0.0000     0.0000     0.0000     0.0000 </r>
        <r>    -5.0256     0.0000     0.0000     0.0000     0.0000 </r>
        <r>    -4.9807     0.0000     0.0000     0.0000     0.0000 </r>
        <r>    -4.9358     0.0000     0.0000     0.0000     0.0000 </r>
        <r>    -4.8910     0.0000     0.0000     0.0000     0.0000 </r>
        <r>    -4.8461     0.0000     0.0000     0.0000     0.0000 </r>
        <r>    -4.8012     0.0000     0.0000     0.0000     0.0000 </r>
        <r>    -4.7563     0.0000     0.0000     0.0000     0.0000 </r>
        <r>    -4.7114     2.5777     0.0452     0.0070     0.0004 </r>
        <r>    -4.6665     0.9082     0.1673     0.0639     0.0025 </r>
        <r>    -4.6216     0.0000     0.0000     0.0000     0.0000 </r>
        <r>    -4.5768     0.0000     0.0000     0.0000     0.0000 </r>
        <r>    -4.5319     0.0000     0.0000     0.0000     0.0000 </r>
        <r>    -4.4870     0.0000     0.0000     0.0000     0.0000 </r>
        <r>    -4.4421     0.0000     0.0000     0.0000     0.0000 </r>
        <r>    -4.3972     0.0000     0.0000     0.0000     0.0000 </r>
        <r>    -4.3523     0.0000     0.0000     0.0000     0.0000 </r>
        <r>    -4.3074     0.0000     0.0000     0.0000     0.0000 </r>
        <r>    -4.2625     0.0000     0.0000     0.0000     0.0000 </r>
        <r>    -4.2177     0.0000     0.0000     0.0000     0.0000 </r>
        <r>    -4.1728     0.0000     0.0000     0.0000     0.0000 </r>
        <r>    -4.1279     0.0000     0.0000     0.0000     0.0000 </r>
        <r>    -4.0830     0.0000     0.0000     0.0000     0.0000 </r>
        <r>    -4.0381     0.0000     0.0000     0.0000     0.0000 </r>
        <r>    -3.9932     0.0000     0.0000     0.0000     0.0000 </r>
        <r>    -3.9483     0.0000     0.0000     0.0000     0.0000 </r>
        <r>    -3.9035     0.0000     0.0000     0.0000     0.0000 </r>
        <r>    -3.8586     0.0000     0.0000     0.0000     0.0000 </r>
        <r>    -3.8137     0.0000     0.0000     0.0000     0.0000 </r>
        <r>    -3.7688     0.0000     0.0000     0.0000     0.0000 </r>
        <r>    -3.7239     0.0000     0.0000     0.0000     0.0000 </r>
        <r>    -3.6790     0.0000     0.0000     0.0000     0.0000 </r>
        <r>    -3.6341     0.0000     0.0000     0.0000     0.0000 </r>
        <r>    -3.5892     0.0000     0.0000     0.0000     0.0000 </r>
        <r>    -3.5444     0.0000     0.0000     0.0000     0.0000 </r>
        <r>    -3.4995     0.0000     0.0000     0.0000     0.0000 </r>
        <r>    -3.4546     0.0000     0.0000     0.0000     0.0000 </r>
        <r>    -3.4097     0.0000     0.0000     0.0000     0.0000 </r>
        <r>    -3.3648     0.0000     0.0000     0.0000     0.0000 </r>
        <r>    -3.3199     0.0000     0.0000     0.0000     0.0000 </r>
        <r>    -3.2750     0.0000     0.0000     0.0000     0.0000 </r>
        <r>    -3.2302     0.0000     0.0000     0.0000     0.0000 </r>
        <r>    -3.1853     0.0000     0.0000     0.0000     0.0000 </r>
        <r>    -3.1404     0.0000     0.0000     0.0000     0.0000 </r>
        <r>    -3.0955     0.0000     0.0000     0.0000     0.0000 </r>
        <r>    -3.0506     0.0000     0.0000     0.0000     0.0000 </r>
        <r>    -3.0057     0.0000     0.0000     0.0000     0.0000 </r>
        <r>    -2.9608     0.0000     0.0000     0.0000     0.0000 </r>
        <r>    -2.9159     0.0000     0.0000     0.0000     0.0000 </r>
        <r>    -2.8711     0.0000     0.0000     0.0000     0.0000 </r>
        <r>    -2.8262     0.0000     0.0000     0.0000     0.0000 </r>
        <r>    -2.7813     0.0000     0.0000     0.0000     0.0000 </r>
        <r>    -2.7364     0.0000     0.0000     0.0000     0.0000 </r>
        <r>    -2.6915     0.0000     0.0000     0.0000     0.0000 </r>
        <r>    -2.6466     0.0000     0.0000     0.0000     0.0000 </r>
        <r>    -2.6017     0.0000     0.0000     0.0000     0.0000 </r>
        <r>    -2.5568     0.0000     0.0000     0.0000     0.0000 </r>
        <r>    -2.5120     0.0000     0.0000     0.0000     0.0000 </r>
        <r>    -2.4671     0.0000     0.0000     0.0000     0.0000 </r>
        <r>    -2.4222     0.0000     0.0000     0.0000     0.0000 </r>
        <r>    -2.3773     0.0000     0.0000     0.0000     0.0000 </r>
        <r>    -2.3324     0.0000     0.0000     0.0000     0.0000 </r>
        <r>    -2.2875     0.0000     0.6722     0.0425     0.0023 </r>
        <r>    -2.2426     0.0000     0.0000     0.0000     0.0000 </r>
        <r>    -2.1978     0.0000     0.0000     0.0000     0.0000 </r>
        <r>    -2.1529     0.0000     0.0000     0.0000     0.0000 </r>
        <r>    -2.1080     0.0000     0.0000     0.0000     0.0000 </r>
        <r>    -2.0631     0.1375     1.3277     0.0643     0.0046 </r>
        <r>    -2.0182     0.0000     0.0000     0.0000     0.0000 </r>
        <r>    -1.9733     0.0000     0.0000     0.0000     0.0000 </r>
        <r>    -1.9284     0.0000     0.0000     0.0000     0.0000 </r>
        <r>    -1.8835     0.0000     0.0000     0.0000     0.0000 </r>
        <r>    -1.8387     0.3263     0.5692     0.0093     0.0025 </r>
        <r>    -1.7938     0.0056     1.1881     0.0193     0.0005 </r>
        <r>    -1.7489     0.0000     0.0000     0.0000     0.0000 </r>
        <r>    -1.7040     0.0000     0.0000     0.0000     0.0000 </r>
        <r>    -1.6591     0.0000     0.0000     0.0000     0.0000 </r>
        <r>    -1.6142     0.0000     0.0000     0.0000     0.0000 </r>
        <r>    -1.5693     0.0000     0.0000     0.0000     0.0000 </r>
        <r>    -1.5245     0.0000     0.8082     0.0269     0.0022 </r>
        <r>    -1.4796     0.0000     0.0000     0.0000     0.0000 </r>
        <r>    -1.4347     0.0000     0.0000     0.0000     0.0000 </r>
        <r>    -1.3898     0.0000     0.0000     0.0000     0.0000 </r>
        <r>    -1.3449     0.0000     0.0000     0.0000     0.0000 </r>
        <r>    -1.3000     0.0000     0.0000     0.0000     0.0000 </r>
        <r>    -1.2551     0.0000     0.0000     0.0000     0.0000 </r>
        <r>    -1.2102     0.0000     0.0000     0.0000     0.0000 </r>
        <r>    -1.1654     0.0651     0.7257     0.0216     0.0013 </r>
        <r>    -1.1205     0.0000     0.0000     0.0000     0.0000 </r>
        <r>    -1.0756     0.0000     0.0000     0.0000     0.0000 </r>
        <r>    -1.0307     0.0000     0.0000     0.0000     0.0000 </r>
        <r>    -0.9858     0.0000     0.0000     0.0000     0.0000 </r>
        <r>    -0.9409     0.0000     0.0000     0.0000     0.0000 </r>
        <r>    -0.8960     0.0000     0.0000     0.0000     0.0000 </r>
        <r>    -0.8511     0.0000     0.0000     0.0000     0.0000 </r>
        <r>    -0.8063     0.0000     0.0000     0.0000     0.0000 </r>
        <r>    -0.7614     0.0000     0.0000     0.0000     0.0000 </r>
        <r>    -0.7165     0.0000     0.0000     0.0000     0.0000 </r>
        <r>    -0.6716     0.0000     0.0000     0.0000     0.0000 </r>
        <r>    -0.6267     0.0000     0.4748     0.0237     0.0027 </r>
        <r>    -0.5818     0.0000     0.0000     0.0000     0.0000 </r>
        <r>    -0.5369     0.0000     0.0000     0.0000     0.0000 </r>
        <r>    -0.4921     0.0000     0.0000     0.0000     0.0000 </r>
        <r>    -0.4472     0.0000     0.0000     0.0000     0.0000 </r>
        <r>    -0.4023     0.0000     0.0000     0.0000     0.0000 </r>
        <r>    -0.3574     0.0000     0.0000     0.0000     0.0000 </r>
        <r>    -0.3125     0.0000     0.0000     0.0000     0.0000 </r>
        <r>    -0.2676     0.0000     0.0001     0.0000     0.0000 </r>
        <r>    -0.2227     0.0000     1.1352     0.0115     0.0009 </r>
        <r>    -0.1778     0.0000     0.0000     0.0000     0.0000 </r>
        <r>    -0.1330     0.0000     0.0000     0.0000     0.0000 </r>
        <r>    -0.0881     0.0000     0.0000     0.0000     0.0000 </r>
        <r>    -0.0432     0.0000     0.0000     0.0000     0.0000 </r>
        <r>     0.0017     0.0000     0.0000     0.0000     0.0000 </r>
        <r>     0.0466     0.0135     0.0355     0.0168     0.0029 </r>
        <r>     0.0915     0.0000     0.0000     0.0000     0.0000 </r>
        <r>     0.1364     0.0000     0.0000     0.0000     0.0000 </r>
        <r>     0.1812     0.0000     0.0000     0.0000     0.0000 </r>
        <r>     0.2261     0.0000     0.0000     0.0000     0.0000 </r>
        <r>     0.2710     0.0000     0.0000     0.0000     0.0000 </r>
        <r>     0.3159     0.0000     0.0000     0.0000     0.0000 </r>
        <r>     0.3608     0.0000     0.0000     0.0000     0.0000 </r>
        <r>     0.4057     0.0000     0.0000     0.0000     0.0000 </r>
        <r>     0.4506     0.0000     0.0000     0.0000     0.0000 </r>
        <r>     0.4955     0.0000     0.0000     0.0000     0.0000 </r>
        <r>     0.5403     0.0000     0.0000     0.0000     0.0000 </r>
        <r>     0.5852     0.0000     0.0000     0.0000     0.0000 </r>
        <r>     0.6301     0.0000     0.0000     0.0000     0.0000 </r>
       </set>
      </set>
      <set comment="ion 5">
       <set comment="spin 1">
        <r>   -12.8359     0.0000     0.0000     0.0000     0.0000 </r>
        <r>   -12.7910     0.0000     0.0000     0.0000     0.0000 </r>
        <r>   -12.7462     0.0000     0.0000     0.0000     0.0000 </r>
        <r>   -12.7013     0.0000     0.0000     0.0000     0.0000 </r>
        <r>   -12.6564     0.0000     0.0000     0.0000     0.0000 </r>
        <r>   -12.6115     0.0000     0.0000     0.0000     0.0000 </r>
        <r>   -12.5666     0.0000     0.0000     0.0000     0.0000 </r>
        <r>   -12.5217     0.0000     0.0000     0.0000     0.0000 </r>
        <r>   -12.4768     0.0000     0.0000     0.0000     0.0000 </r>
        <r>   -12.4319     0.0000     0.0000     0.0000     0.0000 </r>
        <r>   -12.3871     0.0000     0.0000     0.0000     0.0000 </r>
        <r>   -12.3422     0.0000     0.0000     0.0000     0.0000 </r>
        <r>   -12.2973     0.0000     0.0000     0.0000     0.0000 </r>
        <r>   -12.2524     0.0000     0.0000     0.0000     0.0000 </r>
        <r>   -12.2075     0.0162     0.0094     1.6369     0.0007 </r>
        <r>   -12.1626     0.0000     0.0000     0.0000     0.0000 </r>
        <r>   -12.1177     0.0000     0.0000     0.0012     0.0000 </r>
        <r>   -12.0729     0.0083     0.0044     1.0699     0.0003 </r>
        <r>   -12.0280     0.0070     0.0051     2.1557     0.0003 </r>
        <r>   -11.9831     0.0138     0.0080     4.4915     0.0009 </r>
        <r>   -11.9382     0.0000     0.0000     0.0000     0.0000 </r>
        <r>   -11.8933     0.0000     0.0004     1.5589     0.0002 </r>
        <r>   -11.8484     0.0063     0.0058    14.0688     0.0010 </r>
        <r>   -11.8035     0.0000     0.0000     0.0091     0.0000 </r>
        <r>   -11.7586     0.0000     0.0001     0.4731     0.0000 </r>
        <r>   -11.7138     0.0021     0.0010    11.2471     0.0001 </r>
        <r>   -11.6689     0.0004     0.0001    10.9746     0.0000 </r>
        <r>   -11.6240     0.0019     0.0007    16.5753     0.0001 </r>
        <r>   -11.5791     0.0020     0.0017    13.7010     0.0002 </r>
        <r>   -11.5342     0.0026     0.0028    10.2680     0.0003 </r>
        <r>   -11.4893     0.0005     0.0016     4.8116     0.0003 </r>
        <r>   -11.4444     0.0000     0.0000     0.0000     0.0000 </r>
        <r>   -11.3995     0.0000     0.0000     0.0000     0.0000 </r>
        <r>   -11.3547     0.0000     0.0000     0.0000     0.0000 </r>
        <r>   -11.3098     0.0000     0.0000     0.0000     0.0000 </r>
        <r>   -11.2649     0.0000     0.0000     0.0000     0.0000 </r>
        <r>   -11.2200     0.0000     0.0000     0.0000     0.0000 </r>
        <r>   -11.1751     0.0000     0.0000     0.0000     0.0000 </r>
        <r>   -11.1302     0.0000     0.0000     0.0000     0.0000 </r>
        <r>   -11.0853     0.0000     0.0000     0.0000     0.0000 </r>
        <r>   -11.0405     0.0000     0.0000     0.0000     0.0000 </r>
        <r>   -10.9956     0.0000     0.0000     0.0000     0.0000 </r>
        <r>   -10.9507     0.0000     0.0000     0.0000     0.0000 </r>
        <r>   -10.9058     0.0000     0.0000     0.0000     0.0000 </r>
        <r>   -10.8609     0.0000     0.0000     0.0000     0.0000 </r>
        <r>   -10.8160     0.0000     0.0000     0.0000     0.0000 </r>
        <r>   -10.7711     0.0000     0.0000     0.0000     0.0000 </r>
        <r>   -10.7262     0.0000     0.0000     0.0000     0.0000 </r>
        <r>   -10.6814     0.0000     0.0000     0.0000     0.0000 </r>
        <r>   -10.6365     0.0000     0.0000     0.0000     0.0000 </r>
        <r>   -10.5916     0.0000     0.0000     0.0000     0.0000 </r>
        <r>   -10.5467     0.0000     0.0000     0.0000     0.0000 </r>
        <r>   -10.5018     0.0000     0.0000     0.0000     0.0000 </r>
        <r>   -10.4569     0.0000     0.0000     0.0000     0.0000 </r>
        <r>   -10.4120     0.0000     0.0000     0.0000     0.0000 </r>
        <r>   -10.3672     0.0000     0.0000     0.0000     0.0000 </r>
        <r>   -10.3223     0.0000     0.0000     0.0000     0.0000 </r>
        <r>   -10.2774     0.0000     0.0000     0.0000     0.0000 </r>
        <r>   -10.2325     0.0000     0.0000     0.0000     0.0000 </r>
        <r>   -10.1876     0.0000     0.0000     0.0000     0.0000 </r>
        <r>   -10.1427     0.0000     0.0000     0.0000     0.0000 </r>
        <r>   -10.0978     0.0000     0.0000     0.0000     0.0000 </r>
        <r>   -10.0529     0.0000     0.0000     0.0000     0.0000 </r>
        <r>   -10.0081     0.0000     0.0000     0.0000     0.0000 </r>
        <r>    -9.9632     0.0000     0.0000     0.0000     0.0000 </r>
        <r>    -9.9183     0.0000     0.0000     0.0000     0.0000 </r>
        <r>    -9.8734     0.0000     0.0000     0.0000     0.0000 </r>
        <r>    -9.8285     0.0000     0.0000     0.0000     0.0000 </r>
        <r>    -9.7836     0.0000     0.0000     0.0000     0.0000 </r>
        <r>    -9.7387     0.0000     0.0000     0.0000     0.0000 </r>
        <r>    -9.6939     0.0000     0.0000     0.0000     0.0000 </r>
        <r>    -9.6490     0.0000     0.0000     0.0000     0.0000 </r>
        <r>    -9.6041     0.0000     0.0000     0.0000     0.0000 </r>
        <r>    -9.5592     0.0000     0.0000     0.0000     0.0000 </r>
        <r>    -9.5143     0.0000     0.0000     0.0000     0.0000 </r>
        <r>    -9.4694     0.0000     0.0000     0.0000     0.0000 </r>
        <r>    -9.4245     0.0000     0.0000     0.0000     0.0000 </r>
        <r>    -9.3796     0.0000     0.0000     0.0000     0.0000 </r>
        <r>    -9.3348     0.0000     0.0000     0.0000     0.0000 </r>
        <r>    -9.2899     0.0000     0.0000     0.0000     0.0000 </r>
        <r>    -9.2450     0.0000     0.0000     0.0000     0.0000 </r>
        <r>    -9.2001     0.0000     0.0000     0.0000     0.0000 </r>
        <r>    -9.1552     0.0000     0.0000     0.0000     0.0000 </r>
        <r>    -9.1103     0.0000     0.0000     0.0000     0.0000 </r>
        <r>    -9.0654     0.0000     0.0000     0.0000     0.0000 </r>
        <r>    -9.0205     0.0000     0.0000     0.0000     0.0000 </r>
        <r>    -8.9757     0.0000     0.0000     0.0000     0.0000 </r>
        <r>    -8.9308     0.0000     0.0000     0.0000     0.0000 </r>
        <r>    -8.8859     0.0000     0.0000     0.0000     0.0000 </r>
        <r>    -8.8410     0.0000     0.0000     0.0000     0.0000 </r>
        <r>    -8.7961     0.0000     0.0000     0.0000     0.0000 </r>
        <r>    -8.7512     0.0000     0.0000     0.0000     0.0000 </r>
        <r>    -8.7063     0.0000     0.0000     0.0000     0.0000 </r>
        <r>    -8.6615     0.0000     0.0000     0.0000     0.0000 </r>
        <r>    -8.6166     0.0000     0.0000     0.0000     0.0000 </r>
        <r>    -8.5717     0.0000     0.0000     0.0000     0.0000 </r>
        <r>    -8.5268     0.0000     0.0000     0.0000     0.0000 </r>
        <r>    -8.4819     0.0000     0.0000     0.0000     0.0000 </r>
        <r>    -8.4370     0.0000     0.0000     0.0000     0.0000 </r>
        <r>    -8.3921     0.0000     0.0000     0.0000     0.0000 </r>
        <r>    -8.3472     0.0025     0.0003     0.0002     0.0000 </r>
        <r>    -8.3024     1.0404     0.1186     0.0989     0.0003 </r>
        <r>    -8.2575     0.0000     0.0000     0.0000     0.0000 </r>
        <r>    -8.2126     0.0000     0.0000     0.0000     0.0000 </r>
        <r>    -8.1677     0.0000     0.0000     0.0000     0.0000 </r>
        <r>    -8.1228     0.0000     0.0000     0.0000     0.0000 </r>
        <r>    -8.0779     0.0000     0.0000     0.0000     0.0000 </r>
        <r>    -8.0330     0.0000     0.0000     0.0000     0.0000 </r>
        <r>    -7.9882     0.0000     0.0000     0.0000     0.0000 </r>
        <r>    -7.9433     0.0000     0.0000     0.0000     0.0000 </r>
        <r>    -7.8984     0.0000     0.0000     0.0000     0.0000 </r>
        <r>    -7.8535     0.0000     0.0000     0.0000     0.0000 </r>
        <r>    -7.8086     0.0000     0.0000     0.0000     0.0000 </r>
        <r>    -7.7637     0.0000     0.0000     0.0000     0.0000 </r>
        <r>    -7.7188     0.0000     0.0000     0.0000     0.0000 </r>
        <r>    -7.6739     0.0000     0.0000     0.0000     0.0000 </r>
        <r>    -7.6291     0.0000     0.0000     0.0000     0.0000 </r>
        <r>    -7.5842     0.0000     0.0000     0.0000     0.0000 </r>
        <r>    -7.5393     0.0000     0.0000     0.0000     0.0000 </r>
        <r>    -7.4944     0.0000     0.0000     0.0000     0.0000 </r>
        <r>    -7.4495     0.0000     0.0000     0.0000     0.0000 </r>
        <r>    -7.4046     0.0000     0.0000     0.0000     0.0000 </r>
        <r>    -7.3597     0.0000     0.0000     0.0000     0.0000 </r>
        <r>    -7.3149     0.0000     0.0000     0.0000     0.0000 </r>
        <r>    -7.2700     0.0000     0.0000     0.0000     0.0000 </r>
        <r>    -7.2251     0.0000     0.0000     0.0000     0.0000 </r>
        <r>    -7.1802     0.0000     0.0000     0.0000     0.0000 </r>
        <r>    -7.1353     0.0000     0.0000     0.0000     0.0000 </r>
        <r>    -7.0904     0.0000     0.0000     0.0000     0.0000 </r>
        <r>    -7.0455     0.0000     0.0000     0.0000     0.0000 </r>
        <r>    -7.0006     0.0000     0.0000     0.0000     0.0000 </r>
        <r>    -6.9558     0.0000     0.0000     0.0000     0.0000 </r>
        <r>    -6.9109     0.0000     0.0000     0.0000     0.0000 </r>
        <r>    -6.8660     0.0000     0.0000     0.0000     0.0000 </r>
        <r>    -6.8211     0.0000     0.0000     0.0000     0.0000 </r>
        <r>    -6.7762     0.0000     0.0000     0.0000     0.0000 </r>
        <r>    -6.7313     0.0000     0.0000     0.0000     0.0000 </r>
        <r>    -6.6864     1.6430     0.0723     0.0358     0.0004 </r>
        <r>    -6.6415     0.0000     0.0000     0.0000     0.0000 </r>
        <r>    -6.5967     0.0000     0.0000     0.0000     0.0000 </r>
        <r>    -6.5518     0.0000     0.0000     0.0000     0.0000 </r>
        <r>    -6.5069     0.0000     0.0000     0.0000     0.0000 </r>
        <r>    -6.4620     0.0000     0.0000     0.0000     0.0000 </r>
        <r>    -6.4171     0.0000     0.0000     0.0000     0.0000 </r>
        <r>    -6.3722     0.0000     0.0000     0.0000     0.0000 </r>
        <r>    -6.3273     0.0000     0.0000     0.0000     0.0000 </r>
        <r>    -6.2825     0.0000     0.0000     0.0000     0.0000 </r>
        <r>    -6.2376     0.0000     0.0000     0.0000     0.0000 </r>
        <r>    -6.1927     0.0000     0.0000     0.0000     0.0000 </r>
        <r>    -6.1478     0.0000     0.0000     0.0000     0.0000 </r>
        <r>    -6.1029     0.0000     0.0000     0.0000     0.0000 </r>
        <r>    -6.0580     0.0000     0.0000     0.0000     0.0000 </r>
        <r>    -6.0131     0.0000     0.0000     0.0000     0.0000 </r>
        <r>    -5.9682     0.0000     0.0000     0.0000     0.0000 </r>
        <r>    -5.9234     0.0000     0.0000     0.0000     0.0000 </r>
        <r>    -5.8785     0.0000     0.0000     0.0000     0.0000 </r>
        <r>    -5.8336     0.0000     0.0000     0.0000     0.0000 </r>
        <r>    -5.7887     0.0000     0.0000     0.0000     0.0000 </r>
        <r>    -5.7438     0.0000     0.0000     0.0000     0.0000 </r>
        <r>    -5.6989     0.0000     0.0000     0.0000     0.0000 </r>
        <r>    -5.6540     0.0000     0.0000     0.0000     0.0000 </r>
        <r>    -5.6092     0.0000     0.0000     0.0000     0.0000 </r>
        <r>    -5.5643     0.0000     0.0000     0.0000     0.0000 </r>
        <r>    -5.5194     0.0000     0.0000     0.0000     0.0000 </r>
        <r>    -5.4745     0.0000     0.0000     0.0000     0.0000 </r>
        <r>    -5.4296     0.0000     0.0000     0.0000     0.0000 </r>
        <r>    -5.3847     0.0000     0.0000     0.0000     0.0000 </r>
        <r>    -5.3398     2.3926     0.0677     0.0275     0.0006 </r>
        <r>    -5.2949     0.0000     0.0000     0.0000     0.0000 </r>
        <r>    -5.2501     0.0000     0.0000     0.0000     0.0000 </r>
        <r>    -5.2052     0.0018     0.0501     0.0262     0.0010 </r>
        <r>    -5.1603     0.0000     0.0000     0.0000     0.0000 </r>
        <r>    -5.1154     0.0000     0.0000     0.0000     0.0000 </r>
        <r>    -5.0705     0.0000     0.0000     0.0000     0.0000 </r>
        <r>    -5.0256     0.0000     0.0000     0.0000     0.0000 </r>
        <r>    -4.9807     0.0000     0.0000     0.0000     0.0000 </r>
        <r>    -4.9358     0.0000     0.0000     0.0000     0.0000 </r>
        <r>    -4.8910     0.0000     0.0000     0.0000     0.0000 </r>
        <r>    -4.8461     0.0000     0.0000     0.0000     0.0000 </r>
        <r>    -4.8012     0.0000     0.0000     0.0000     0.0000 </r>
        <r>    -4.7563     0.0000     0.0000     0.0000     0.0000 </r>
        <r>    -4.7114     2.2273     0.0415     0.0101     0.0006 </r>
        <r>    -4.6665     1.3205     0.1700     0.0596     0.0023 </r>
        <r>    -4.6216     0.0000     0.0000     0.0000     0.0000 </r>
        <r>    -4.5768     0.0000     0.0000     0.0000     0.0000 </r>
        <r>    -4.5319     0.0000     0.0000     0.0000     0.0000 </r>
        <r>    -4.4870     0.0000     0.0000     0.0000     0.0000 </r>
        <r>    -4.4421     0.0000     0.0000     0.0000     0.0000 </r>
        <r>    -4.3972     0.0000     0.0000     0.0000     0.0000 </r>
        <r>    -4.3523     0.0000     0.0000     0.0000     0.0000 </r>
        <r>    -4.3074     0.0000     0.0000     0.0000     0.0000 </r>
        <r>    -4.2625     0.0000     0.0000     0.0000     0.0000 </r>
        <r>    -4.2177     0.0000     0.0000     0.0000     0.0000 </r>
        <r>    -4.1728     0.0000     0.0000     0.0000     0.0000 </r>
        <r>    -4.1279     0.0000     0.0000     0.0000     0.0000 </r>
        <r>    -4.0830     0.0000     0.0000     0.0000     0.0000 </r>
        <r>    -4.0381     0.0000     0.0000     0.0000     0.0000 </r>
        <r>    -3.9932     0.0000     0.0000     0.0000     0.0000 </r>
        <r>    -3.9483     0.0000     0.0000     0.0000     0.0000 </r>
        <r>    -3.9035     0.0000     0.0000     0.0000     0.0000 </r>
        <r>    -3.8586     0.0000     0.0000     0.0000     0.0000 </r>
        <r>    -3.8137     0.0000     0.0000     0.0000     0.0000 </r>
        <r>    -3.7688     0.0000     0.0000     0.0000     0.0000 </r>
        <r>    -3.7239     0.0000     0.0000     0.0000     0.0000 </r>
        <r>    -3.6790     0.0000     0.0000     0.0000     0.0000 </r>
        <r>    -3.6341     0.0000     0.0000     0.0000     0.0000 </r>
        <r>    -3.5892     0.0000     0.0000     0.0000     0.0000 </r>
        <r>    -3.5444     0.0000     0.0000     0.0000     0.0000 </r>
        <r>    -3.4995     0.0000     0.0000     0.0000     0.0000 </r>
        <r>    -3.4546     0.0000     0.0000     0.0000     0.0000 </r>
        <r>    -3.4097     0.0000     0.0000     0.0000     0.0000 </r>
        <r>    -3.3648     0.0000     0.0000     0.0000     0.0000 </r>
        <r>    -3.3199     0.0000     0.0000     0.0000     0.0000 </r>
        <r>    -3.2750     0.0000     0.0000     0.0000     0.0000 </r>
        <r>    -3.2302     0.0000     0.0000     0.0000     0.0000 </r>
        <r>    -3.1853     0.0000     0.0000     0.0000     0.0000 </r>
        <r>    -3.1404     0.0000     0.0000     0.0000     0.0000 </r>
        <r>    -3.0955     0.0000     0.0000     0.0000     0.0000 </r>
        <r>    -3.0506     0.0000     0.0000     0.0000     0.0000 </r>
        <r>    -3.0057     0.0000     0.0000     0.0000     0.0000 </r>
        <r>    -2.9608     0.0000     0.0000     0.0000     0.0000 </r>
        <r>    -2.9159     0.0000     0.0000     0.0000     0.0000 </r>
        <r>    -2.8711     0.0000     0.0000     0.0000     0.0000 </r>
        <r>    -2.8262     0.0000     0.0000     0.0000     0.0000 </r>
        <r>    -2.7813     0.0000     0.0000     0.0000     0.0000 </r>
        <r>    -2.7364     0.0000     0.0000     0.0000     0.0000 </r>
        <r>    -2.6915     0.0000     0.0000     0.0000     0.0000 </r>
        <r>    -2.6466     0.0000     0.0000     0.0000     0.0000 </r>
        <r>    -2.6017     0.0000     0.0000     0.0000     0.0000 </r>
        <r>    -2.5568     0.0000     0.0000     0.0000     0.0000 </r>
        <r>    -2.5120     0.0000     0.0000     0.0000     0.0000 </r>
        <r>    -2.4671     0.0000     0.0000     0.0000     0.0000 </r>
        <r>    -2.4222     0.0000     0.0000     0.0000     0.0000 </r>
        <r>    -2.3773     0.0000     0.0000     0.0000     0.0000 </r>
        <r>    -2.3324     0.0000     0.0000     0.0000     0.0000 </r>
        <r>    -2.2875     0.0000     0.6690     0.0424     0.0023 </r>
        <r>    -2.2426     0.0000     0.0000     0.0000     0.0000 </r>
        <r>    -2.1978     0.0000     0.0000     0.0000     0.0000 </r>
        <r>    -2.1529     0.0000     0.0000     0.0000     0.0000 </r>
        <r>    -2.1080     0.0000     0.0000     0.0000     0.0000 </r>
        <r>    -2.0631     0.1337     1.3160     0.0649     0.0046 </r>
        <r>    -2.0182     0.0000     0.0000     0.0000     0.0000 </r>
        <r>    -1.9733     0.0000     0.0000     0.0000     0.0000 </r>
        <r>    -1.9284     0.0000     0.0000     0.0000     0.0000 </r>
        <r>    -1.8835     0.0000     0.0000     0.0000     0.0000 </r>
        <r>    -1.8387     0.3327     0.5854     0.0090     0.0024 </r>
        <r>    -1.7938     0.0064     1.1835     0.0189     0.0004 </r>
        <r>    -1.7489     0.0000     0.0000     0.0000     0.0000 </r>
        <r>    -1.7040     0.0000     0.0000     0.0000     0.0000 </r>
        <r>    -1.6591     0.0000     0.0000     0.0000     0.0000 </r>
        <r>    -1.6142     0.0000     0.0000     0.0000     0.0000 </r>
        <r>    -1.5693     0.0000     0.0000     0.0000     0.0000 </r>
        <r>    -1.5245     0.0000     0.8110     0.0270     0.0022 </r>
        <r>    -1.4796     0.0000     0.0000     0.0000     0.0000 </r>
        <r>    -1.4347     0.0000     0.0000     0.0000     0.0000 </r>
        <r>    -1.3898     0.0000     0.0000     0.0000     0.0000 </r>
        <r>    -1.3449     0.0000     0.0000     0.0000     0.0000 </r>
        <r>    -1.3000     0.0000     0.0000     0.0000     0.0000 </r>
        <r>    -1.2551     0.0000     0.0000     0.0000     0.0000 </r>
        <r>    -1.2102     0.0000     0.0000     0.0000     0.0000 </r>
        <r>    -1.1654     0.0629     0.7291     0.0215     0.0013 </r>
        <r>    -1.1205     0.0000     0.0000     0.0000     0.0000 </r>
        <r>    -1.0756     0.0000     0.0000     0.0000     0.0000 </r>
        <r>    -1.0307     0.0000     0.0000     0.0000     0.0000 </r>
        <r>    -0.9858     0.0000     0.0000     0.0000     0.0000 </r>
        <r>    -0.9409     0.0000     0.0000     0.0000     0.0000 </r>
        <r>    -0.8960     0.0000     0.0000     0.0000     0.0000 </r>
        <r>    -0.8511     0.0000     0.0000     0.0000     0.0000 </r>
        <r>    -0.8063     0.0000     0.0000     0.0000     0.0000 </r>
        <r>    -0.7614     0.0000     0.0000     0.0000     0.0000 </r>
        <r>    -0.7165     0.0000     0.0000     0.0000     0.0000 </r>
        <r>    -0.6716     0.0000     0.0000     0.0000     0.0000 </r>
        <r>    -0.6267     0.0000     0.4791     0.0237     0.0027 </r>
        <r>    -0.5818     0.0000     0.0000     0.0000     0.0000 </r>
        <r>    -0.5369     0.0000     0.0000     0.0000     0.0000 </r>
        <r>    -0.4921     0.0000     0.0000     0.0000     0.0000 </r>
        <r>    -0.4472     0.0000     0.0000     0.0000     0.0000 </r>
        <r>    -0.4023     0.0000     0.0000     0.0000     0.0000 </r>
        <r>    -0.3574     0.0000     0.0000     0.0000     0.0000 </r>
        <r>    -0.3125     0.0000     0.0000     0.0000     0.0000 </r>
        <r>    -0.2676     0.0000     0.0001     0.0000     0.0000 </r>
        <r>    -0.2227     0.0000     1.1118     0.0116     0.0009 </r>
        <r>    -0.1778     0.0000     0.0000     0.0000     0.0000 </r>
        <r>    -0.1330     0.0000     0.0000     0.0000     0.0000 </r>
        <r>    -0.0881     0.0000     0.0000     0.0000     0.0000 </r>
        <r>    -0.0432     0.0000     0.0000     0.0000     0.0000 </r>
        <r>     0.0017     0.0000     0.0000     0.0000     0.0000 </r>
        <r>     0.0466     0.2587     0.2180     0.0328     0.0014 </r>
        <r>     0.0915     0.0000     0.0000     0.0000     0.0000 </r>
        <r>     0.1364     0.0000     0.0000     0.0000     0.0000 </r>
        <r>     0.1812     0.0000     0.0000     0.0000     0.0000 </r>
        <r>     0.2261     0.0000     0.0000     0.0000     0.0000 </r>
        <r>     0.2710     0.0000     0.0000     0.0000     0.0000 </r>
        <r>     0.3159     0.0000     0.0000     0.0000     0.0000 </r>
        <r>     0.3608     0.0000     0.0000     0.0000     0.0000 </r>
        <r>     0.4057     0.0000     0.0000     0.0000     0.0000 </r>
        <r>     0.4506     0.0000     0.0000     0.0000     0.0000 </r>
        <r>     0.4955     0.0000     0.0000     0.0000     0.0000 </r>
        <r>     0.5403     0.0000     0.0000     0.0000     0.0000 </r>
        <r>     0.5852     0.0000     0.0000     0.0000     0.0000 </r>
        <r>     0.6301     0.0000     0.0000     0.0000     0.0000 </r>
       </set>
       <set comment="spin 2">
        <r>   -12.8359     0.0000     0.0000     0.0000     0.0000 </r>
        <r>   -12.7910     0.0000     0.0000     0.0000     0.0000 </r>
        <r>   -12.7462     0.0000     0.0000     0.0000     0.0000 </r>
        <r>   -12.7013     0.0000     0.0000     0.0000     0.0000 </r>
        <r>   -12.6564     0.0000     0.0000     0.0000     0.0000 </r>
        <r>   -12.6115     0.0000     0.0000     0.0000     0.0000 </r>
        <r>   -12.5666     0.0000     0.0000     0.0000     0.0000 </r>
        <r>   -12.5217     0.0000     0.0000     0.0000     0.0000 </r>
        <r>   -12.4768     0.0000     0.0000     0.0000     0.0000 </r>
        <r>   -12.4319     0.0000     0.0000     0.0000     0.0000 </r>
        <r>   -12.3871     0.0000     0.0000     0.0000     0.0000 </r>
        <r>   -12.3422     0.0000     0.0000     0.0000     0.0000 </r>
        <r>   -12.2973     0.0000     0.0000     0.0000     0.0000 </r>
        <r>   -12.2524     0.0000     0.0000     0.0000     0.0000 </r>
        <r>   -12.2075     0.0162     0.0094     1.6369     0.0007 </r>
        <r>   -12.1626     0.0000     0.0000     0.0000     0.0000 </r>
        <r>   -12.1177     0.0000     0.0000     0.0012     0.0000 </r>
        <r>   -12.0729     0.0083     0.0044     1.0699     0.0003 </r>
        <r>   -12.0280     0.0070     0.0051     2.1557     0.0003 </r>
        <r>   -11.9831     0.0138     0.0080     4.4915     0.0009 </r>
        <r>   -11.9382     0.0000     0.0000     0.0000     0.0000 </r>
        <r>   -11.8933     0.0000     0.0004     1.5589     0.0002 </r>
        <r>   -11.8484     0.0063     0.0058    14.0688     0.0010 </r>
        <r>   -11.8035     0.0000     0.0000     0.0091     0.0000 </r>
        <r>   -11.7586     0.0000     0.0001     0.4731     0.0000 </r>
        <r>   -11.7138     0.0021     0.0010    11.2471     0.0001 </r>
        <r>   -11.6689     0.0004     0.0001    10.9746     0.0000 </r>
        <r>   -11.6240     0.0019     0.0007    16.5753     0.0001 </r>
        <r>   -11.5791     0.0020     0.0017    13.7010     0.0002 </r>
        <r>   -11.5342     0.0026     0.0028    10.2680     0.0003 </r>
        <r>   -11.4893     0.0005     0.0016     4.8116     0.0003 </r>
        <r>   -11.4444     0.0000     0.0000     0.0000     0.0000 </r>
        <r>   -11.3995     0.0000     0.0000     0.0000     0.0000 </r>
        <r>   -11.3547     0.0000     0.0000     0.0000     0.0000 </r>
        <r>   -11.3098     0.0000     0.0000     0.0000     0.0000 </r>
        <r>   -11.2649     0.0000     0.0000     0.0000     0.0000 </r>
        <r>   -11.2200     0.0000     0.0000     0.0000     0.0000 </r>
        <r>   -11.1751     0.0000     0.0000     0.0000     0.0000 </r>
        <r>   -11.1302     0.0000     0.0000     0.0000     0.0000 </r>
        <r>   -11.0853     0.0000     0.0000     0.0000     0.0000 </r>
        <r>   -11.0405     0.0000     0.0000     0.0000     0.0000 </r>
        <r>   -10.9956     0.0000     0.0000     0.0000     0.0000 </r>
        <r>   -10.9507     0.0000     0.0000     0.0000     0.0000 </r>
        <r>   -10.9058     0.0000     0.0000     0.0000     0.0000 </r>
        <r>   -10.8609     0.0000     0.0000     0.0000     0.0000 </r>
        <r>   -10.8160     0.0000     0.0000     0.0000     0.0000 </r>
        <r>   -10.7711     0.0000     0.0000     0.0000     0.0000 </r>
        <r>   -10.7262     0.0000     0.0000     0.0000     0.0000 </r>
        <r>   -10.6814     0.0000     0.0000     0.0000     0.0000 </r>
        <r>   -10.6365     0.0000     0.0000     0.0000     0.0000 </r>
        <r>   -10.5916     0.0000     0.0000     0.0000     0.0000 </r>
        <r>   -10.5467     0.0000     0.0000     0.0000     0.0000 </r>
        <r>   -10.5018     0.0000     0.0000     0.0000     0.0000 </r>
        <r>   -10.4569     0.0000     0.0000     0.0000     0.0000 </r>
        <r>   -10.4120     0.0000     0.0000     0.0000     0.0000 </r>
        <r>   -10.3672     0.0000     0.0000     0.0000     0.0000 </r>
        <r>   -10.3223     0.0000     0.0000     0.0000     0.0000 </r>
        <r>   -10.2774     0.0000     0.0000     0.0000     0.0000 </r>
        <r>   -10.2325     0.0000     0.0000     0.0000     0.0000 </r>
        <r>   -10.1876     0.0000     0.0000     0.0000     0.0000 </r>
        <r>   -10.1427     0.0000     0.0000     0.0000     0.0000 </r>
        <r>   -10.0978     0.0000     0.0000     0.0000     0.0000 </r>
        <r>   -10.0529     0.0000     0.0000     0.0000     0.0000 </r>
        <r>   -10.0081     0.0000     0.0000     0.0000     0.0000 </r>
        <r>    -9.9632     0.0000     0.0000     0.0000     0.0000 </r>
        <r>    -9.9183     0.0000     0.0000     0.0000     0.0000 </r>
        <r>    -9.8734     0.0000     0.0000     0.0000     0.0000 </r>
        <r>    -9.8285     0.0000     0.0000     0.0000     0.0000 </r>
        <r>    -9.7836     0.0000     0.0000     0.0000     0.0000 </r>
        <r>    -9.7387     0.0000     0.0000     0.0000     0.0000 </r>
        <r>    -9.6939     0.0000     0.0000     0.0000     0.0000 </r>
        <r>    -9.6490     0.0000     0.0000     0.0000     0.0000 </r>
        <r>    -9.6041     0.0000     0.0000     0.0000     0.0000 </r>
        <r>    -9.5592     0.0000     0.0000     0.0000     0.0000 </r>
        <r>    -9.5143     0.0000     0.0000     0.0000     0.0000 </r>
        <r>    -9.4694     0.0000     0.0000     0.0000     0.0000 </r>
        <r>    -9.4245     0.0000     0.0000     0.0000     0.0000 </r>
        <r>    -9.3796     0.0000     0.0000     0.0000     0.0000 </r>
        <r>    -9.3348     0.0000     0.0000     0.0000     0.0000 </r>
        <r>    -9.2899     0.0000     0.0000     0.0000     0.0000 </r>
        <r>    -9.2450     0.0000     0.0000     0.0000     0.0000 </r>
        <r>    -9.2001     0.0000     0.0000     0.0000     0.0000 </r>
        <r>    -9.1552     0.0000     0.0000     0.0000     0.0000 </r>
        <r>    -9.1103     0.0000     0.0000     0.0000     0.0000 </r>
        <r>    -9.0654     0.0000     0.0000     0.0000     0.0000 </r>
        <r>    -9.0205     0.0000     0.0000     0.0000     0.0000 </r>
        <r>    -8.9757     0.0000     0.0000     0.0000     0.0000 </r>
        <r>    -8.9308     0.0000     0.0000     0.0000     0.0000 </r>
        <r>    -8.8859     0.0000     0.0000     0.0000     0.0000 </r>
        <r>    -8.8410     0.0000     0.0000     0.0000     0.0000 </r>
        <r>    -8.7961     0.0000     0.0000     0.0000     0.0000 </r>
        <r>    -8.7512     0.0000     0.0000     0.0000     0.0000 </r>
        <r>    -8.7063     0.0000     0.0000     0.0000     0.0000 </r>
        <r>    -8.6615     0.0000     0.0000     0.0000     0.0000 </r>
        <r>    -8.6166     0.0000     0.0000     0.0000     0.0000 </r>
        <r>    -8.5717     0.0000     0.0000     0.0000     0.0000 </r>
        <r>    -8.5268     0.0000     0.0000     0.0000     0.0000 </r>
        <r>    -8.4819     0.0000     0.0000     0.0000     0.0000 </r>
        <r>    -8.4370     0.0000     0.0000     0.0000     0.0000 </r>
        <r>    -8.3921     0.0000     0.0000     0.0000     0.0000 </r>
        <r>    -8.3472     0.0025     0.0003     0.0002     0.0000 </r>
        <r>    -8.3024     1.0404     0.1186     0.0989     0.0003 </r>
        <r>    -8.2575     0.0000     0.0000     0.0000     0.0000 </r>
        <r>    -8.2126     0.0000     0.0000     0.0000     0.0000 </r>
        <r>    -8.1677     0.0000     0.0000     0.0000     0.0000 </r>
        <r>    -8.1228     0.0000     0.0000     0.0000     0.0000 </r>
        <r>    -8.0779     0.0000     0.0000     0.0000     0.0000 </r>
        <r>    -8.0330     0.0000     0.0000     0.0000     0.0000 </r>
        <r>    -7.9882     0.0000     0.0000     0.0000     0.0000 </r>
        <r>    -7.9433     0.0000     0.0000     0.0000     0.0000 </r>
        <r>    -7.8984     0.0000     0.0000     0.0000     0.0000 </r>
        <r>    -7.8535     0.0000     0.0000     0.0000     0.0000 </r>
        <r>    -7.8086     0.0000     0.0000     0.0000     0.0000 </r>
        <r>    -7.7637     0.0000     0.0000     0.0000     0.0000 </r>
        <r>    -7.7188     0.0000     0.0000     0.0000     0.0000 </r>
        <r>    -7.6739     0.0000     0.0000     0.0000     0.0000 </r>
        <r>    -7.6291     0.0000     0.0000     0.0000     0.0000 </r>
        <r>    -7.5842     0.0000     0.0000     0.0000     0.0000 </r>
        <r>    -7.5393     0.0000     0.0000     0.0000     0.0000 </r>
        <r>    -7.4944     0.0000     0.0000     0.0000     0.0000 </r>
        <r>    -7.4495     0.0000     0.0000     0.0000     0.0000 </r>
        <r>    -7.4046     0.0000     0.0000     0.0000     0.0000 </r>
        <r>    -7.3597     0.0000     0.0000     0.0000     0.0000 </r>
        <r>    -7.3149     0.0000     0.0000     0.0000     0.0000 </r>
        <r>    -7.2700     0.0000     0.0000     0.0000     0.0000 </r>
        <r>    -7.2251     0.0000     0.0000     0.0000     0.0000 </r>
        <r>    -7.1802     0.0000     0.0000     0.0000     0.0000 </r>
        <r>    -7.1353     0.0000     0.0000     0.0000     0.0000 </r>
        <r>    -7.0904     0.0000     0.0000     0.0000     0.0000 </r>
        <r>    -7.0455     0.0000     0.0000     0.0000     0.0000 </r>
        <r>    -7.0006     0.0000     0.0000     0.0000     0.0000 </r>
        <r>    -6.9558     0.0000     0.0000     0.0000     0.0000 </r>
        <r>    -6.9109     0.0000     0.0000     0.0000     0.0000 </r>
        <r>    -6.8660     0.0000     0.0000     0.0000     0.0000 </r>
        <r>    -6.8211     0.0000     0.0000     0.0000     0.0000 </r>
        <r>    -6.7762     0.0000     0.0000     0.0000     0.0000 </r>
        <r>    -6.7313     0.0000     0.0000     0.0000     0.0000 </r>
        <r>    -6.6864     1.6430     0.0723     0.0358     0.0004 </r>
        <r>    -6.6415     0.0000     0.0000     0.0000     0.0000 </r>
        <r>    -6.5967     0.0000     0.0000     0.0000     0.0000 </r>
        <r>    -6.5518     0.0000     0.0000     0.0000     0.0000 </r>
        <r>    -6.5069     0.0000     0.0000     0.0000     0.0000 </r>
        <r>    -6.4620     0.0000     0.0000     0.0000     0.0000 </r>
        <r>    -6.4171     0.0000     0.0000     0.0000     0.0000 </r>
        <r>    -6.3722     0.0000     0.0000     0.0000     0.0000 </r>
        <r>    -6.3273     0.0000     0.0000     0.0000     0.0000 </r>
        <r>    -6.2825     0.0000     0.0000     0.0000     0.0000 </r>
        <r>    -6.2376     0.0000     0.0000     0.0000     0.0000 </r>
        <r>    -6.1927     0.0000     0.0000     0.0000     0.0000 </r>
        <r>    -6.1478     0.0000     0.0000     0.0000     0.0000 </r>
        <r>    -6.1029     0.0000     0.0000     0.0000     0.0000 </r>
        <r>    -6.0580     0.0000     0.0000     0.0000     0.0000 </r>
        <r>    -6.0131     0.0000     0.0000     0.0000     0.0000 </r>
        <r>    -5.9682     0.0000     0.0000     0.0000     0.0000 </r>
        <r>    -5.9234     0.0000     0.0000     0.0000     0.0000 </r>
        <r>    -5.8785     0.0000     0.0000     0.0000     0.0000 </r>
        <r>    -5.8336     0.0000     0.0000     0.0000     0.0000 </r>
        <r>    -5.7887     0.0000     0.0000     0.0000     0.0000 </r>
        <r>    -5.7438     0.0000     0.0000     0.0000     0.0000 </r>
        <r>    -5.6989     0.0000     0.0000     0.0000     0.0000 </r>
        <r>    -5.6540     0.0000     0.0000     0.0000     0.0000 </r>
        <r>    -5.6092     0.0000     0.0000     0.0000     0.0000 </r>
        <r>    -5.5643     0.0000     0.0000     0.0000     0.0000 </r>
        <r>    -5.5194     0.0000     0.0000     0.0000     0.0000 </r>
        <r>    -5.4745     0.0000     0.0000     0.0000     0.0000 </r>
        <r>    -5.4296     0.0000     0.0000     0.0000     0.0000 </r>
        <r>    -5.3847     0.0000     0.0000     0.0000     0.0000 </r>
        <r>    -5.3398     2.3926     0.0677     0.0275     0.0006 </r>
        <r>    -5.2949     0.0000     0.0000     0.0000     0.0000 </r>
        <r>    -5.2501     0.0000     0.0000     0.0000     0.0000 </r>
        <r>    -5.2052     0.0018     0.0501     0.0262     0.0010 </r>
        <r>    -5.1603     0.0000     0.0000     0.0000     0.0000 </r>
        <r>    -5.1154     0.0000     0.0000     0.0000     0.0000 </r>
        <r>    -5.0705     0.0000     0.0000     0.0000     0.0000 </r>
        <r>    -5.0256     0.0000     0.0000     0.0000     0.0000 </r>
        <r>    -4.9807     0.0000     0.0000     0.0000     0.0000 </r>
        <r>    -4.9358     0.0000     0.0000     0.0000     0.0000 </r>
        <r>    -4.8910     0.0000     0.0000     0.0000     0.0000 </r>
        <r>    -4.8461     0.0000     0.0000     0.0000     0.0000 </r>
        <r>    -4.8012     0.0000     0.0000     0.0000     0.0000 </r>
        <r>    -4.7563     0.0000     0.0000     0.0000     0.0000 </r>
        <r>    -4.7114     2.2273     0.0415     0.0101     0.0006 </r>
        <r>    -4.6665     1.3205     0.1700     0.0596     0.0023 </r>
        <r>    -4.6216     0.0000     0.0000     0.0000     0.0000 </r>
        <r>    -4.5768     0.0000     0.0000     0.0000     0.0000 </r>
        <r>    -4.5319     0.0000     0.0000     0.0000     0.0000 </r>
        <r>    -4.4870     0.0000     0.0000     0.0000     0.0000 </r>
        <r>    -4.4421     0.0000     0.0000     0.0000     0.0000 </r>
        <r>    -4.3972     0.0000     0.0000     0.0000     0.0000 </r>
        <r>    -4.3523     0.0000     0.0000     0.0000     0.0000 </r>
        <r>    -4.3074     0.0000     0.0000     0.0000     0.0000 </r>
        <r>    -4.2625     0.0000     0.0000     0.0000     0.0000 </r>
        <r>    -4.2177     0.0000     0.0000     0.0000     0.0000 </r>
        <r>    -4.1728     0.0000     0.0000     0.0000     0.0000 </r>
        <r>    -4.1279     0.0000     0.0000     0.0000     0.0000 </r>
        <r>    -4.0830     0.0000     0.0000     0.0000     0.0000 </r>
        <r>    -4.0381     0.0000     0.0000     0.0000     0.0000 </r>
        <r>    -3.9932     0.0000     0.0000     0.0000     0.0000 </r>
        <r>    -3.9483     0.0000     0.0000     0.0000     0.0000 </r>
        <r>    -3.9035     0.0000     0.0000     0.0000     0.0000 </r>
        <r>    -3.8586     0.0000     0.0000     0.0000     0.0000 </r>
        <r>    -3.8137     0.0000     0.0000     0.0000     0.0000 </r>
        <r>    -3.7688     0.0000     0.0000     0.0000     0.0000 </r>
        <r>    -3.7239     0.0000     0.0000     0.0000     0.0000 </r>
        <r>    -3.6790     0.0000     0.0000     0.0000     0.0000 </r>
        <r>    -3.6341     0.0000     0.0000     0.0000     0.0000 </r>
        <r>    -3.5892     0.0000     0.0000     0.0000     0.0000 </r>
        <r>    -3.5444     0.0000     0.0000     0.0000     0.0000 </r>
        <r>    -3.4995     0.0000     0.0000     0.0000     0.0000 </r>
        <r>    -3.4546     0.0000     0.0000     0.0000     0.0000 </r>
        <r>    -3.4097     0.0000     0.0000     0.0000     0.0000 </r>
        <r>    -3.3648     0.0000     0.0000     0.0000     0.0000 </r>
        <r>    -3.3199     0.0000     0.0000     0.0000     0.0000 </r>
        <r>    -3.2750     0.0000     0.0000     0.0000     0.0000 </r>
        <r>    -3.2302     0.0000     0.0000     0.0000     0.0000 </r>
        <r>    -3.1853     0.0000     0.0000     0.0000     0.0000 </r>
        <r>    -3.1404     0.0000     0.0000     0.0000     0.0000 </r>
        <r>    -3.0955     0.0000     0.0000     0.0000     0.0000 </r>
        <r>    -3.0506     0.0000     0.0000     0.0000     0.0000 </r>
        <r>    -3.0057     0.0000     0.0000     0.0000     0.0000 </r>
        <r>    -2.9608     0.0000     0.0000     0.0000     0.0000 </r>
        <r>    -2.9159     0.0000     0.0000     0.0000     0.0000 </r>
        <r>    -2.8711     0.0000     0.0000     0.0000     0.0000 </r>
        <r>    -2.8262     0.0000     0.0000     0.0000     0.0000 </r>
        <r>    -2.7813     0.0000     0.0000     0.0000     0.0000 </r>
        <r>    -2.7364     0.0000     0.0000     0.0000     0.0000 </r>
        <r>    -2.6915     0.0000     0.0000     0.0000     0.0000 </r>
        <r>    -2.6466     0.0000     0.0000     0.0000     0.0000 </r>
        <r>    -2.6017     0.0000     0.0000     0.0000     0.0000 </r>
        <r>    -2.5568     0.0000     0.0000     0.0000     0.0000 </r>
        <r>    -2.5120     0.0000     0.0000     0.0000     0.0000 </r>
        <r>    -2.4671     0.0000     0.0000     0.0000     0.0000 </r>
        <r>    -2.4222     0.0000     0.0000     0.0000     0.0000 </r>
        <r>    -2.3773     0.0000     0.0000     0.0000     0.0000 </r>
        <r>    -2.3324     0.0000     0.0000     0.0000     0.0000 </r>
        <r>    -2.2875     0.0000     0.6690     0.0424     0.0023 </r>
        <r>    -2.2426     0.0000     0.0000     0.0000     0.0000 </r>
        <r>    -2.1978     0.0000     0.0000     0.0000     0.0000 </r>
        <r>    -2.1529     0.0000     0.0000     0.0000     0.0000 </r>
        <r>    -2.1080     0.0000     0.0000     0.0000     0.0000 </r>
        <r>    -2.0631     0.1337     1.3160     0.0649     0.0046 </r>
        <r>    -2.0182     0.0000     0.0000     0.0000     0.0000 </r>
        <r>    -1.9733     0.0000     0.0000     0.0000     0.0000 </r>
        <r>    -1.9284     0.0000     0.0000     0.0000     0.0000 </r>
        <r>    -1.8835     0.0000     0.0000     0.0000     0.0000 </r>
        <r>    -1.8387     0.3327     0.5854     0.0090     0.0024 </r>
        <r>    -1.7938     0.0064     1.1835     0.0189     0.0004 </r>
        <r>    -1.7489     0.0000     0.0000     0.0000     0.0000 </r>
        <r>    -1.7040     0.0000     0.0000     0.0000     0.0000 </r>
        <r>    -1.6591     0.0000     0.0000     0.0000     0.0000 </r>
        <r>    -1.6142     0.0000     0.0000     0.0000     0.0000 </r>
        <r>    -1.5693     0.0000     0.0000     0.0000     0.0000 </r>
        <r>    -1.5245     0.0000     0.8110     0.0270     0.0022 </r>
        <r>    -1.4796     0.0000     0.0000     0.0000     0.0000 </r>
        <r>    -1.4347     0.0000     0.0000     0.0000     0.0000 </r>
        <r>    -1.3898     0.0000     0.0000     0.0000     0.0000 </r>
        <r>    -1.3449     0.0000     0.0000     0.0000     0.0000 </r>
        <r>    -1.3000     0.0000     0.0000     0.0000     0.0000 </r>
        <r>    -1.2551     0.0000     0.0000     0.0000     0.0000 </r>
        <r>    -1.2102     0.0000     0.0000     0.0000     0.0000 </r>
        <r>    -1.1654     0.0629     0.7291     0.0215     0.0013 </r>
        <r>    -1.1205     0.0000     0.0000     0.0000     0.0000 </r>
        <r>    -1.0756     0.0000     0.0000     0.0000     0.0000 </r>
        <r>    -1.0307     0.0000     0.0000     0.0000     0.0000 </r>
        <r>    -0.9858     0.0000     0.0000     0.0000     0.0000 </r>
        <r>    -0.9409     0.0000     0.0000     0.0000     0.0000 </r>
        <r>    -0.8960     0.0000     0.0000     0.0000     0.0000 </r>
        <r>    -0.8511     0.0000     0.0000     0.0000     0.0000 </r>
        <r>    -0.8063     0.0000     0.0000     0.0000     0.0000 </r>
        <r>    -0.7614     0.0000     0.0000     0.0000     0.0000 </r>
        <r>    -0.7165     0.0000     0.0000     0.0000     0.0000 </r>
        <r>    -0.6716     0.0000     0.0000     0.0000     0.0000 </r>
        <r>    -0.6267     0.0000     0.4791     0.0237     0.0027 </r>
        <r>    -0.5818     0.0000     0.0000     0.0000     0.0000 </r>
        <r>    -0.5369     0.0000     0.0000     0.0000     0.0000 </r>
        <r>    -0.4921     0.0000     0.0000     0.0000     0.0000 </r>
        <r>    -0.4472     0.0000     0.0000     0.0000     0.0000 </r>
        <r>    -0.4023     0.0000     0.0000     0.0000     0.0000 </r>
        <r>    -0.3574     0.0000     0.0000     0.0000     0.0000 </r>
        <r>    -0.3125     0.0000     0.0000     0.0000     0.0000 </r>
        <r>    -0.2676     0.0000     0.0001     0.0000     0.0000 </r>
        <r>    -0.2227     0.0000     1.1118     0.0116     0.0009 </r>
        <r>    -0.1778     0.0000     0.0000     0.0000     0.0000 </r>
        <r>    -0.1330     0.0000     0.0000     0.0000     0.0000 </r>
        <r>    -0.0881     0.0000     0.0000     0.0000     0.0000 </r>
        <r>    -0.0432     0.0000     0.0000     0.0000     0.0000 </r>
        <r>     0.0017     0.0000     0.0000     0.0000     0.0000 </r>
        <r>     0.0466     0.2587     0.2180     0.0328     0.0014 </r>
        <r>     0.0915     0.0000     0.0000     0.0000     0.0000 </r>
        <r>     0.1364     0.0000     0.0000     0.0000     0.0000 </r>
        <r>     0.1812     0.0000     0.0000     0.0000     0.0000 </r>
        <r>     0.2261     0.0000     0.0000     0.0000     0.0000 </r>
        <r>     0.2710     0.0000     0.0000     0.0000     0.0000 </r>
        <r>     0.3159     0.0000     0.0000     0.0000     0.0000 </r>
        <r>     0.3608     0.0000     0.0000     0.0000     0.0000 </r>
        <r>     0.4057     0.0000     0.0000     0.0000     0.0000 </r>
        <r>     0.4506     0.0000     0.0000     0.0000     0.0000 </r>
        <r>     0.4955     0.0000     0.0000     0.0000     0.0000 </r>
        <r>     0.5403     0.0000     0.0000     0.0000     0.0000 </r>
        <r>     0.5852     0.0000     0.0000     0.0000     0.0000 </r>
        <r>     0.6301     0.0000     0.0000     0.0000     0.0000 </r>
       </set>
      </set>
      <set comment="ion 6">
       <set comment="spin 1">
        <r>   -12.8359     0.0000     0.0000     0.0000     0.0000 </r>
        <r>   -12.7910     0.0000     0.0000     0.0000     0.0000 </r>
        <r>   -12.7462     0.0000     0.0000     0.0000     0.0000 </r>
        <r>   -12.7013     0.0000     0.0000     0.0000     0.0000 </r>
        <r>   -12.6564     0.0000     0.0000     0.0000     0.0000 </r>
        <r>   -12.6115     0.0000     0.0000     0.0000     0.0000 </r>
        <r>   -12.5666     0.0000     0.0000     0.0000     0.0000 </r>
        <r>   -12.5217     0.0000     0.0000     0.0000     0.0000 </r>
        <r>   -12.4768     0.0000     0.0000     0.0000     0.0000 </r>
        <r>   -12.4319     0.0000     0.0000     0.0000     0.0000 </r>
        <r>   -12.3871     0.0000     0.0000     0.0000     0.0000 </r>
        <r>   -12.3422     0.0000     0.0000     0.0000     0.0000 </r>
        <r>   -12.2973     0.0000     0.0000     0.0000     0.0000 </r>
        <r>   -12.2524     0.0000     0.0000     0.0000     0.0000 </r>
        <r>   -12.2075     0.0475     0.0364    17.6208     0.0025 </r>
        <r>   -12.1626     0.0000     0.0000     0.0000     0.0000 </r>
        <r>   -12.1177     0.0000     0.0000     0.0102     0.0000 </r>
        <r>   -12.0729     0.0001     0.0053     8.9805     0.0008 </r>
        <r>   -12.0280     0.0046     0.0008     5.4449     0.0005 </r>
        <r>   -11.9831     0.0179     0.0019    23.0846     0.0006 </r>
        <r>   -11.9382     0.0000     0.0000     0.0000     0.0000 </r>
        <r>   -11.8933     0.0000     0.0029     6.5101     0.0004 </r>
        <r>   -11.8484     0.0262     0.0045     7.5106     0.0006 </r>
        <r>   -11.8035     0.0003     0.0001     0.1753     0.0000 </r>
        <r>   -11.7586     0.0128     0.0026     7.9330     0.0002 </r>
        <r>   -11.7138     0.0200     0.0068     4.4762     0.0006 </r>
        <r>   -11.6689     0.0001     0.0001     1.4745     0.0003 </r>
        <r>   -11.6240     0.0001     0.0140     8.1483     0.0003 </r>
        <r>   -11.5791     0.0001     0.0017     1.8277     0.0006 </r>
        <r>   -11.5342     0.0003     0.0045     9.3966     0.0016 </r>
        <r>   -11.4893     0.0000     0.0000     0.9289     0.0002 </r>
        <r>   -11.4444     0.0000     0.0000     0.0000     0.0000 </r>
        <r>   -11.3995     0.0000     0.0000     0.0000     0.0000 </r>
        <r>   -11.3547     0.0000     0.0000     0.0000     0.0000 </r>
        <r>   -11.3098     0.0000     0.0000     0.0000     0.0000 </r>
        <r>   -11.2649     0.0000     0.0000     0.0000     0.0000 </r>
        <r>   -11.2200     0.0000     0.0000     0.0000     0.0000 </r>
        <r>   -11.1751     0.0000     0.0000     0.0000     0.0000 </r>
        <r>   -11.1302     0.0000     0.0000     0.0000     0.0000 </r>
        <r>   -11.0853     0.0000     0.0000     0.0000     0.0000 </r>
        <r>   -11.0405     0.0000     0.0000     0.0000     0.0000 </r>
        <r>   -10.9956     0.0000     0.0000     0.0000     0.0000 </r>
        <r>   -10.9507     0.0000     0.0000     0.0000     0.0000 </r>
        <r>   -10.9058     0.0000     0.0000     0.0000     0.0000 </r>
        <r>   -10.8609     0.0000     0.0000     0.0000     0.0000 </r>
        <r>   -10.8160     0.0000     0.0000     0.0000     0.0000 </r>
        <r>   -10.7711     0.0000     0.0000     0.0000     0.0000 </r>
        <r>   -10.7262     0.0000     0.0000     0.0000     0.0000 </r>
        <r>   -10.6814     0.0000     0.0000     0.0000     0.0000 </r>
        <r>   -10.6365     0.0000     0.0000     0.0000     0.0000 </r>
        <r>   -10.5916     0.0000     0.0000     0.0000     0.0000 </r>
        <r>   -10.5467     0.0000     0.0000     0.0000     0.0000 </r>
        <r>   -10.5018     0.0000     0.0000     0.0000     0.0000 </r>
        <r>   -10.4569     0.0000     0.0000     0.0000     0.0000 </r>
        <r>   -10.4120     0.0000     0.0000     0.0000     0.0000 </r>
        <r>   -10.3672     0.0000     0.0000     0.0000     0.0000 </r>
        <r>   -10.3223     0.0000     0.0000     0.0000     0.0000 </r>
        <r>   -10.2774     0.0000     0.0000     0.0000     0.0000 </r>
        <r>   -10.2325     0.0000     0.0000     0.0000     0.0000 </r>
        <r>   -10.1876     0.0000     0.0000     0.0000     0.0000 </r>
        <r>   -10.1427     0.0000     0.0000     0.0000     0.0000 </r>
        <r>   -10.0978     0.0000     0.0000     0.0000     0.0000 </r>
        <r>   -10.0529     0.0000     0.0000     0.0000     0.0000 </r>
        <r>   -10.0081     0.0000     0.0000     0.0000     0.0000 </r>
        <r>    -9.9632     0.0000     0.0000     0.0000     0.0000 </r>
        <r>    -9.9183     0.0000     0.0000     0.0000     0.0000 </r>
        <r>    -9.8734     0.0000     0.0000     0.0000     0.0000 </r>
        <r>    -9.8285     0.0000     0.0000     0.0000     0.0000 </r>
        <r>    -9.7836     0.0000     0.0000     0.0000     0.0000 </r>
        <r>    -9.7387     0.0000     0.0000     0.0000     0.0000 </r>
        <r>    -9.6939     0.0000     0.0000     0.0000     0.0000 </r>
        <r>    -9.6490     0.0000     0.0000     0.0000     0.0000 </r>
        <r>    -9.6041     0.0000     0.0000     0.0000     0.0000 </r>
        <r>    -9.5592     0.0000     0.0000     0.0000     0.0000 </r>
        <r>    -9.5143     0.0000     0.0000     0.0000     0.0000 </r>
        <r>    -9.4694     0.0000     0.0000     0.0000     0.0000 </r>
        <r>    -9.4245     0.0000     0.0000     0.0000     0.0000 </r>
        <r>    -9.3796     0.0000     0.0000     0.0000     0.0000 </r>
        <r>    -9.3348     0.0000     0.0000     0.0000     0.0000 </r>
        <r>    -9.2899     0.0000     0.0000     0.0000     0.0000 </r>
        <r>    -9.2450     0.0000     0.0000     0.0000     0.0000 </r>
        <r>    -9.2001     0.0000     0.0000     0.0000     0.0000 </r>
        <r>    -9.1552     0.0000     0.0000     0.0000     0.0000 </r>
        <r>    -9.1103     0.0000     0.0000     0.0000     0.0000 </r>
        <r>    -9.0654     0.0000     0.0000     0.0000     0.0000 </r>
        <r>    -9.0205     0.0000     0.0000     0.0000     0.0000 </r>
        <r>    -8.9757     0.0000     0.0000     0.0000     0.0000 </r>
        <r>    -8.9308     0.0000     0.0000     0.0000     0.0000 </r>
        <r>    -8.8859     0.0000     0.0000     0.0000     0.0000 </r>
        <r>    -8.8410     0.0000     0.0000     0.0000     0.0000 </r>
        <r>    -8.7961     0.0000     0.0000     0.0000     0.0000 </r>
        <r>    -8.7512     0.0000     0.0000     0.0000     0.0000 </r>
        <r>    -8.7063     0.0000     0.0000     0.0000     0.0000 </r>
        <r>    -8.6615     0.0000     0.0000     0.0000     0.0000 </r>
        <r>    -8.6166     0.0000     0.0000     0.0000     0.0000 </r>
        <r>    -8.5717     0.0000     0.0000     0.0000     0.0000 </r>
        <r>    -8.5268     0.0000     0.0000     0.0000     0.0000 </r>
        <r>    -8.4819     0.0000     0.0000     0.0000     0.0000 </r>
        <r>    -8.4370     0.0000     0.0000     0.0000     0.0000 </r>
        <r>    -8.3921     0.0000     0.0000     0.0000     0.0000 </r>
        <r>    -8.3472     0.0061     0.0004     0.0002     0.0000 </r>
        <r>    -8.3024     2.5076     0.1719     0.0652     0.0003 </r>
        <r>    -8.2575     0.0000     0.0000     0.0000     0.0000 </r>
        <r>    -8.2126     0.0000     0.0000     0.0000     0.0000 </r>
        <r>    -8.1677     0.0000     0.0000     0.0000     0.0000 </r>
        <r>    -8.1228     0.0000     0.0000     0.0000     0.0000 </r>
        <r>    -8.0779     0.0000     0.0000     0.0000     0.0000 </r>
        <r>    -8.0330     0.0000     0.0000     0.0000     0.0000 </r>
        <r>    -7.9882     0.0000     0.0000     0.0000     0.0000 </r>
        <r>    -7.9433     0.0000     0.0000     0.0000     0.0000 </r>
        <r>    -7.8984     0.0000     0.0000     0.0000     0.0000 </r>
        <r>    -7.8535     0.0000     0.0000     0.0000     0.0000 </r>
        <r>    -7.8086     0.0000     0.0000     0.0000     0.0000 </r>
        <r>    -7.7637     0.0000     0.0000     0.0000     0.0000 </r>
        <r>    -7.7188     0.0000     0.0000     0.0000     0.0000 </r>
        <r>    -7.6739     0.0000     0.0000     0.0000     0.0000 </r>
        <r>    -7.6291     0.0000     0.0000     0.0000     0.0000 </r>
        <r>    -7.5842     0.0000     0.0000     0.0000     0.0000 </r>
        <r>    -7.5393     0.0000     0.0000     0.0000     0.0000 </r>
        <r>    -7.4944     0.0000     0.0000     0.0000     0.0000 </r>
        <r>    -7.4495     0.0000     0.0000     0.0000     0.0000 </r>
        <r>    -7.4046     0.0000     0.0000     0.0000     0.0000 </r>
        <r>    -7.3597     0.0000     0.0000     0.0000     0.0000 </r>
        <r>    -7.3149     0.0000     0.0000     0.0000     0.0000 </r>
        <r>    -7.2700     0.0000     0.0000     0.0000     0.0000 </r>
        <r>    -7.2251     0.0000     0.0000     0.0000     0.0000 </r>
        <r>    -7.1802     0.0000     0.0000     0.0000     0.0000 </r>
        <r>    -7.1353     0.0000     0.0000     0.0000     0.0000 </r>
        <r>    -7.0904     0.0000     0.0000     0.0000     0.0000 </r>
        <r>    -7.0455     0.0000     0.0000     0.0000     0.0000 </r>
        <r>    -7.0006     0.0000     0.0000     0.0000     0.0000 </r>
        <r>    -6.9558     0.0000     0.0000     0.0000     0.0000 </r>
        <r>    -6.9109     0.0000     0.0000     0.0000     0.0000 </r>
        <r>    -6.8660     0.0000     0.0000     0.0000     0.0000 </r>
        <r>    -6.8211     0.0000     0.0000     0.0000     0.0000 </r>
        <r>    -6.7762     0.0000     0.0000     0.0000     0.0000 </r>
        <r>    -6.7313     0.0000     0.0000     0.0000     0.0000 </r>
        <r>    -6.6864     0.0000     0.2679     0.1112     0.0001 </r>
        <r>    -6.6415     0.0000     0.0000     0.0000     0.0000 </r>
        <r>    -6.5967     0.0000     0.0000     0.0000     0.0000 </r>
        <r>    -6.5518     0.0000     0.0000     0.0000     0.0000 </r>
        <r>    -6.5069     0.0000     0.0000     0.0000     0.0000 </r>
        <r>    -6.4620     0.0000     0.0000     0.0000     0.0000 </r>
        <r>    -6.4171     0.0000     0.0000     0.0000     0.0000 </r>
        <r>    -6.3722     0.0000     0.0000     0.0000     0.0000 </r>
        <r>    -6.3273     0.0000     0.0000     0.0000     0.0000 </r>
        <r>    -6.2825     0.0000     0.0000     0.0000     0.0000 </r>
        <r>    -6.2376     0.0000     0.0000     0.0000     0.0000 </r>
        <r>    -6.1927     0.0000     0.0000     0.0000     0.0000 </r>
        <r>    -6.1478     0.0000     0.0000     0.0000     0.0000 </r>
        <r>    -6.1029     0.0000     0.0000     0.0000     0.0000 </r>
        <r>    -6.0580     0.0000     0.0000     0.0000     0.0000 </r>
        <r>    -6.0131     0.0000     0.0000     0.0000     0.0000 </r>
        <r>    -5.9682     0.0000     0.0000     0.0000     0.0000 </r>
        <r>    -5.9234     0.0000     0.0000     0.0000     0.0000 </r>
        <r>    -5.8785     0.0000     0.0000     0.0000     0.0000 </r>
        <r>    -5.8336     0.0000     0.0000     0.0000     0.0000 </r>
        <r>    -5.7887     0.0000     0.0000     0.0000     0.0000 </r>
        <r>    -5.7438     0.0000     0.0000     0.0000     0.0000 </r>
        <r>    -5.6989     0.0000     0.0000     0.0000     0.0000 </r>
        <r>    -5.6540     0.0000     0.0000     0.0000     0.0000 </r>
        <r>    -5.6092     0.0000     0.0000     0.0000     0.0000 </r>
        <r>    -5.5643     0.0000     0.0000     0.0000     0.0000 </r>
        <r>    -5.5194     0.0000     0.0000     0.0000     0.0000 </r>
        <r>    -5.4745     0.0000     0.0000     0.0000     0.0000 </r>
        <r>    -5.4296     0.0000     0.0000     0.0000     0.0000 </r>
        <r>    -5.3847     0.0000     0.0000     0.0000     0.0000 </r>
        <r>    -5.3398     0.0054     0.3292     0.0711     0.0022 </r>
        <r>    -5.2949     0.0000     0.0000     0.0000     0.0000 </r>
        <r>    -5.2501     0.0000     0.0000     0.0000     0.0000 </r>
        <r>    -5.2052     1.6412     0.0449     0.0197     0.0006 </r>
        <r>    -5.1603     0.0000     0.0000     0.0000     0.0000 </r>
        <r>    -5.1154     0.0000     0.0000     0.0000     0.0000 </r>
        <r>    -5.0705     0.0000     0.0000     0.0000     0.0000 </r>
        <r>    -5.0256     0.0000     0.0000     0.0000     0.0000 </r>
        <r>    -4.9807     0.0000     0.0000     0.0000     0.0000 </r>
        <r>    -4.9358     0.0000     0.0000     0.0000     0.0000 </r>
        <r>    -4.8910     0.0000     0.0000     0.0000     0.0000 </r>
        <r>    -4.8461     0.0000     0.0000     0.0000     0.0000 </r>
        <r>    -4.8012     0.0000     0.0000     0.0000     0.0000 </r>
        <r>    -4.7563     0.0000     0.0000     0.0000     0.0000 </r>
        <r>    -4.7114     0.0009     0.0005     0.0835     0.0032 </r>
        <r>    -4.6665     1.8634     0.0173     0.0756     0.0037 </r>
        <r>    -4.6216     0.0000     0.0000     0.0000     0.0000 </r>
        <r>    -4.5768     0.0000     0.0000     0.0000     0.0000 </r>
        <r>    -4.5319     0.0000     0.0000     0.0000     0.0000 </r>
        <r>    -4.4870     0.0000     0.0000     0.0000     0.0000 </r>
        <r>    -4.4421     0.0000     0.0000     0.0000     0.0000 </r>
        <r>    -4.3972     0.0000     0.0000     0.0000     0.0000 </r>
        <r>    -4.3523     0.0000     0.0000     0.0000     0.0000 </r>
        <r>    -4.3074     0.0000     0.0000     0.0000     0.0000 </r>
        <r>    -4.2625     0.0000     0.0000     0.0000     0.0000 </r>
        <r>    -4.2177     0.0000     0.0000     0.0000     0.0000 </r>
        <r>    -4.1728     0.0000     0.0000     0.0000     0.0000 </r>
        <r>    -4.1279     0.0000     0.0000     0.0000     0.0000 </r>
        <r>    -4.0830     0.0000     0.0000     0.0000     0.0000 </r>
        <r>    -4.0381     0.0000     0.0000     0.0000     0.0000 </r>
        <r>    -3.9932     0.0000     0.0000     0.0000     0.0000 </r>
        <r>    -3.9483     0.0000     0.0000     0.0000     0.0000 </r>
        <r>    -3.9035     0.0000     0.0000     0.0000     0.0000 </r>
        <r>    -3.8586     0.0000     0.0000     0.0000     0.0000 </r>
        <r>    -3.8137     0.0000     0.0000     0.0000     0.0000 </r>
        <r>    -3.7688     0.0000     0.0000     0.0000     0.0000 </r>
        <r>    -3.7239     0.0000     0.0000     0.0000     0.0000 </r>
        <r>    -3.6790     0.0000     0.0000     0.0000     0.0000 </r>
        <r>    -3.6341     0.0000     0.0000     0.0000     0.0000 </r>
        <r>    -3.5892     0.0000     0.0000     0.0000     0.0000 </r>
        <r>    -3.5444     0.0000     0.0000     0.0000     0.0000 </r>
        <r>    -3.4995     0.0000     0.0000     0.0000     0.0000 </r>
        <r>    -3.4546     0.0000     0.0000     0.0000     0.0000 </r>
        <r>    -3.4097     0.0000     0.0000     0.0000     0.0000 </r>
        <r>    -3.3648     0.0000     0.0000     0.0000     0.0000 </r>
        <r>    -3.3199     0.0000     0.0000     0.0000     0.0000 </r>
        <r>    -3.2750     0.0000     0.0000     0.0000     0.0000 </r>
        <r>    -3.2302     0.0000     0.0000     0.0000     0.0000 </r>
        <r>    -3.1853     0.0000     0.0000     0.0000     0.0000 </r>
        <r>    -3.1404     0.0000     0.0000     0.0000     0.0000 </r>
        <r>    -3.0955     0.0000     0.0000     0.0000     0.0000 </r>
        <r>    -3.0506     0.0000     0.0000     0.0000     0.0000 </r>
        <r>    -3.0057     0.0000     0.0000     0.0000     0.0000 </r>
        <r>    -2.9608     0.0000     0.0000     0.0000     0.0000 </r>
        <r>    -2.9159     0.0000     0.0000     0.0000     0.0000 </r>
        <r>    -2.8711     0.0000     0.0000     0.0000     0.0000 </r>
        <r>    -2.8262     0.0000     0.0000     0.0000     0.0000 </r>
        <r>    -2.7813     0.0000     0.0000     0.0000     0.0000 </r>
        <r>    -2.7364     0.0000     0.0000     0.0000     0.0000 </r>
        <r>    -2.6915     0.0000     0.0000     0.0000     0.0000 </r>
        <r>    -2.6466     0.0000     0.0000     0.0000     0.0000 </r>
        <r>    -2.6017     0.0000     0.0000     0.0000     0.0000 </r>
        <r>    -2.5568     0.0000     0.0000     0.0000     0.0000 </r>
        <r>    -2.5120     0.0000     0.0000     0.0000     0.0000 </r>
        <r>    -2.4671     0.0000     0.0000     0.0000     0.0000 </r>
        <r>    -2.4222     0.0000     0.0000     0.0000     0.0000 </r>
        <r>    -2.3773     0.0000     0.0000     0.0000     0.0000 </r>
        <r>    -2.3324     0.0000     0.0000     0.0000     0.0000 </r>
        <r>    -2.2875     0.0000     0.9372     0.0049     0.0045 </r>
        <r>    -2.2426     0.0000     0.0000     0.0000     0.0000 </r>
        <r>    -2.1978     0.0000     0.0000     0.0000     0.0000 </r>
        <r>    -2.1529     0.0000     0.0000     0.0000     0.0000 </r>
        <r>    -2.1080     0.0000     0.0000     0.0000     0.0000 </r>
        <r>    -2.0631     0.2455     2.8077     0.0931     0.0043 </r>
        <r>    -2.0182     0.0000     0.0000     0.0000     0.0000 </r>
        <r>    -1.9733     0.0000     0.0000     0.0000     0.0000 </r>
        <r>    -1.9284     0.0000     0.0000     0.0000     0.0000 </r>
        <r>    -1.8835     0.0000     0.0000     0.0000     0.0000 </r>
        <r>    -1.8387     0.0606     1.1832     0.0457     0.0024 </r>
        <r>    -1.7938     0.0538     0.1623     0.0614     0.0036 </r>
        <r>    -1.7489     0.0000     0.0000     0.0000     0.0000 </r>
        <r>    -1.7040     0.0000     0.0000     0.0000     0.0000 </r>
        <r>    -1.6591     0.0000     0.0000     0.0000     0.0000 </r>
        <r>    -1.6142     0.0000     0.0000     0.0000     0.0000 </r>
        <r>    -1.5693     0.0000     0.0000     0.0000     0.0000 </r>
        <r>    -1.5245     0.0233     1.1056     0.0138     0.0053 </r>
        <r>    -1.4796     0.0000     0.0000     0.0000     0.0000 </r>
        <r>    -1.4347     0.0000     0.0000     0.0000     0.0000 </r>
        <r>    -1.3898     0.0000     0.0000     0.0000     0.0000 </r>
        <r>    -1.3449     0.0000     0.0000     0.0000     0.0000 </r>
        <r>    -1.3000     0.0000     0.0000     0.0000     0.0000 </r>
        <r>    -1.2551     0.0000     0.0000     0.0000     0.0000 </r>
        <r>    -1.2102     0.0000     0.0000     0.0000     0.0000 </r>
        <r>    -1.1654     0.0000     0.0573     0.0056     0.0047 </r>
        <r>    -1.1205     0.0000     0.0000     0.0000     0.0000 </r>
        <r>    -1.0756     0.0000     0.0000     0.0000     0.0000 </r>
        <r>    -1.0307     0.0000     0.0000     0.0000     0.0000 </r>
        <r>    -0.9858     0.0000     0.0000     0.0000     0.0000 </r>
        <r>    -0.9409     0.0000     0.0000     0.0000     0.0000 </r>
        <r>    -0.8960     0.0000     0.0000     0.0000     0.0000 </r>
        <r>    -0.8511     0.0000     0.0000     0.0000     0.0000 </r>
        <r>    -0.8063     0.0000     0.0000     0.0000     0.0000 </r>
        <r>    -0.7614     0.0000     0.0000     0.0000     0.0000 </r>
        <r>    -0.7165     0.0000     0.0000     0.0000     0.0000 </r>
        <r>    -0.6716     0.0000     0.0000     0.0000     0.0000 </r>
        <r>    -0.6267     0.6757     0.1325     0.0462     0.0001 </r>
        <r>    -0.5818     0.0000     0.0000     0.0000     0.0000 </r>
        <r>    -0.5369     0.0000     0.0000     0.0000     0.0000 </r>
        <r>    -0.4921     0.0000     0.0000     0.0000     0.0000 </r>
        <r>    -0.4472     0.0000     0.0000     0.0000     0.0000 </r>
        <r>    -0.4023     0.0000     0.0000     0.0000     0.0000 </r>
        <r>    -0.3574     0.0000     0.0000     0.0000     0.0000 </r>
        <r>    -0.3125     0.0000     0.0000     0.0000     0.0000 </r>
        <r>    -0.2676     0.0000     0.0000     0.0000     0.0000 </r>
        <r>    -0.2227     0.0000     0.0004     0.1083     0.0005 </r>
        <r>    -0.1778     0.0000     0.0000     0.0000     0.0000 </r>
        <r>    -0.1330     0.0000     0.0000     0.0000     0.0000 </r>
        <r>    -0.0881     0.0000     0.0000     0.0000     0.0000 </r>
        <r>    -0.0432     0.0000     0.0000     0.0000     0.0000 </r>
        <r>     0.0017     0.0000     0.0000     0.0000     0.0000 </r>
        <r>     0.0466     0.1251     0.2139     0.0437     0.0053 </r>
        <r>     0.0915     0.0000     0.0000     0.0000     0.0000 </r>
        <r>     0.1364     0.0000     0.0000     0.0000     0.0000 </r>
        <r>     0.1812     0.0000     0.0000     0.0000     0.0000 </r>
        <r>     0.2261     0.0000     0.0000     0.0000     0.0000 </r>
        <r>     0.2710     0.0000     0.0000     0.0000     0.0000 </r>
        <r>     0.3159     0.0000     0.0000     0.0000     0.0000 </r>
        <r>     0.3608     0.0000     0.0000     0.0000     0.0000 </r>
        <r>     0.4057     0.0000     0.0000     0.0000     0.0000 </r>
        <r>     0.4506     0.0000     0.0000     0.0000     0.0000 </r>
        <r>     0.4955     0.0000     0.0000     0.0000     0.0000 </r>
        <r>     0.5403     0.0000     0.0000     0.0000     0.0000 </r>
        <r>     0.5852     0.0000     0.0000     0.0000     0.0000 </r>
        <r>     0.6301     0.0000     0.0000     0.0000     0.0000 </r>
       </set>
       <set comment="spin 2">
        <r>   -12.8359     0.0000     0.0000     0.0000     0.0000 </r>
        <r>   -12.7910     0.0000     0.0000     0.0000     0.0000 </r>
        <r>   -12.7462     0.0000     0.0000     0.0000     0.0000 </r>
        <r>   -12.7013     0.0000     0.0000     0.0000     0.0000 </r>
        <r>   -12.6564     0.0000     0.0000     0.0000     0.0000 </r>
        <r>   -12.6115     0.0000     0.0000     0.0000     0.0000 </r>
        <r>   -12.5666     0.0000     0.0000     0.0000     0.0000 </r>
        <r>   -12.5217     0.0000     0.0000     0.0000     0.0000 </r>
        <r>   -12.4768     0.0000     0.0000     0.0000     0.0000 </r>
        <r>   -12.4319     0.0000     0.0000     0.0000     0.0000 </r>
        <r>   -12.3871     0.0000     0.0000     0.0000     0.0000 </r>
        <r>   -12.3422     0.0000     0.0000     0.0000     0.0000 </r>
        <r>   -12.2973     0.0000     0.0000     0.0000     0.0000 </r>
        <r>   -12.2524     0.0000     0.0000     0.0000     0.0000 </r>
        <r>   -12.2075     0.0475     0.0364    17.6208     0.0025 </r>
        <r>   -12.1626     0.0000     0.0000     0.0000     0.0000 </r>
        <r>   -12.1177     0.0000     0.0000     0.0102     0.0000 </r>
        <r>   -12.0729     0.0001     0.0053     8.9805     0.0008 </r>
        <r>   -12.0280     0.0046     0.0008     5.4449     0.0005 </r>
        <r>   -11.9831     0.0179     0.0019    23.0846     0.0006 </r>
        <r>   -11.9382     0.0000     0.0000     0.0000     0.0000 </r>
        <r>   -11.8933     0.0000     0.0029     6.5101     0.0004 </r>
        <r>   -11.8484     0.0262     0.0045     7.5106     0.0006 </r>
        <r>   -11.8035     0.0003     0.0001     0.1753     0.0000 </r>
        <r>   -11.7586     0.0128     0.0026     7.9330     0.0002 </r>
        <r>   -11.7138     0.0200     0.0068     4.4762     0.0006 </r>
        <r>   -11.6689     0.0001     0.0001     1.4745     0.0003 </r>
        <r>   -11.6240     0.0001     0.0140     8.1483     0.0003 </r>
        <r>   -11.5791     0.0001     0.0017     1.8277     0.0006 </r>
        <r>   -11.5342     0.0003     0.0045     9.3966     0.0016 </r>
        <r>   -11.4893     0.0000     0.0000     0.9289     0.0002 </r>
        <r>   -11.4444     0.0000     0.0000     0.0000     0.0000 </r>
        <r>   -11.3995     0.0000     0.0000     0.0000     0.0000 </r>
        <r>   -11.3547     0.0000     0.0000     0.0000     0.0000 </r>
        <r>   -11.3098     0.0000     0.0000     0.0000     0.0000 </r>
        <r>   -11.2649     0.0000     0.0000     0.0000     0.0000 </r>
        <r>   -11.2200     0.0000     0.0000     0.0000     0.0000 </r>
        <r>   -11.1751     0.0000     0.0000     0.0000     0.0000 </r>
        <r>   -11.1302     0.0000     0.0000     0.0000     0.0000 </r>
        <r>   -11.0853     0.0000     0.0000     0.0000     0.0000 </r>
        <r>   -11.0405     0.0000     0.0000     0.0000     0.0000 </r>
        <r>   -10.9956     0.0000     0.0000     0.0000     0.0000 </r>
        <r>   -10.9507     0.0000     0.0000     0.0000     0.0000 </r>
        <r>   -10.9058     0.0000     0.0000     0.0000     0.0000 </r>
        <r>   -10.8609     0.0000     0.0000     0.0000     0.0000 </r>
        <r>   -10.8160     0.0000     0.0000     0.0000     0.0000 </r>
        <r>   -10.7711     0.0000     0.0000     0.0000     0.0000 </r>
        <r>   -10.7262     0.0000     0.0000     0.0000     0.0000 </r>
        <r>   -10.6814     0.0000     0.0000     0.0000     0.0000 </r>
        <r>   -10.6365     0.0000     0.0000     0.0000     0.0000 </r>
        <r>   -10.5916     0.0000     0.0000     0.0000     0.0000 </r>
        <r>   -10.5467     0.0000     0.0000     0.0000     0.0000 </r>
        <r>   -10.5018     0.0000     0.0000     0.0000     0.0000 </r>
        <r>   -10.4569     0.0000     0.0000     0.0000     0.0000 </r>
        <r>   -10.4120     0.0000     0.0000     0.0000     0.0000 </r>
        <r>   -10.3672     0.0000     0.0000     0.0000     0.0000 </r>
        <r>   -10.3223     0.0000     0.0000     0.0000     0.0000 </r>
        <r>   -10.2774     0.0000     0.0000     0.0000     0.0000 </r>
        <r>   -10.2325     0.0000     0.0000     0.0000     0.0000 </r>
        <r>   -10.1876     0.0000     0.0000     0.0000     0.0000 </r>
        <r>   -10.1427     0.0000     0.0000     0.0000     0.0000 </r>
        <r>   -10.0978     0.0000     0.0000     0.0000     0.0000 </r>
        <r>   -10.0529     0.0000     0.0000     0.0000     0.0000 </r>
        <r>   -10.0081     0.0000     0.0000     0.0000     0.0000 </r>
        <r>    -9.9632     0.0000     0.0000     0.0000     0.0000 </r>
        <r>    -9.9183     0.0000     0.0000     0.0000     0.0000 </r>
        <r>    -9.8734     0.0000     0.0000     0.0000     0.0000 </r>
        <r>    -9.8285     0.0000     0.0000     0.0000     0.0000 </r>
        <r>    -9.7836     0.0000     0.0000     0.0000     0.0000 </r>
        <r>    -9.7387     0.0000     0.0000     0.0000     0.0000 </r>
        <r>    -9.6939     0.0000     0.0000     0.0000     0.0000 </r>
        <r>    -9.6490     0.0000     0.0000     0.0000     0.0000 </r>
        <r>    -9.6041     0.0000     0.0000     0.0000     0.0000 </r>
        <r>    -9.5592     0.0000     0.0000     0.0000     0.0000 </r>
        <r>    -9.5143     0.0000     0.0000     0.0000     0.0000 </r>
        <r>    -9.4694     0.0000     0.0000     0.0000     0.0000 </r>
        <r>    -9.4245     0.0000     0.0000     0.0000     0.0000 </r>
        <r>    -9.3796     0.0000     0.0000     0.0000     0.0000 </r>
        <r>    -9.3348     0.0000     0.0000     0.0000     0.0000 </r>
        <r>    -9.2899     0.0000     0.0000     0.0000     0.0000 </r>
        <r>    -9.2450     0.0000     0.0000     0.0000     0.0000 </r>
        <r>    -9.2001     0.0000     0.0000     0.0000     0.0000 </r>
        <r>    -9.1552     0.0000     0.0000     0.0000     0.0000 </r>
        <r>    -9.1103     0.0000     0.0000     0.0000     0.0000 </r>
        <r>    -9.0654     0.0000     0.0000     0.0000     0.0000 </r>
        <r>    -9.0205     0.0000     0.0000     0.0000     0.0000 </r>
        <r>    -8.9757     0.0000     0.0000     0.0000     0.0000 </r>
        <r>    -8.9308     0.0000     0.0000     0.0000     0.0000 </r>
        <r>    -8.8859     0.0000     0.0000     0.0000     0.0000 </r>
        <r>    -8.8410     0.0000     0.0000     0.0000     0.0000 </r>
        <r>    -8.7961     0.0000     0.0000     0.0000     0.0000 </r>
        <r>    -8.7512     0.0000     0.0000     0.0000     0.0000 </r>
        <r>    -8.7063     0.0000     0.0000     0.0000     0.0000 </r>
        <r>    -8.6615     0.0000     0.0000     0.0000     0.0000 </r>
        <r>    -8.6166     0.0000     0.0000     0.0000     0.0000 </r>
        <r>    -8.5717     0.0000     0.0000     0.0000     0.0000 </r>
        <r>    -8.5268     0.0000     0.0000     0.0000     0.0000 </r>
        <r>    -8.4819     0.0000     0.0000     0.0000     0.0000 </r>
        <r>    -8.4370     0.0000     0.0000     0.0000     0.0000 </r>
        <r>    -8.3921     0.0000     0.0000     0.0000     0.0000 </r>
        <r>    -8.3472     0.0061     0.0004     0.0002     0.0000 </r>
        <r>    -8.3024     2.5076     0.1719     0.0652     0.0003 </r>
        <r>    -8.2575     0.0000     0.0000     0.0000     0.0000 </r>
        <r>    -8.2126     0.0000     0.0000     0.0000     0.0000 </r>
        <r>    -8.1677     0.0000     0.0000     0.0000     0.0000 </r>
        <r>    -8.1228     0.0000     0.0000     0.0000     0.0000 </r>
        <r>    -8.0779     0.0000     0.0000     0.0000     0.0000 </r>
        <r>    -8.0330     0.0000     0.0000     0.0000     0.0000 </r>
        <r>    -7.9882     0.0000     0.0000     0.0000     0.0000 </r>
        <r>    -7.9433     0.0000     0.0000     0.0000     0.0000 </r>
        <r>    -7.8984     0.0000     0.0000     0.0000     0.0000 </r>
        <r>    -7.8535     0.0000     0.0000     0.0000     0.0000 </r>
        <r>    -7.8086     0.0000     0.0000     0.0000     0.0000 </r>
        <r>    -7.7637     0.0000     0.0000     0.0000     0.0000 </r>
        <r>    -7.7188     0.0000     0.0000     0.0000     0.0000 </r>
        <r>    -7.6739     0.0000     0.0000     0.0000     0.0000 </r>
        <r>    -7.6291     0.0000     0.0000     0.0000     0.0000 </r>
        <r>    -7.5842     0.0000     0.0000     0.0000     0.0000 </r>
        <r>    -7.5393     0.0000     0.0000     0.0000     0.0000 </r>
        <r>    -7.4944     0.0000     0.0000     0.0000     0.0000 </r>
        <r>    -7.4495     0.0000     0.0000     0.0000     0.0000 </r>
        <r>    -7.4046     0.0000     0.0000     0.0000     0.0000 </r>
        <r>    -7.3597     0.0000     0.0000     0.0000     0.0000 </r>
        <r>    -7.3149     0.0000     0.0000     0.0000     0.0000 </r>
        <r>    -7.2700     0.0000     0.0000     0.0000     0.0000 </r>
        <r>    -7.2251     0.0000     0.0000     0.0000     0.0000 </r>
        <r>    -7.1802     0.0000     0.0000     0.0000     0.0000 </r>
        <r>    -7.1353     0.0000     0.0000     0.0000     0.0000 </r>
        <r>    -7.0904     0.0000     0.0000     0.0000     0.0000 </r>
        <r>    -7.0455     0.0000     0.0000     0.0000     0.0000 </r>
        <r>    -7.0006     0.0000     0.0000     0.0000     0.0000 </r>
        <r>    -6.9558     0.0000     0.0000     0.0000     0.0000 </r>
        <r>    -6.9109     0.0000     0.0000     0.0000     0.0000 </r>
        <r>    -6.8660     0.0000     0.0000     0.0000     0.0000 </r>
        <r>    -6.8211     0.0000     0.0000     0.0000     0.0000 </r>
        <r>    -6.7762     0.0000     0.0000     0.0000     0.0000 </r>
        <r>    -6.7313     0.0000     0.0000     0.0000     0.0000 </r>
        <r>    -6.6864     0.0000     0.2679     0.1112     0.0001 </r>
        <r>    -6.6415     0.0000     0.0000     0.0000     0.0000 </r>
        <r>    -6.5967     0.0000     0.0000     0.0000     0.0000 </r>
        <r>    -6.5518     0.0000     0.0000     0.0000     0.0000 </r>
        <r>    -6.5069     0.0000     0.0000     0.0000     0.0000 </r>
        <r>    -6.4620     0.0000     0.0000     0.0000     0.0000 </r>
        <r>    -6.4171     0.0000     0.0000     0.0000     0.0000 </r>
        <r>    -6.3722     0.0000     0.0000     0.0000     0.0000 </r>
        <r>    -6.3273     0.0000     0.0000     0.0000     0.0000 </r>
        <r>    -6.2825     0.0000     0.0000     0.0000     0.0000 </r>
        <r>    -6.2376     0.0000     0.0000     0.0000     0.0000 </r>
        <r>    -6.1927     0.0000     0.0000     0.0000     0.0000 </r>
        <r>    -6.1478     0.0000     0.0000     0.0000     0.0000 </r>
        <r>    -6.1029     0.0000     0.0000     0.0000     0.0000 </r>
        <r>    -6.0580     0.0000     0.0000     0.0000     0.0000 </r>
        <r>    -6.0131     0.0000     0.0000     0.0000     0.0000 </r>
        <r>    -5.9682     0.0000     0.0000     0.0000     0.0000 </r>
        <r>    -5.9234     0.0000     0.0000     0.0000     0.0000 </r>
        <r>    -5.8785     0.0000     0.0000     0.0000     0.0000 </r>
        <r>    -5.8336     0.0000     0.0000     0.0000     0.0000 </r>
        <r>    -5.7887     0.0000     0.0000     0.0000     0.0000 </r>
        <r>    -5.7438     0.0000     0.0000     0.0000     0.0000 </r>
        <r>    -5.6989     0.0000     0.0000     0.0000     0.0000 </r>
        <r>    -5.6540     0.0000     0.0000     0.0000     0.0000 </r>
        <r>    -5.6092     0.0000     0.0000     0.0000     0.0000 </r>
        <r>    -5.5643     0.0000     0.0000     0.0000     0.0000 </r>
        <r>    -5.5194     0.0000     0.0000     0.0000     0.0000 </r>
        <r>    -5.4745     0.0000     0.0000     0.0000     0.0000 </r>
        <r>    -5.4296     0.0000     0.0000     0.0000     0.0000 </r>
        <r>    -5.3847     0.0000     0.0000     0.0000     0.0000 </r>
        <r>    -5.3398     0.0054     0.3292     0.0711     0.0022 </r>
        <r>    -5.2949     0.0000     0.0000     0.0000     0.0000 </r>
        <r>    -5.2501     0.0000     0.0000     0.0000     0.0000 </r>
        <r>    -5.2052     1.6412     0.0449     0.0197     0.0006 </r>
        <r>    -5.1603     0.0000     0.0000     0.0000     0.0000 </r>
        <r>    -5.1154     0.0000     0.0000     0.0000     0.0000 </r>
        <r>    -5.0705     0.0000     0.0000     0.0000     0.0000 </r>
        <r>    -5.0256     0.0000     0.0000     0.0000     0.0000 </r>
        <r>    -4.9807     0.0000     0.0000     0.0000     0.0000 </r>
        <r>    -4.9358     0.0000     0.0000     0.0000     0.0000 </r>
        <r>    -4.8910     0.0000     0.0000     0.0000     0.0000 </r>
        <r>    -4.8461     0.0000     0.0000     0.0000     0.0000 </r>
        <r>    -4.8012     0.0000     0.0000     0.0000     0.0000 </r>
        <r>    -4.7563     0.0000     0.0000     0.0000     0.0000 </r>
        <r>    -4.7114     0.0009     0.0005     0.0835     0.0032 </r>
        <r>    -4.6665     1.8634     0.0173     0.0756     0.0037 </r>
        <r>    -4.6216     0.0000     0.0000     0.0000     0.0000 </r>
        <r>    -4.5768     0.0000     0.0000     0.0000     0.0000 </r>
        <r>    -4.5319     0.0000     0.0000     0.0000     0.0000 </r>
        <r>    -4.4870     0.0000     0.0000     0.0000     0.0000 </r>
        <r>    -4.4421     0.0000     0.0000     0.0000     0.0000 </r>
        <r>    -4.3972     0.0000     0.0000     0.0000     0.0000 </r>
        <r>    -4.3523     0.0000     0.0000     0.0000     0.0000 </r>
        <r>    -4.3074     0.0000     0.0000     0.0000     0.0000 </r>
        <r>    -4.2625     0.0000     0.0000     0.0000     0.0000 </r>
        <r>    -4.2177     0.0000     0.0000     0.0000     0.0000 </r>
        <r>    -4.1728     0.0000     0.0000     0.0000     0.0000 </r>
        <r>    -4.1279     0.0000     0.0000     0.0000     0.0000 </r>
        <r>    -4.0830     0.0000     0.0000     0.0000     0.0000 </r>
        <r>    -4.0381     0.0000     0.0000     0.0000     0.0000 </r>
        <r>    -3.9932     0.0000     0.0000     0.0000     0.0000 </r>
        <r>    -3.9483     0.0000     0.0000     0.0000     0.0000 </r>
        <r>    -3.9035     0.0000     0.0000     0.0000     0.0000 </r>
        <r>    -3.8586     0.0000     0.0000     0.0000     0.0000 </r>
        <r>    -3.8137     0.0000     0.0000     0.0000     0.0000 </r>
        <r>    -3.7688     0.0000     0.0000     0.0000     0.0000 </r>
        <r>    -3.7239     0.0000     0.0000     0.0000     0.0000 </r>
        <r>    -3.6790     0.0000     0.0000     0.0000     0.0000 </r>
        <r>    -3.6341     0.0000     0.0000     0.0000     0.0000 </r>
        <r>    -3.5892     0.0000     0.0000     0.0000     0.0000 </r>
        <r>    -3.5444     0.0000     0.0000     0.0000     0.0000 </r>
        <r>    -3.4995     0.0000     0.0000     0.0000     0.0000 </r>
        <r>    -3.4546     0.0000     0.0000     0.0000     0.0000 </r>
        <r>    -3.4097     0.0000     0.0000     0.0000     0.0000 </r>
        <r>    -3.3648     0.0000     0.0000     0.0000     0.0000 </r>
        <r>    -3.3199     0.0000     0.0000     0.0000     0.0000 </r>
        <r>    -3.2750     0.0000     0.0000     0.0000     0.0000 </r>
        <r>    -3.2302     0.0000     0.0000     0.0000     0.0000 </r>
        <r>    -3.1853     0.0000     0.0000     0.0000     0.0000 </r>
        <r>    -3.1404     0.0000     0.0000     0.0000     0.0000 </r>
        <r>    -3.0955     0.0000     0.0000     0.0000     0.0000 </r>
        <r>    -3.0506     0.0000     0.0000     0.0000     0.0000 </r>
        <r>    -3.0057     0.0000     0.0000     0.0000     0.0000 </r>
        <r>    -2.9608     0.0000     0.0000     0.0000     0.0000 </r>
        <r>    -2.9159     0.0000     0.0000     0.0000     0.0000 </r>
        <r>    -2.8711     0.0000     0.0000     0.0000     0.0000 </r>
        <r>    -2.8262     0.0000     0.0000     0.0000     0.0000 </r>
        <r>    -2.7813     0.0000     0.0000     0.0000     0.0000 </r>
        <r>    -2.7364     0.0000     0.0000     0.0000     0.0000 </r>
        <r>    -2.6915     0.0000     0.0000     0.0000     0.0000 </r>
        <r>    -2.6466     0.0000     0.0000     0.0000     0.0000 </r>
        <r>    -2.6017     0.0000     0.0000     0.0000     0.0000 </r>
        <r>    -2.5568     0.0000     0.0000     0.0000     0.0000 </r>
        <r>    -2.5120     0.0000     0.0000     0.0000     0.0000 </r>
        <r>    -2.4671     0.0000     0.0000     0.0000     0.0000 </r>
        <r>    -2.4222     0.0000     0.0000     0.0000     0.0000 </r>
        <r>    -2.3773     0.0000     0.0000     0.0000     0.0000 </r>
        <r>    -2.3324     0.0000     0.0000     0.0000     0.0000 </r>
        <r>    -2.2875     0.0000     0.9372     0.0049     0.0045 </r>
        <r>    -2.2426     0.0000     0.0000     0.0000     0.0000 </r>
        <r>    -2.1978     0.0000     0.0000     0.0000     0.0000 </r>
        <r>    -2.1529     0.0000     0.0000     0.0000     0.0000 </r>
        <r>    -2.1080     0.0000     0.0000     0.0000     0.0000 </r>
        <r>    -2.0631     0.2455     2.8077     0.0931     0.0043 </r>
        <r>    -2.0182     0.0000     0.0000     0.0000     0.0000 </r>
        <r>    -1.9733     0.0000     0.0000     0.0000     0.0000 </r>
        <r>    -1.9284     0.0000     0.0000     0.0000     0.0000 </r>
        <r>    -1.8835     0.0000     0.0000     0.0000     0.0000 </r>
        <r>    -1.8387     0.0606     1.1832     0.0457     0.0024 </r>
        <r>    -1.7938     0.0538     0.1623     0.0614     0.0036 </r>
        <r>    -1.7489     0.0000     0.0000     0.0000     0.0000 </r>
        <r>    -1.7040     0.0000     0.0000     0.0000     0.0000 </r>
        <r>    -1.6591     0.0000     0.0000     0.0000     0.0000 </r>
        <r>    -1.6142     0.0000     0.0000     0.0000     0.0000 </r>
        <r>    -1.5693     0.0000     0.0000     0.0000     0.0000 </r>
        <r>    -1.5245     0.0233     1.1056     0.0138     0.0053 </r>
        <r>    -1.4796     0.0000     0.0000     0.0000     0.0000 </r>
        <r>    -1.4347     0.0000     0.0000     0.0000     0.0000 </r>
        <r>    -1.3898     0.0000     0.0000     0.0000     0.0000 </r>
        <r>    -1.3449     0.0000     0.0000     0.0000     0.0000 </r>
        <r>    -1.3000     0.0000     0.0000     0.0000     0.0000 </r>
        <r>    -1.2551     0.0000     0.0000     0.0000     0.0000 </r>
        <r>    -1.2102     0.0000     0.0000     0.0000     0.0000 </r>
        <r>    -1.1654     0.0000     0.0573     0.0056     0.0047 </r>
        <r>    -1.1205     0.0000     0.0000     0.0000     0.0000 </r>
        <r>    -1.0756     0.0000     0.0000     0.0000     0.0000 </r>
        <r>    -1.0307     0.0000     0.0000     0.0000     0.0000 </r>
        <r>    -0.9858     0.0000     0.0000     0.0000     0.0000 </r>
        <r>    -0.9409     0.0000     0.0000     0.0000     0.0000 </r>
        <r>    -0.8960     0.0000     0.0000     0.0000     0.0000 </r>
        <r>    -0.8511     0.0000     0.0000     0.0000     0.0000 </r>
        <r>    -0.8063     0.0000     0.0000     0.0000     0.0000 </r>
        <r>    -0.7614     0.0000     0.0000     0.0000     0.0000 </r>
        <r>    -0.7165     0.0000     0.0000     0.0000     0.0000 </r>
        <r>    -0.6716     0.0000     0.0000     0.0000     0.0000 </r>
        <r>    -0.6267     0.6757     0.1325     0.0462     0.0001 </r>
        <r>    -0.5818     0.0000     0.0000     0.0000     0.0000 </r>
        <r>    -0.5369     0.0000     0.0000     0.0000     0.0000 </r>
        <r>    -0.4921     0.0000     0.0000     0.0000     0.0000 </r>
        <r>    -0.4472     0.0000     0.0000     0.0000     0.0000 </r>
        <r>    -0.4023     0.0000     0.0000     0.0000     0.0000 </r>
        <r>    -0.3574     0.0000     0.0000     0.0000     0.0000 </r>
        <r>    -0.3125     0.0000     0.0000     0.0000     0.0000 </r>
        <r>    -0.2676     0.0000     0.0000     0.0000     0.0000 </r>
        <r>    -0.2227     0.0000     0.0004     0.1083     0.0005 </r>
        <r>    -0.1778     0.0000     0.0000     0.0000     0.0000 </r>
        <r>    -0.1330     0.0000     0.0000     0.0000     0.0000 </r>
        <r>    -0.0881     0.0000     0.0000     0.0000     0.0000 </r>
        <r>    -0.0432     0.0000     0.0000     0.0000     0.0000 </r>
        <r>     0.0017     0.0000     0.0000     0.0000     0.0000 </r>
        <r>     0.0466     0.1251     0.2139     0.0437     0.0053 </r>
        <r>     0.0915     0.0000     0.0000     0.0000     0.0000 </r>
        <r>     0.1364     0.0000     0.0000     0.0000     0.0000 </r>
        <r>     0.1812     0.0000     0.0000     0.0000     0.0000 </r>
        <r>     0.2261     0.0000     0.0000     0.0000     0.0000 </r>
        <r>     0.2710     0.0000     0.0000     0.0000     0.0000 </r>
        <r>     0.3159     0.0000     0.0000     0.0000     0.0000 </r>
        <r>     0.3608     0.0000     0.0000     0.0000     0.0000 </r>
        <r>     0.4057     0.0000     0.0000     0.0000     0.0000 </r>
        <r>     0.4506     0.0000     0.0000     0.0000     0.0000 </r>
        <r>     0.4955     0.0000     0.0000     0.0000     0.0000 </r>
        <r>     0.5403     0.0000     0.0000     0.0000     0.0000 </r>
        <r>     0.5852     0.0000     0.0000     0.0000     0.0000 </r>
        <r>     0.6301     0.0000     0.0000     0.0000     0.0000 </r>
       </set>
      </set>
     </set>
    </array>
   </partial>
  </dos>
  <projected>
   <eigenvalues>
    <array>
     <dimension dim="1">band</dimension>
     <dimension dim="2">kpoint</dimension>
     <dimension dim="3">spin</dimension>
     <field>eigene</field>
     <field>occ</field>
     <set>
      <set comment="spin 1">
       <set comment="kpoint 1">
        <r>  -12.2238    1.0000 </r>
        <r>  -12.2227    1.0000 </r>
        <r>  -12.1069    1.0000 </r>
        <r>  -12.0389    1.0000 </r>
        <r>  -12.0175    1.0000 </r>
        <r>  -12.0065    1.0000 </r>
        <r>  -11.9876    1.0000 </r>
        <r>  -11.9033    1.0000 </r>
        <r>  -11.8850    1.0000 </r>
        <r>  -11.8630    1.0000 </r>
        <r>  -11.8543    1.0000 </r>
        <r>  -11.7964    1.0000 </r>
        <r>  -11.7510    1.0000 </r>
        <r>  -11.7425    1.0000 </r>
        <r>  -11.7121    1.0000 </r>
        <r>  -11.7102    1.0000 </r>
        <r>  -11.6787    1.0000 </r>
        <r>  -11.6683    1.0000 </r>
        <r>  -11.6507    1.0000 </r>
        <r>  -11.6449    1.0000 </r>
        <r>  -11.6444    1.0000 </r>
        <r>  -11.6273    1.0000 </r>
        <r>  -11.6265    1.0000 </r>
        <r>  -11.6156    1.0000 </r>
        <r>  -11.6021    1.0000 </r>
        <r>  -11.5931    1.0000 </r>
        <r>  -11.5703    1.0000 </r>
        <r>  -11.5481    1.0000 </r>
        <r>  -11.5374    1.0000 </r>
        <r>  -11.5065    1.0000 </r>
        <r>   -8.3373    1.0000 </r>
        <r>   -6.6895    1.0000 </r>
        <r>   -5.3544    1.0000 </r>
        <r>   -5.2038    1.0000 </r>
        <r>   -4.7147    1.0000 </r>
        <r>   -4.6936    1.0000 </r>
        <r>   -2.2945    0.0000 </r>
        <r>   -2.0875    0.0000 </r>
        <r>   -2.0830    0.0000 </r>
        <r>   -1.8538    0.0000 </r>
        <r>   -1.8329    0.0000 </r>
        <r>   -1.5348    0.0000 </r>
        <r>   -1.1676    0.0000 </r>
        <r>   -0.6437    0.0000 </r>
        <r>   -0.2540    0.0000 </r>
        <r>    0.0180    0.0000 </r>
       </set>
      </set>
      <set comment="spin 2">
       <set comment="kpoint 1">
        <r>  -12.2238    1.0000 </r>
        <r>  -12.2227    1.0000 </r>
        <r>  -12.1069    1.0000 </r>
        <r>  -12.0389    1.0000 </r>
        <r>  -12.0175    1.0000 </r>
        <r>  -12.0065    1.0000 </r>
        <r>  -11.9876    1.0000 </r>
        <r>  -11.9033    1.0000 </r>
        <r>  -11.8850    1.0000 </r>
        <r>  -11.8630    1.0000 </r>
        <r>  -11.8543    1.0000 </r>
        <r>  -11.7964    1.0000 </r>
        <r>  -11.7510    1.0000 </r>
        <r>  -11.7425    1.0000 </r>
        <r>  -11.7121    1.0000 </r>
        <r>  -11.7102    1.0000 </r>
        <r>  -11.6787    1.0000 </r>
        <r>  -11.6683    1.0000 </r>
        <r>  -11.6507    1.0000 </r>
        <r>  -11.6449    1.0000 </r>
        <r>  -11.6444    1.0000 </r>
        <r>  -11.6273    1.0000 </r>
        <r>  -11.6265    1.0000 </r>
        <r>  -11.6156    1.0000 </r>
        <r>  -11.6021    1.0000 </r>
        <r>  -11.5931    1.0000 </r>
        <r>  -11.5703    1.0000 </r>
        <r>  -11.5481    1.0000 </r>
        <r>  -11.5374    1.0000 </r>
        <r>  -11.5065    1.0000 </r>
        <r>   -8.3373    1.0000 </r>
        <r>   -6.6895    1.0000 </r>
        <r>   -5.3544    1.0000 </r>
        <r>   -5.2038    1.0000 </r>
        <r>   -4.7147    1.0000 </r>
        <r>   -4.6936    1.0000 </r>
        <r>   -2.2945    0.0000 </r>
        <r>   -2.0875    0.0000 </r>
        <r>   -2.0830    0.0000 </r>
        <r>   -1.8538    0.0000 </r>
        <r>   -1.8329    0.0000 </r>
        <r>   -1.5348    0.0000 </r>
        <r>   -1.1676    0.0000 </r>
        <r>   -0.6437    0.0000 </r>
        <r>   -0.2540    0.0000 </r>
        <r>    0.0180    0.0000 </r>
       </set>
      </set>
     </set>
    </array>
   </eigenvalues>
   <array>
    <dimension dim="1">ion</dimension>
    <dimension dim="2">band</dimension>
    <dimension dim="3">kpoint</dimension>
    <dimension dim="4">spin</dimension>
    <field>  s  </field>
    <field>  p  </field>
    <field>  d  </field>
    <field>  f  </field>
    <set>
     <set comment="spin1">
      <set comment="kpoint 1">
       <set comment="band 1">
        <r>  0.0019  0.0011  0.4397  0.0001 </r>
        <r>  0.0000  0.0000  0.0012  0.0000 </r>
        <r>  0.0001  0.0001  0.0245  0.0000 </r>
        <r>  0.0002  0.0001  0.0350  0.0000 </r>
        <r>  0.0000  0.0000  0.0037  0.0000 </r>
        <r>  0.0019  0.0011  0.4357  0.0001 </r>
       </set>
       <set comment="band 2">
        <r>  0.0002  0.0006  0.3647  0.0000 </r>
        <r>  0.0006  0.0004  0.0616  0.0000 </r>
        <r>  0.0006  0.0003  0.0407  0.0000 </r>
        <r>  0.0006  0.0003  0.0404  0.0000 </r>
        <r>  0.0007  0.0004  0.0697  0.0000 </r>
        <r>  0.0002  0.0005  0.3552  0.0000 </r>
       </set>
       <set comment="band 3">
        <r>  0.0000  0.0002  0.4079  0.0000 </r>
        <r>  0.0002  0.0001  0.0177  0.0000 </r>
        <r>  0.0002  0.0001  0.0181  0.0000 </r>
        <r>  0.0004  0.0002  0.0489  0.0000 </r>
        <r>  0.0004  0.0002  0.0481  0.0000 </r>
        <r>  0.0000  0.0002  0.4036  0.0000 </r>
       </set>
       <set comment="band 4">
        <r>  0.0004  0.0001  0.3253  0.0000 </r>
        <r>  0.0006  0.0003  0.0847  0.0000 </r>
        <r>  0.0006  0.0003  0.0880  0.0000 </r>
        <r>  0.0003  0.0002  0.1018  0.0000 </r>
        <r>  0.0003  0.0002  0.0967  0.0000 </r>
        <r>  0.0002  0.0000  0.2445  0.0000 </r>
       </set>
       <set comment="band 5">
        <r>  0.0000  0.0000  0.5601  0.0000 </r>
        <r>  0.0000  0.0000  0.0381  0.0000 </r>
        <r>  0.0000  0.0000  0.0347  0.0000 </r>
        <r>  0.0001  0.0001  0.1002  0.0000 </r>
        <r>  0.0001  0.0001  0.0922  0.0000 </r>
        <r>  0.0000  0.0000  0.1282  0.0000 </r>
       </set>
       <set comment="band 6">
        <r>  0.0000  0.0000  0.1796  0.0000 </r>
        <r>  0.0003  0.0001  0.0382  0.0000 </r>
        <r>  0.0004  0.0001  0.0429  0.0000 </r>
        <r>  0.0005  0.0002  0.0342  0.0000 </r>
        <r>  0.0005  0.0002  0.0431  0.0000 </r>
        <r>  0.0000  0.0000  0.6130  0.0000 </r>
       </set>
       <set comment="band 7">
        <r>  0.0009  0.0001  0.2420  0.0000 </r>
        <r>  0.0000  0.0001  0.1062  0.0000 </r>
        <r>  0.0000  0.0001  0.1159  0.0000 </r>
        <r>  0.0000  0.0001  0.0805  0.0000 </r>
        <r>  0.0000  0.0001  0.0740  0.0000 </r>
        <r>  0.0009  0.0001  0.3287  0.0000 </r>
       </set>
       <set comment="band 8">
        <r>  0.0000  0.0001  0.2688  0.0000 </r>
        <r>  0.0000  0.0001  0.1339  0.0000 </r>
        <r>  0.0000  0.0001  0.1302  0.0000 </r>
        <r>  0.0000  0.0000  0.0663  0.0000 </r>
        <r>  0.0000  0.0000  0.0682  0.0000 </r>
        <r>  0.0000  0.0001  0.2928  0.0000 </r>
       </set>
       <set comment="band 9">
        <r>  0.0000  0.0000  0.0095  0.0000 </r>
        <r>  0.0003  0.0002  0.1649  0.0000 </r>
        <r>  0.0003  0.0002  0.2626  0.0000 </r>
        <r>  0.0002  0.0002  0.3087  0.0000 </r>
        <r>  0.0002  0.0001  0.2014  0.0000 </r>
        <r>  0.0000  0.0000  0.0061  0.0000 </r>
       </set>
       <set comment="band 10">
        <r>  0.0007  0.0001  0.0311  0.0000 </r>
        <r>  0.0001  0.0001  0.2773  0.0000 </r>
        <r>  0.0000  0.0001  0.1790  0.0000 </r>
        <r>  0.0001  0.0001  0.1622  0.0000 </r>
        <r>  0.0001  0.0001  0.2699  0.0000 </r>
        <r>  0.0007  0.0001  0.0334  0.0000 </r>
       </set>
       <set comment="band 11">
        <r>  0.0006  0.0001  0.3038  0.0000 </r>
        <r>  0.0000  0.0000  0.0013  0.0000 </r>
        <r>  0.0000  0.0000  0.0012  0.0000 </r>
        <r>  0.0000  0.0000  0.1703  0.0000 </r>
        <r>  0.0000  0.0000  0.1704  0.0000 </r>
        <r>  0.0005  0.0001  0.3129  0.0000 </r>
       </set>
       <set comment="band 12">
        <r>  0.0006  0.0001  0.3619  0.0000 </r>
        <r>  0.0000  0.0000  0.0972  0.0000 </r>
        <r>  0.0000  0.0000  0.1003  0.0000 </r>
        <r>  0.0000  0.0000  0.0215  0.0000 </r>
        <r>  0.0000  0.0000  0.0189  0.0000 </r>
        <r>  0.0006  0.0001  0.3622  0.0000 </r>
       </set>
       <set comment="band 13">
        <r>  0.0009  0.0003  0.1033  0.0000 </r>
        <r>  0.0001  0.0000  0.1788  0.0000 </r>
        <r>  0.0000  0.0000  0.1859  0.0000 </r>
        <r>  0.0001  0.0000  0.1907  0.0000 </r>
        <r>  0.0001  0.0000  0.1812  0.0000 </r>
        <r>  0.0009  0.0003  0.1171  0.0000 </r>
       </set>
       <set comment="band 14">
        <r>  0.0000  0.0000  0.0506  0.0000 </r>
        <r>  0.0000  0.0000  0.1684  0.0000 </r>
        <r>  0.0000  0.0000  0.2057  0.0000 </r>
        <r>  0.0000  0.0000  0.2657  0.0000 </r>
        <r>  0.0000  0.0000  0.2177  0.0000 </r>
        <r>  0.0000  0.0000  0.0528  0.0000 </r>
       </set>
       <set comment="band 15">
        <r>  0.0000  0.0000  0.0952  0.0000 </r>
        <r>  0.0000  0.0000  0.2027  0.0000 </r>
        <r>  0.0000  0.0000  0.1621  0.0000 </r>
        <r>  0.0000  0.0000  0.1800  0.0000 </r>
        <r>  0.0000  0.0000  0.2325  0.0000 </r>
        <r>  0.0000  0.0000  0.0927  0.0000 </r>
       </set>
       <set comment="band 16">
        <r>  0.0000  0.0001  0.0200  0.0000 </r>
        <r>  0.0000  0.0000  0.2133  0.0000 </r>
        <r>  0.0000  0.0000  0.2382  0.0000 </r>
        <r>  0.0000  0.0000  0.2614  0.0000 </r>
        <r>  0.0000  0.0000  0.2110  0.0000 </r>
        <r>  0.0000  0.0001  0.0181  0.0000 </r>
       </set>
       <set comment="band 17">
        <r>  0.0000  0.0000  0.0629  0.0000 </r>
        <r>  0.0000  0.0000  0.0651  0.0000 </r>
        <r>  0.0000  0.0000  0.0330  0.0000 </r>
        <r>  0.0000  0.0000  0.3694  0.0000 </r>
        <r>  0.0000  0.0000  0.3729  0.0000 </r>
        <r>  0.0000  0.0000  0.0629  0.0000 </r>
       </set>
       <set comment="band 18">
        <r>  0.0000  0.0000  0.0090  0.0000 </r>
        <r>  0.0000  0.0000  0.1533  0.0000 </r>
        <r>  0.0000  0.0000  0.2499  0.0000 </r>
        <r>  0.0000  0.0000  0.2697  0.0000 </r>
        <r>  0.0000  0.0000  0.2761  0.0000 </r>
        <r>  0.0000  0.0000  0.0078  0.0000 </r>
       </set>
       <set comment="band 19">
        <r>  0.0000  0.0000  0.0363  0.0000 </r>
        <r>  0.0000  0.0000  0.4094  0.0000 </r>
        <r>  0.0000  0.0000  0.3309  0.0000 </r>
        <r>  0.0000  0.0000  0.0615  0.0000 </r>
        <r>  0.0000  0.0000  0.1007  0.0000 </r>
        <r>  0.0000  0.0000  0.0288  0.0000 </r>
       </set>
       <set comment="band 20">
        <r>  0.0000  0.0002  0.0982  0.0000 </r>
        <r>  0.0000  0.0000  0.2825  0.0000 </r>
        <r>  0.0000  0.0000  0.0669  0.0000 </r>
        <r>  0.0000  0.0000  0.3218  0.0000 </r>
        <r>  0.0000  0.0000  0.0886  0.0000 </r>
        <r>  0.0000  0.0002  0.1096  0.0000 </r>
       </set>
       <set comment="band 21">
        <r>  0.0000  0.0003  0.1266  0.0000 </r>
        <r>  0.0000  0.0000  0.0655  0.0000 </r>
        <r>  0.0000  0.0000  0.3142  0.0000 </r>
        <r>  0.0000  0.0000  0.0521  0.0000 </r>
        <r>  0.0000  0.0000  0.2461  0.0000 </r>
        <r>  0.0000  0.0004  0.1629  0.0000 </r>
       </set>
       <set comment="band 22">
        <r>  0.0000  0.0001  0.1209  0.0000 </r>
        <r>  0.0001  0.0000  0.2272  0.0000 </r>
        <r>  0.0001  0.0000  0.2045  0.0000 </r>
        <r>  0.0001  0.0000  0.1723  0.0000 </r>
        <r>  0.0001  0.0000  0.1731  0.0000 </r>
        <r>  0.0000  0.0000  0.0713  0.0000 </r>
       </set>
       <set comment="band 23">
        <r>  0.0000  0.0000  0.0058  0.0000 </r>
        <r>  0.0000  0.0000  0.2474  0.0000 </r>
        <r>  0.0000  0.0000  0.2777  0.0000 </r>
        <r>  0.0000  0.0000  0.2157  0.0000 </r>
        <r>  0.0000  0.0000  0.2159  0.0000 </r>
        <r>  0.0000  0.0000  0.0068  0.0000 </r>
       </set>
       <set comment="band 24">
        <r>  0.0000  0.0001  0.0360  0.0000 </r>
        <r>  0.0000  0.0000  0.2817  0.0000 </r>
        <r>  0.0000  0.0000  0.2284  0.0000 </r>
        <r>  0.0000  0.0000  0.1759  0.0000 </r>
        <r>  0.0000  0.0000  0.2069  0.0000 </r>
        <r>  0.0000  0.0001  0.0413  0.0000 </r>
       </set>
       <set comment="band 25">
        <r>  0.0000  0.0000  0.0310  0.0000 </r>
        <r>  0.0000  0.0000  0.2010  0.0000 </r>
        <r>  0.0000  0.0000  0.3235  0.0000 </r>
        <r>  0.0001  0.0000  0.2351  0.0000 </r>
        <r>  0.0000  0.0000  0.1594  0.0000 </r>
        <r>  0.0000  0.0000  0.0198  0.0000 </r>
       </set>
       <set comment="band 26">
        <r>  0.0000  0.0000  0.0165  0.0000 </r>
        <r>  0.0001  0.0000  0.3196  0.0000 </r>
        <r>  0.0001  0.0000  0.1979  0.0000 </r>
        <r>  0.0000  0.0000  0.1662  0.0000 </r>
        <r>  0.0001  0.0000  0.2500  0.0000 </r>
        <r>  0.0000  0.0000  0.0196  0.0000 </r>
       </set>
       <set comment="band 27">
        <r>  0.0000  0.0001  0.2726  0.0001 </r>
        <r>  0.0000  0.0000  0.1454  0.0000 </r>
        <r>  0.0000  0.0000  0.1335  0.0000 </r>
        <r>  0.0000  0.0000  0.0774  0.0000 </r>
        <r>  0.0000  0.0000  0.0806  0.0000 </r>
        <r>  0.0000  0.0001  0.2661  0.0001 </r>
       </set>
       <set comment="band 28">
        <r>  0.0000  0.0000  0.1279  0.0000 </r>
        <r>  0.0000  0.0000  0.1614  0.0000 </r>
        <r>  0.0000  0.0000  0.1560  0.0000 </r>
        <r>  0.0000  0.0000  0.1901  0.0000 </r>
        <r>  0.0000  0.0000  0.2044  0.0000 </r>
        <r>  0.0000  0.0000  0.1358  0.0000 </r>
       </set>
       <set comment="band 29">
        <r>  0.0000  0.0001  0.0295  0.0000 </r>
        <r>  0.0001  0.0001  0.2237  0.0000 </r>
        <r>  0.0001  0.0001  0.2418  0.0000 </r>
        <r>  0.0001  0.0001  0.2320  0.0000 </r>
        <r>  0.0001  0.0001  0.2166  0.0000 </r>
        <r>  0.0000  0.0001  0.0265  0.0000 </r>
       </set>
       <set comment="band 30">
        <r>  0.0000  0.0000  0.0606  0.0000 </r>
        <r>  0.0000  0.0001  0.2382  0.0000 </r>
        <r>  0.0000  0.0001  0.2188  0.0000 </r>
        <r>  0.0000  0.0001  0.1992  0.0000 </r>
        <r>  0.0000  0.0001  0.2160  0.0000 </r>
        <r>  0.0000  0.0000  0.0417  0.0000 </r>
       </set>
       <set comment="band 31">
        <r>  0.1151  0.0077  0.0028  0.0000 </r>
        <r>  0.0398  0.0048  0.0043  0.0000 </r>
        <r>  0.0403  0.0048  0.0044  0.0000 </r>
        <r>  0.0471  0.0054  0.0045  0.0000 </r>
        <r>  0.0468  0.0053  0.0044  0.0000 </r>
        <r>  0.1128  0.0077  0.0029  0.0000 </r>
       </set>
       <set comment="band 32">
        <r>  0.0000  0.0156  0.0062  0.0000 </r>
        <r>  0.1073  0.0038  0.0015  0.0000 </r>
        <r>  0.1074  0.0038  0.0015  0.0000 </r>
        <r>  0.0914  0.0040  0.0020  0.0000 </r>
        <r>  0.0914  0.0040  0.0020  0.0000 </r>
        <r>  0.0000  0.0149  0.0062  0.0000 </r>
       </set>
       <set comment="band 33">
        <r>  0.0043  0.0151  0.0032  0.0001 </r>
        <r>  0.0871  0.0026  0.0014  0.0000 </r>
        <r>  0.0858  0.0026  0.0014  0.0000 </r>
        <r>  0.1058  0.0030  0.0012  0.0000 </r>
        <r>  0.1074  0.0030  0.0012  0.0000 </r>
        <r>  0.0002  0.0148  0.0032  0.0001 </r>
       </set>
       <set comment="band 34">
        <r>  0.1933  0.0064  0.0030  0.0001 </r>
        <r>  0.0000  0.0057  0.0030  0.0001 </r>
        <r>  0.0003  0.0057  0.0030  0.0001 </r>
        <r>  0.0009  0.0065  0.0034  0.0001 </r>
        <r>  0.0002  0.0065  0.0034  0.0001 </r>
        <r>  0.2122  0.0058  0.0026  0.0001 </r>
       </set>
       <set comment="band 35">
        <r>  0.0007  0.0000  0.0048  0.0002 </r>
        <r>  0.1180  0.0033  0.0006  0.0000 </r>
        <r>  0.0971  0.0035  0.0008  0.0000 </r>
        <r>  0.1404  0.0025  0.0004  0.0000 </r>
        <r>  0.1213  0.0023  0.0005  0.0000 </r>
        <r>  0.0001  0.0000  0.0045  0.0002 </r>
       </set>
       <set comment="band 36">
        <r>  0.0951  0.0006  0.0033  0.0002 </r>
        <r>  0.0754  0.0075  0.0024  0.0001 </r>
        <r>  0.0967  0.0075  0.0022  0.0001 </r>
        <r>  0.0408  0.0075  0.0029  0.0001 </r>
        <r>  0.0593  0.0076  0.0027  0.0001 </r>
        <r>  0.0836  0.0008  0.0034  0.0002 </r>
       </set>
       <set comment="band 37">
        <r>  0.0000  0.0429  0.0003  0.0002 </r>
        <r>  0.0000  0.0383  0.0020  0.0001 </r>
        <r>  0.0000  0.0385  0.0021  0.0001 </r>
        <r>  0.0000  0.0309  0.0020  0.0001 </r>
        <r>  0.0000  0.0308  0.0020  0.0001 </r>
        <r>  0.0000  0.0431  0.0002  0.0002 </r>
       </set>
       <set comment="band 38">
        <r>  0.0003  0.0433  0.0030  0.0001 </r>
        <r>  0.0093  0.0412  0.0009  0.0000 </r>
        <r>  0.0066  0.0510  0.0015  0.0001 </r>
        <r>  0.0061  0.0475  0.0015  0.0001 </r>
        <r>  0.0050  0.0272  0.0011  0.0001 </r>
        <r>  0.0004  0.0425  0.0030  0.0001 </r>
       </set>
       <set comment="band 39">
        <r>  0.0101  0.0832  0.0012  0.0000 </r>
        <r>  0.0004  0.0140  0.0018  0.0001 </r>
        <r>  0.0027  0.0029  0.0012  0.0001 </r>
        <r>  0.0000  0.0121  0.0014  0.0001 </r>
        <r>  0.0010  0.0318  0.0018  0.0001 </r>
        <r>  0.0107  0.0835  0.0012  0.0000 </r>
       </set>
       <set comment="band 40">
        <r>  0.0023  0.0539  0.0019  0.0001 </r>
        <r>  0.0050  0.0323  0.0011  0.0001 </r>
        <r>  0.0052  0.0329  0.0011  0.0001 </r>
        <r>  0.0146  0.0226  0.0004  0.0001 </r>
        <r>  0.0149  0.0234  0.0004  0.0001 </r>
        <r>  0.0026  0.0527  0.0019  0.0001 </r>
       </set>
       <set comment="band 41">
        <r>  0.0025  0.0065  0.0030  0.0002 </r>
        <r>  0.0073  0.0394  0.0003  0.0000 </r>
        <r>  0.0076  0.0407  0.0003  0.0000 </r>
        <r>  0.0003  0.0563  0.0009  0.0000 </r>
        <r>  0.0003  0.0560  0.0009  0.0000 </r>
        <r>  0.0025  0.0077  0.0029  0.0002 </r>
       </set>
       <set comment="band 42">
        <r>  0.0011  0.0490  0.0007  0.0002 </r>
        <r>  0.0000  0.0150  0.0013  0.0001 </r>
        <r>  0.0000  0.0150  0.0013  0.0001 </r>
        <r>  0.0000  0.0363  0.0012  0.0001 </r>
        <r>  0.0000  0.0365  0.0012  0.0001 </r>
        <r>  0.0010  0.0497  0.0006  0.0002 </r>
       </set>
       <set comment="band 43">
        <r>  0.0000  0.0036  0.0004  0.0003 </r>
        <r>  0.0008  0.0648  0.0006  0.0000 </r>
        <r>  0.0007  0.0648  0.0006  0.0000 </r>
        <r>  0.0040  0.0443  0.0013  0.0001 </r>
        <r>  0.0038  0.0445  0.0013  0.0001 </r>
        <r>  0.0000  0.0035  0.0003  0.0003 </r>
       </set>
       <set comment="band 44">
        <r>  0.0305  0.0073  0.0021  0.0000 </r>
        <r>  0.0000  0.0490  0.0007  0.0001 </r>
        <r>  0.0000  0.0491  0.0007  0.0001 </r>
        <r>  0.0000  0.0213  0.0011  0.0001 </r>
        <r>  0.0000  0.0215  0.0011  0.0001 </r>
        <r>  0.0303  0.0059  0.0021  0.0000 </r>
       </set>
       <set comment="band 45">
        <r>  0.0000  0.0000  0.0047  0.0000 </r>
        <r>  0.0000  0.0376  0.0008  0.0001 </r>
        <r>  0.0000  0.0365  0.0009  0.0001 </r>
        <r>  0.0000  0.0510  0.0005  0.0000 </r>
        <r>  0.0000  0.0499  0.0005  0.0000 </r>
        <r>  0.0000  0.0000  0.0049  0.0000 </r>
       </set>
       <set comment="band 46">
        <r>  0.0056  0.0094  0.0021  0.0002 </r>
        <r>  0.0027  0.0001  0.0009  0.0001 </r>
        <r>  0.0103  0.0118  0.0015  0.0001 </r>
        <r>  0.0006  0.0016  0.0008  0.0001 </r>
        <r>  0.0116  0.0098  0.0015  0.0001 </r>
        <r>  0.0056  0.0096  0.0020  0.0002 </r>
       </set>
      </set>
     </set>
     <set comment="spin2">
      <set comment="kpoint 1">
       <set comment="band 1">
        <r>  0.0019  0.0011  0.4397  0.0001 </r>
        <r>  0.0000  0.0000  0.0012  0.0000 </r>
        <r>  0.0001  0.0001  0.0245  0.0000 </r>
        <r>  0.0002  0.0001  0.0350  0.0000 </r>
        <r>  0.0000  0.0000  0.0037  0.0000 </r>
        <r>  0.0019  0.0011  0.4357  0.0001 </r>
       </set>
       <set comment="band 2">
        <r>  0.0002  0.0006  0.3647  0.0000 </r>
        <r>  0.0006  0.0004  0.0616  0.0000 </r>
        <r>  0.0006  0.0003  0.0407  0.0000 </r>
        <r>  0.0006  0.0003  0.0404  0.0000 </r>
        <r>  0.0007  0.0004  0.0697  0.0000 </r>
        <r>  0.0002  0.0005  0.3552  0.0000 </r>
       </set>
       <set comment="band 3">
        <r>  0.0000  0.0002  0.4079  0.0000 </r>
        <r>  0.0002  0.0001  0.0177  0.0000 </r>
        <r>  0.0002  0.0001  0.0181  0.0000 </r>
        <r>  0.0004  0.0002  0.0489  0.0000 </r>
        <r>  0.0004  0.0002  0.0481  0.0000 </r>
        <r>  0.0000  0.0002  0.4036  0.0000 </r>
       </set>
       <set comment="band 4">
        <r>  0.0004  0.0001  0.3253  0.0000 </r>
        <r>  0.0006  0.0003  0.0847  0.0000 </r>
        <r>  0.0006  0.0003  0.0880  0.0000 </r>
        <r>  0.0003  0.0002  0.1018  0.0000 </r>
        <r>  0.0003  0.0002  0.0967  0.0000 </r>
        <r>  0.0002  0.0000  0.2445  0.0000 </r>
       </set>
       <set comment="band 5">
        <r>  0.0000  0.0000  0.5601  0.0000 </r>
        <r>  0.0000  0.0000  0.0381  0.0000 </r>
        <r>  0.0000  0.0000  0.0347  0.0000 </r>
        <r>  0.0001  0.0001  0.1002  0.0000 </r>
        <r>  0.0001  0.0001  0.0922  0.0000 </r>
        <r>  0.0000  0.0000  0.1282  0.0000 </r>
       </set>
       <set comment="band 6">
        <r>  0.0000  0.0000  0.1796  0.0000 </r>
        <r>  0.0003  0.0001  0.0382  0.0000 </r>
        <r>  0.0004  0.0001  0.0429  0.0000 </r>
        <r>  0.0005  0.0002  0.0342  0.0000 </r>
        <r>  0.0005  0.0002  0.0431  0.0000 </r>
        <r>  0.0000  0.0000  0.6130  0.0000 </r>
       </set>
       <set comment="band 7">
        <r>  0.0009  0.0001  0.2420  0.0000 </r>
        <r>  0.0000  0.0001  0.1062  0.0000 </r>
        <r>  0.0000  0.0001  0.1159  0.0000 </r>
        <r>  0.0000  0.0001  0.0805  0.0000 </r>
        <r>  0.0000  0.0001  0.0740  0.0000 </r>
        <r>  0.0009  0.0001  0.3287  0.0000 </r>
       </set>
       <set comment="band 8">
        <r>  0.0000  0.0001  0.2688  0.0000 </r>
        <r>  0.0000  0.0001  0.1339  0.0000 </r>
        <r>  0.0000  0.0001  0.1302  0.0000 </r>
        <r>  0.0000  0.0000  0.0663  0.0000 </r>
        <r>  0.0000  0.0000  0.0682  0.0000 </r>
        <r>  0.0000  0.0001  0.2928  0.0000 </r>
       </set>
       <set comment="band 9">
        <r>  0.0000  0.0000  0.0095  0.0000 </r>
        <r>  0.0003  0.0002  0.1649  0.0000 </r>
        <r>  0.0003  0.0002  0.2626  0.0000 </r>
        <r>  0.0002  0.0002  0.3087  0.0000 </r>
        <r>  0.0002  0.0001  0.2014  0.0000 </r>
        <r>  0.0000  0.0000  0.0061  0.0000 </r>
       </set>
       <set comment="band 10">
        <r>  0.0007  0.0001  0.0311  0.0000 </r>
        <r>  0.0001  0.0001  0.2773  0.0000 </r>
        <r>  0.0000  0.0001  0.1790  0.0000 </r>
        <r>  0.0001  0.0001  0.1622  0.0000 </r>
        <r>  0.0001  0.0001  0.2699  0.0000 </r>
        <r>  0.0007  0.0001  0.0334  0.0000 </r>
       </set>
       <set comment="band 11">
        <r>  0.0006  0.0001  0.3038  0.0000 </r>
        <r>  0.0000  0.0000  0.0013  0.0000 </r>
        <r>  0.0000  0.0000  0.0012  0.0000 </r>
        <r>  0.0000  0.0000  0.1703  0.0000 </r>
        <r>  0.0000  0.0000  0.1704  0.0000 </r>
        <r>  0.0005  0.0001  0.3129  0.0000 </r>
       </set>
       <set comment="band 12">
        <r>  0.0006  0.0001  0.3619  0.0000 </r>
        <r>  0.0000  0.0000  0.0972  0.0000 </r>
        <r>  0.0000  0.0000  0.1003  0.0000 </r>
        <r>  0.0000  0.0000  0.0215  0.0000 </r>
        <r>  0.0000  0.0000  0.0189  0.0000 </r>
        <r>  0.0006  0.0001  0.3622  0.0000 </r>
       </set>
       <set comment="band 13">
        <r>  0.0009  0.0003  0.1033  0.0000 </r>
        <r>  0.0001  0.0000  0.1788  0.0000 </r>
        <r>  0.0000  0.0000  0.1859  0.0000 </r>
        <r>  0.0001  0.0000  0.1907  0.0000 </r>
        <r>  0.0001  0.0000  0.1812  0.0000 </r>
        <r>  0.0009  0.0003  0.1171  0.0000 </r>
       </set>
       <set comment="band 14">
        <r>  0.0000  0.0000  0.0506  0.0000 </r>
        <r>  0.0000  0.0000  0.1684  0.0000 </r>
        <r>  0.0000  0.0000  0.2057  0.0000 </r>
        <r>  0.0000  0.0000  0.2657  0.0000 </r>
        <r>  0.0000  0.0000  0.2177  0.0000 </r>
        <r>  0.0000  0.0000  0.0528  0.0000 </r>
       </set>
       <set comment="band 15">
        <r>  0.0000  0.0000  0.0952  0.0000 </r>
        <r>  0.0000  0.0000  0.2027  0.0000 </r>
        <r>  0.0000  0.0000  0.1621  0.0000 </r>
        <r>  0.0000  0.0000  0.1800  0.0000 </r>
        <r>  0.0000  0.0000  0.2325  0.0000 </r>
        <r>  0.0000  0.0000  0.0927  0.0000 </r>
       </set>
       <set comment="band 16">
        <r>  0.0000  0.0001  0.0200  0.0000 </r>
        <r>  0.0000  0.0000  0.2133  0.0000 </r>
        <r>  0.0000  0.0000  0.2382  0.0000 </r>
        <r>  0.0000  0.0000  0.2614  0.0000 </r>
        <r>  0.0000  0.0000  0.2110  0.0000 </r>
        <r>  0.0000  0.0001  0.0181  0.0000 </r>
       </set>
       <set comment="band 17">
        <r>  0.0000  0.0000  0.0629  0.0000 </r>
        <r>  0.0000  0.0000  0.0651  0.0000 </r>
        <r>  0.0000  0.0000  0.0330  0.0000 </r>
        <r>  0.0000  0.0000  0.3694  0.0000 </r>
        <r>  0.0000  0.0000  0.3729  0.0000 </r>
        <r>  0.0000  0.0000  0.0629  0.0000 </r>
       </set>
       <set comment="band 18">
        <r>  0.0000  0.0000  0.0090  0.0000 </r>
        <r>  0.0000  0.0000  0.1533  0.0000 </r>
        <r>  0.0000  0.0000  0.2499  0.0000 </r>
        <r>  0.0000  0.0000  0.2697  0.0000 </r>
        <r>  0.0000  0.0000  0.2761  0.0000 </r>
        <r>  0.0000  0.0000  0.0078  0.0000 </r>
       </set>
       <set comment="band 19">
        <r>  0.0000  0.0000  0.0363  0.0000 </r>
        <r>  0.0000  0.0000  0.4094  0.0000 </r>
        <r>  0.0000  0.0000  0.3309  0.0000 </r>
        <r>  0.0000  0.0000  0.0615  0.0000 </r>
        <r>  0.0000  0.0000  0.1007  0.0000 </r>
        <r>  0.0000  0.0000  0.0288  0.0000 </r>
       </set>
       <set comment="band 20">
        <r>  0.0000  0.0002  0.0982  0.0000 </r>
        <r>  0.0000  0.0000  0.2825  0.0000 </r>
        <r>  0.0000  0.0000  0.0669  0.0000 </r>
        <r>  0.0000  0.0000  0.3218  0.0000 </r>
        <r>  0.0000  0.0000  0.0886  0.0000 </r>
        <r>  0.0000  0.0002  0.1096  0.0000 </r>
       </set>
       <set comment="band 21">
        <r>  0.0000  0.0003  0.1266  0.0000 </r>
        <r>  0.0000  0.0000  0.0655  0.0000 </r>
        <r>  0.0000  0.0000  0.3142  0.0000 </r>
        <r>  0.0000  0.0000  0.0521  0.0000 </r>
        <r>  0.0000  0.0000  0.2461  0.0000 </r>
        <r>  0.0000  0.0004  0.1629  0.0000 </r>
       </set>
       <set comment="band 22">
        <r>  0.0000  0.0001  0.1209  0.0000 </r>
        <r>  0.0001  0.0000  0.2272  0.0000 </r>
        <r>  0.0001  0.0000  0.2045  0.0000 </r>
        <r>  0.0001  0.0000  0.1723  0.0000 </r>
        <r>  0.0001  0.0000  0.1731  0.0000 </r>
        <r>  0.0000  0.0000  0.0713  0.0000 </r>
       </set>
       <set comment="band 23">
        <r>  0.0000  0.0000  0.0058  0.0000 </r>
        <r>  0.0000  0.0000  0.2474  0.0000 </r>
        <r>  0.0000  0.0000  0.2777  0.0000 </r>
        <r>  0.0000  0.0000  0.2157  0.0000 </r>
        <r>  0.0000  0.0000  0.2159  0.0000 </r>
        <r>  0.0000  0.0000  0.0068  0.0000 </r>
       </set>
       <set comment="band 24">
        <r>  0.0000  0.0001  0.0360  0.0000 </r>
        <r>  0.0000  0.0000  0.2817  0.0000 </r>
        <r>  0.0000  0.0000  0.2284  0.0000 </r>
        <r>  0.0000  0.0000  0.1759  0.0000 </r>
        <r>  0.0000  0.0000  0.2069  0.0000 </r>
        <r>  0.0000  0.0001  0.0413  0.0000 </r>
       </set>
       <set comment="band 25">
        <r>  0.0000  0.0000  0.0310  0.0000 </r>
        <r>  0.0000  0.0000  0.2010  0.0000 </r>
        <r>  0.0000  0.0000  0.3235  0.0000 </r>
        <r>  0.0001  0.0000  0.2351  0.0000 </r>
        <r>  0.0000  0.0000  0.1594  0.0000 </r>
        <r>  0.0000  0.0000  0.0198  0.0000 </r>
       </set>
       <set comment="band 26">
        <r>  0.0000  0.0000  0.0165  0.0000 </r>
        <r>  0.0001  0.0000  0.3196  0.0000 </r>
        <r>  0.0001  0.0000  0.1979  0.0000 </r>
        <r>  0.0000  0.0000  0.1662  0.0000 </r>
        <r>  0.0001  0.0000  0.2500  0.0000 </r>
        <r>  0.0000  0.0000  0.0196  0.0000 </r>
       </set>
       <set comment="band 27">
        <r>  0.0000  0.0001  0.2726  0.0001 </r>
        <r>  0.0000  0.0000  0.1454  0.0000 </r>
        <r>  0.0000  0.0000  0.1335  0.0000 </r>
        <r>  0.0000  0.0000  0.0774  0.0000 </r>
        <r>  0.0000  0.0000  0.0806  0.0000 </r>
        <r>  0.0000  0.0001  0.2661  0.0001 </r>
       </set>
       <set comment="band 28">
        <r>  0.0000  0.0000  0.1279  0.0000 </r>
        <r>  0.0000  0.0000  0.1614  0.0000 </r>
        <r>  0.0000  0.0000  0.1560  0.0000 </r>
        <r>  0.0000  0.0000  0.1901  0.0000 </r>
        <r>  0.0000  0.0000  0.2044  0.0000 </r>
        <r>  0.0000  0.0000  0.1358  0.0000 </r>
       </set>
       <set comment="band 29">
        <r>  0.0000  0.0001  0.0295  0.0000 </r>
        <r>  0.0001  0.0001  0.2237  0.0000 </r>
        <r>  0.0001  0.0001  0.2418  0.0000 </r>
        <r>  0.0001  0.0001  0.2320  0.0000 </r>
        <r>  0.0001  0.0001  0.2166  0.0000 </r>
        <r>  0.0000  0.0001  0.0265  0.0000 </r>
       </set>
       <set comment="band 30">
        <r>  0.0000  0.0000  0.0606  0.0000 </r>
        <r>  0.0000  0.0001  0.2382  0.0000 </r>
        <r>  0.0000  0.0001  0.2188  0.0000 </r>
        <r>  0.0000  0.0001  0.1992  0.0000 </r>
        <r>  0.0000  0.0001  0.2160  0.0000 </r>
        <r>  0.0000  0.0000  0.0417  0.0000 </r>
       </set>
       <set comment="band 31">
        <r>  0.1151  0.0077  0.0028  0.0000 </r>
        <r>  0.0398  0.0048  0.0043  0.0000 </r>
        <r>  0.0403  0.0048  0.0044  0.0000 </r>
        <r>  0.0471  0.0054  0.0045  0.0000 </r>
        <r>  0.0468  0.0053  0.0044  0.0000 </r>
        <r>  0.1128  0.0077  0.0029  0.0000 </r>
       </set>
       <set comment="band 32">
        <r>  0.0000  0.0156  0.0062  0.0000 </r>
        <r>  0.1073  0.0038  0.0015  0.0000 </r>
        <r>  0.1074  0.0038  0.0015  0.0000 </r>
        <r>  0.0914  0.0040  0.0020  0.0000 </r>
        <r>  0.0914  0.0040  0.0020  0.0000 </r>
        <r>  0.0000  0.0149  0.0062  0.0000 </r>
       </set>
       <set comment="band 33">
        <r>  0.0043  0.0151  0.0032  0.0001 </r>
        <r>  0.0871  0.0026  0.0014  0.0000 </r>
        <r>  0.0858  0.0026  0.0014  0.0000 </r>
        <r>  0.1058  0.0030  0.0012  0.0000 </r>
        <r>  0.1074  0.0030  0.0012  0.0000 </r>
        <r>  0.0002  0.0148  0.0032  0.0001 </r>
       </set>
       <set comment="band 34">
        <r>  0.1933  0.0064  0.0030  0.0001 </r>
        <r>  0.0000  0.0057  0.0030  0.0001 </r>
        <r>  0.0003  0.0057  0.0030  0.0001 </r>
        <r>  0.0009  0.0065  0.0034  0.0001 </r>
        <r>  0.0002  0.0065  0.0034  0.0001 </r>
        <r>  0.2122  0.0058  0.0026  0.0001 </r>
       </set>
       <set comment="band 35">
        <r>  0.0007  0.0000  0.0048  0.0002 </r>
        <r>  0.1180  0.0033  0.0006  0.0000 </r>
        <r>  0.0971  0.0035  0.0008  0.0000 </r>
        <r>  0.1404  0.0025  0.0004  0.0000 </r>
        <r>  0.1213  0.0023  0.0005  0.0000 </r>
        <r>  0.0001  0.0000  0.0045  0.0002 </r>
       </set>
       <set comment="band 36">
        <r>  0.0951  0.0006  0.0033  0.0002 </r>
        <r>  0.0754  0.0075  0.0024  0.0001 </r>
        <r>  0.0967  0.0075  0.0022  0.0001 </r>
        <r>  0.0408  0.0075  0.0029  0.0001 </r>
        <r>  0.0593  0.0076  0.0027  0.0001 </r>
        <r>  0.0836  0.0008  0.0034  0.0002 </r>
       </set>
       <set comment="band 37">
        <r>  0.0000  0.0429  0.0003  0.0002 </r>
        <r>  0.0000  0.0383  0.0020  0.0001 </r>
        <r>  0.0000  0.0385  0.0021  0.0001 </r>
        <r>  0.0000  0.0309  0.0020  0.0001 </r>
        <r>  0.0000  0.0308  0.0020  0.0001 </r>
        <r>  0.0000  0.0431  0.0002  0.0002 </r>
       </set>
       <set comment="band 38">
        <r>  0.0003  0.0433  0.0030  0.0001 </r>
        <r>  0.0093  0.0412  0.0009  0.0000 </r>
        <r>  0.0066  0.0510  0.0015  0.0001 </r>
        <r>  0.0061  0.0475  0.0015  0.0001 </r>
        <r>  0.0050  0.0272  0.0011  0.0001 </r>
        <r>  0.0004  0.0425  0.0030  0.0001 </r>
       </set>
       <set comment="band 39">
        <r>  0.0101  0.0832  0.0012  0.0000 </r>
        <r>  0.0004  0.0140  0.0018  0.0001 </r>
        <r>  0.0027  0.0029  0.0012  0.0001 </r>
        <r>  0.0000  0.0121  0.0014  0.0001 </r>
        <r>  0.0010  0.0318  0.0018  0.0001 </r>
        <r>  0.0107  0.0835  0.0012  0.0000 </r>
       </set>
       <set comment="band 40">
        <r>  0.0023  0.0539  0.0019  0.0001 </r>
        <r>  0.0050  0.0323  0.0011  0.0001 </r>
        <r>  0.0052  0.0329  0.0011  0.0001 </r>
        <r>  0.0146  0.0226  0.0004  0.0001 </r>
        <r>  0.0149  0.0234  0.0004  0.0001 </r>
        <r>  0.0026  0.0527  0.0019  0.0001 </r>
       </set>
       <set comment="band 41">
        <r>  0.0025  0.0065  0.0030  0.0002 </r>
        <r>  0.0073  0.0394  0.0003  0.0000 </r>
        <r>  0.0076  0.0407  0.0003  0.0000 </r>
        <r>  0.0003  0.0563  0.0009  0.0000 </r>
        <r>  0.0003  0.0560  0.0009  0.0000 </r>
        <r>  0.0025  0.0077  0.0029  0.0002 </r>
       </set>
       <set comment="band 42">
        <r>  0.0011  0.0490  0.0007  0.0002 </r>
        <r>  0.0000  0.0150  0.0013  0.0001 </r>
        <r>  0.0000  0.0150  0.0013  0.0001 </r>
        <r>  0.0000  0.0363  0.0012  0.0001 </r>
        <r>  0.0000  0.0365  0.0012  0.0001 </r>
        <r>  0.0010  0.0497  0.0006  0.0002 </r>
       </set>
       <set comment="band 43">
        <r>  0.0000  0.0036  0.0004  0.0003 </r>
        <r>  0.0008  0.0648  0.0006  0.0000 </r>
        <r>  0.0007  0.0648  0.0006  0.0000 </r>
        <r>  0.0040  0.0443  0.0013  0.0001 </r>
        <r>  0.0038  0.0445  0.0013  0.0001 </r>
        <r>  0.0000  0.0035  0.0003  0.0003 </r>
       </set>
       <set comment="band 44">
        <r>  0.0305  0.0073  0.0021  0.0000 </r>
        <r>  0.0000  0.0490  0.0007  0.0001 </r>
        <r>  0.0000  0.0491  0.0007  0.0001 </r>
        <r>  0.0000  0.0213  0.0011  0.0001 </r>
        <r>  0.0000  0.0215  0.0011  0.0001 </r>
        <r>  0.0303  0.0059  0.0021  0.0000 </r>
       </set>
       <set comment="band 45">
        <r>  0.0000  0.0000  0.0047  0.0000 </r>
        <r>  0.0000  0.0376  0.0008  0.0001 </r>
        <r>  0.0000  0.0365  0.0009  0.0001 </r>
        <r>  0.0000  0.0510  0.0005  0.0000 </r>
        <r>  0.0000  0.0499  0.0005  0.0000 </r>
        <r>  0.0000  0.0000  0.0049  0.0000 </r>
       </set>
       <set comment="band 46">
        <r>  0.0056  0.0094  0.0021  0.0002 </r>
        <r>  0.0027  0.0001  0.0009  0.0001 </r>
        <r>  0.0103  0.0118  0.0015  0.0001 </r>
        <r>  0.0006  0.0016  0.0008  0.0001 </r>
        <r>  0.0116  0.0098  0.0015  0.0001 </r>
        <r>  0.0056  0.0096  0.0020  0.0002 </r>
       </set>
      </set>
     </set>
    </set>
   </array>
  </projected>
 </calculation>
 <structure name="finalpos" >
  <crystal>
   <varray name="basis" >
    <v>      17.00000000       0.00000000       0.00000000 </v>
    <v>       0.00000000      17.00000000       0.00000000 </v>
    <v>       0.00000000       0.00000000      17.00000000 </v>
   </varray>
   <i name="volume">   4913.00000000 </i>
   <varray name="rec_basis" >
    <v>       0.05882353       0.00000000       0.00000000 </v>
    <v>       0.00000000       0.05882353       0.00000000 </v>
    <v>       0.00000000       0.00000000       0.05882353 </v>
   </varray>
  </crystal>
  <varray name="positions" >
   <v>       0.98541646       0.03931198       0.08133507 </v>
   <v>       0.09048044       0.15704720       0.96658496 </v>
   <v>       0.81822009       0.00495414       0.98638773 </v>
   <v>       0.93164768       0.85985700       0.03347922 </v>
   <v>       0.15983168       0.98636664       0.01506997 </v>
   <v>      -0.00184988       0.99310951       0.90850658 </v>
  </varray>
 </structure>
</modeling>
