Cd                                      
           1
    17.000000    0.000000    0.000000
     0.000000   17.000000    0.000000
     0.000000    0.000000   17.000000
   Cd
   6
Direct configuration=     1
   0.98865471  0.02981941  0.07444059
   0.06289824  0.11221765  0.97372176
   0.87212412  0.00608529  0.98881882
   0.94932706  0.90546471  0.02203294
   0.11299471  0.99438471  0.01076294
   0.99774765  0.99267471  0.92158647
Direct configuration=     2
   0.98714125  0.03956013  0.09230624
   0.06440647  0.13767364  0.96739377
   0.84520661  0.02001080  0.98373441
   0.95241504  0.87338538  0.03057418
   0.13505589  0.97839663  0.01653079
   0.99952121  0.99161990  0.90082413
Direct configuration=     3
   0.98705847  0.04009292  0.09328344
   0.06448896  0.13906602  0.96704765
   0.84373430  0.02077249  0.98345631
   0.95258394  0.87163073  0.03104136
   0.13626258  0.97752212  0.01684628
   0.99961822  0.99156220  0.89968849
Direct configuration=     4
   0.98689291  0.04115850  0.09523785
   0.06465396  0.14185078  0.96635540
   0.84078966  0.02229587  0.98290010
   0.95292175  0.86812141  0.03197573
   0.13867596  0.97577310  0.01747725
   0.99981223  0.99144681  0.89741719
Direct configuration=     5
   0.98656178  0.04328967  0.09914668
   0.06498394  0.14742029  0.96497090
   0.83490038  0.02534263  0.98178768
   0.95359737  0.86110278  0.03384447
   0.14350273  0.97227507  0.01873920
   0.00020027  0.99121603  0.89287460
Direct configuration=     6
   0.98646380  0.04392025  0.10030323
   0.06508158  0.14906821  0.96456125
   0.83315785  0.02624411  0.98145854
   0.95379728  0.85902609  0.03439739
   0.14493088  0.97124007  0.01911259
   0.00031508  0.99114775  0.89153053
Direct configuration=     7
   0.98641583  0.04422900  0.10086951
   0.06512939  0.14987508  0.96436067
   0.83230465  0.02668550  0.98129738
   0.95389515  0.85800928  0.03466812
   0.14563015  0.97073330  0.01929541
   0.00037130  0.99111431  0.89087243
Direct configuration=     8
   0.98640779  0.04428073  0.10096439
   0.06513740  0.15001027  0.96432706
   0.83216170  0.02675946  0.98127038
   0.95391155  0.85783892  0.03471349
   0.14574731  0.97064839  0.01932604
   0.00038072  0.99110871  0.89076217
Direct configuration=     9
   0.98638052  0.04402669  0.10068705
   0.06550975  0.15040850  0.96431119
   0.83188155  0.02663607  0.98129581
   0.95375866  0.85789180  0.03468559
   0.14589418  0.97077178  0.01927940
   0.00032181  0.99091163  0.89110449
Direct configuration=    10
   0.98629870  0.04326457  0.09985502
   0.06662680  0.15160321  0.96426357
   0.83104110  0.02626589  0.98137210
   0.95329998  0.85805045  0.03460190
   0.14633480  0.97114194  0.01913949
   0.00014508  0.99032040  0.89213145
Direct configuration=    11
   0.98613507  0.04174033  0.09819096
   0.06886091  0.15399261  0.96416833
   0.82936021  0.02552555  0.98152469
   0.95238262  0.85836776  0.03443453
   0.14721604  0.97188227  0.01885966
  -0.00020839  0.98913795  0.89418536
Direct configuration=    12
   0.98580780  0.03869186  0.09486283
   0.07332914  0.15877142  0.96397785
   0.82599843  0.02404486  0.98182987
   0.95054790  0.85900237  0.03409979
   0.14897853  0.97336293  0.01830000
  -0.00091533  0.98677303  0.89829319
Direct configuration=    13
   0.98515326  0.03259492  0.08820659
   0.08226558  0.16832904  0.96359690
   0.81927487  0.02108348  0.98244021
   0.94687846  0.86027160  0.03343030
   0.15250349  0.97632424  0.01718068
  -0.00232919  0.98204320  0.90650885
Direct configuration=    14
   0.98516138  0.03247561  0.08511102
   0.08432106  0.16897445  0.96385572
   0.81797213  0.01941014  0.98283498
   0.94485938  0.85918149  0.03377442
   0.15399669  0.97738140  0.01688764
  -0.00256416  0.98322337  0.90889975
Direct configuration=    15
   0.98517111  0.03233250  0.08139794
   0.08678657  0.16974862  0.96416618
   0.81640952  0.01740301  0.98330850
   0.94243752  0.85787392  0.03418719
   0.15578775  0.97864946  0.01653614
  -0.00284600  0.98463896  0.91176758
Direct configuration=    16
   0.98521576  0.03429426  0.08124051
   0.08744224  0.16787144  0.96475095
   0.81645562  0.01552122  0.98377903
   0.94038493  0.85671111  0.03458010
   0.15695379  0.97970418  0.01634776
  -0.00270588  0.98654426  0.91066519
Direct configuration=    17
   0.98534582  0.04000815  0.08078197
   0.08935198  0.16240389  0.96645418
   0.81658990  0.01004027  0.98514950
   0.93440650  0.85332426  0.03572450
   0.16035002  0.98277620  0.01579906
  -0.00229776  0.99209369  0.90745433
Direct configuration=    18
   0.98561858  0.04045880  0.08019566
   0.08971744  0.15904904  0.96709980
   0.81758974  0.00754098  0.98582558
   0.93276942  0.85554706  0.03506339
   0.16004972  0.98477957  0.01531913
  -0.00199844  0.99327102  0.90785996
Direct configuration=    19
   0.98582892  0.04080634  0.07974352
   0.08999928  0.15646186  0.96759769
   0.81836080  0.00561358  0.98634696
   0.93150695  0.85726123  0.03455356
   0.15981814  0.98632451  0.01494902
  -0.00176761  0.99417895  0.90817278
Direct configuration=    20
   0.98554293  0.04012695  0.08094725
   0.09029776  0.15662994  0.96715279
   0.81842551  0.00510217  0.98644412
   0.93144707  0.85880568  0.03400694
   0.15976815  0.98645429  0.01495529
  -0.00173495  0.99352743  0.90785714
Direct configuration=    21
   0.98545023  0.03990674  0.08133742
   0.09039450  0.15668441  0.96700858
   0.81844649  0.00493641  0.98647562
   0.93142767  0.85930629  0.03382976
   0.15975195  0.98649636  0.01495732
  -0.00172437  0.99331625  0.90775483
Direct configuration=    22
   0.98542735  0.03985239  0.08143372
   0.09041838  0.15669786  0.96697299
   0.81845167  0.00489550  0.98648339
   0.93142288  0.85942985  0.03378603
   0.15974795  0.98650674  0.01495782
  -0.00172175  0.99326413  0.90772957
Direct configuration=    23
   0.98543978  0.03988193  0.08138138
   0.09040540  0.15669055  0.96699234
   0.81844885  0.00491773  0.98647916
   0.93142548  0.85936270  0.03380980
   0.15975012  0.98650110  0.01495755
  -0.00172317  0.99329246  0.90774330
Direct configuration=    24
   0.98543357  0.03986716  0.08140755
   0.09041189  0.15669421  0.96698266
   0.81845026  0.00490662  0.98648128
   0.93142418  0.85939627  0.03379792
   0.15974904  0.98650392  0.01495769
  -0.00172246  0.99327829  0.90773644
Direct configuration=    25
   0.98541646  0.03931198  0.08133507
   0.09048044  0.15704720  0.96658496
   0.81822009  0.00495414  0.98638773
   0.93164768  0.85985700  0.03347922
   0.15983168  0.98636664  0.01506997
  -0.00184988  0.99310951  0.90850658
