    2    2  200    2
  0.2456500E+04  0.1700000E-08  0.1700000E-08  0.1700000E-08  0.5000000E-15
  1.000000000000000E-004
  CAR 
 Ag                                      
     22      1     16
 
  0.0000000E+00  0.0000000E+00  0.0000000E+00  0.1000000E+01
    1       -8.271079     -8.271060   1.000000   1.000000
    2       -7.754397     -7.754368   1.000000   1.000000
    3       -7.754397     -7.754368   1.000000   1.000000
    4       -7.234908     -7.234850   1.000000   1.000000
    5       -7.234908     -7.234842   1.000000   1.000000
    6       -7.039936     -7.039882   1.000000   1.000000
    7       -7.039933     -7.039873   1.000000   1.000000
    8       -6.779074     -6.779056   1.000000   1.000000
    9       -6.779074     -6.779056   1.000000   1.000000
   10       -6.626792     -6.626811   1.000000   1.000000
   11       -5.112526     -5.112314   1.000000   1.000000
   12       -3.051457     -3.051217   0.000000   0.000000
   13       -1.039000     -1.038614   0.000000   0.000000
   14       -1.039000     -1.038614   0.000000   0.000000
   15       -0.602649     -0.602152   0.000000   0.000000
   16        0.086832      0.087911   0.000000   0.000000
