       N       E                     dE             d eps       ncg     rms          rms(c)
DAV:   1     0.169145572468E+03    0.16915E+03   -0.32518E+03    64   0.669E+02
DAV:   2     0.109960906065E+03   -0.59185E+02   -0.57082E+02   120   0.713E+01
DAV:   3     0.266424440517E+02   -0.83318E+02   -0.78868E+02   112   0.589E+01
DAV:   4     0.123824849692E+00   -0.26519E+02   -0.26511E+02    96   0.560E+01
DAV:   5    -0.194873077705E+01   -0.20726E+01   -0.20725E+01    64   0.209E+01
DAV:   6    -0.201145306481E+01   -0.62722E-01   -0.62717E-01   120   0.295E+00
DAV:   7    -0.201187842712E+01   -0.42536E-03   -0.42536E-03    64   0.282E-01
DAV:   8    -0.201190310559E+01   -0.24678E-04   -0.24678E-04   112   0.654E-02    0.752E+00
DAV:   9    -0.203678055715E+01   -0.24877E-01   -0.42021E-03    72   0.420E-01    0.694E+00
DAV:  10    -0.206066594357E+01   -0.23885E-01   -0.45822E-01    64   0.396E+00    0.277E+00
DAV:  11    -0.201557332750E+01    0.45093E-01   -0.14263E-01    64   0.209E+00    0.191E+00
DAV:  12    -0.202621429840E+01   -0.10641E-01   -0.21471E-01    64   0.257E+00    0.109E+00
DAV:  13    -0.203048015658E+01   -0.42659E-02   -0.10584E-02    88   0.590E-01    0.701E-01
DAV:  14    -0.200580260565E+01    0.24678E-01   -0.11337E-01    64   0.201E+00    0.340E-01
DAV:  15    -0.200607867486E+01   -0.27607E-03   -0.27970E-03    80   0.373E-01    0.256E-01
DAV:  16    -0.200636795078E+01   -0.28928E-03   -0.18222E-03    64   0.294E-01    0.885E-02
DAV:  17    -0.200636341356E+01    0.45372E-05   -0.10490E-04   104   0.452E-02    0.848E-02
DAV:  18    -0.200637848060E+01   -0.15067E-04   -0.97214E-06    56   0.231E-02    0.733E-02
DAV:  19    -0.200629956198E+01    0.78919E-04   -0.32295E-04    72   0.144E-01    0.337E-02
DAV:  20    -0.200629759052E+01    0.19715E-05   -0.91241E-06    80   0.259E-02    0.231E-02
DAV:  21    -0.200629242079E+01    0.51697E-05   -0.26890E-05    72   0.394E-02    0.144E-02
DAV:  22    -0.200629292408E+01   -0.50329E-06   -0.13860E-06    48   0.101E-02
   1 F= -.20062929E+01 E0= -.20062929E+01  d E =-.200629E+01  mag=     0.0004
       N       E                     dE             d eps       ncg     rms          rms(c)
DAV:   1    -0.197147360946E+01    0.34819E-01   -0.19142E+02    64   0.109E+02    0.159E+00
DAV:   2    -0.217417472056E+01   -0.20270E+00   -0.20381E+00    64   0.160E+01    0.171E+00
DAV:   3    -0.218090285168E+01   -0.67281E-02   -0.65554E-02    80   0.196E+00    0.158E+00
DAV:   4    -0.218187111865E+01   -0.96827E-03   -0.73662E-03   112   0.390E-01    0.160E+00
DAV:   5    -0.218035911469E+01    0.15120E-02   -0.26567E-03    80   0.358E-01    0.134E+00
DAV:   6    -0.218295912048E+01   -0.26000E-02   -0.33522E-02    64   0.126E+00    0.467E-01
DAV:   7    -0.218236686909E+01    0.59225E-03   -0.71637E-04    80   0.238E-01    0.371E-01
DAV:   8    -0.217898274372E+01    0.33841E-02   -0.13360E-02    64   0.826E-01    0.963E-02
DAV:   9    -0.217903493681E+01   -0.52193E-04   -0.23904E-04    80   0.134E-01    0.978E-02
DAV:  10    -0.217903906612E+01   -0.41293E-05   -0.27504E-05    80   0.130E-02    0.963E-02
DAV:  11    -0.217903812563E+01    0.94049E-06   -0.31178E-07    32   0.427E-03
   2 F= -.21790381E+01 E0= -.21790381E+01  d E =-.172745E+00  mag=     0.0003
       N       E                     dE             d eps       ncg     rms          rms(c)
DAV:   1    -0.217902618713E+01    0.12879E-04   -0.37225E-02    64   0.146E+00    0.122E-01
DAV:   2    -0.217903441914E+01   -0.82320E-05   -0.27237E-04    96   0.163E-01    0.117E-01
DAV:   3    -0.217891537146E+01    0.11905E-03   -0.42431E-04    64   0.174E-01    0.517E-02
DAV:   4    -0.217890817295E+01    0.71985E-05   -0.12920E-04    80   0.909E-02    0.324E-02
DAV:   5    -0.217890742580E+01    0.74715E-06   -0.47683E-06    64   0.176E-02    0.307E-02
DAV:   6    -0.217891273620E+01   -0.53104E-05   -0.41667E-05    64   0.532E-02    0.805E-03
DAV:   7    -0.217891275036E+01   -0.14165E-07   -0.35288E-06    80   0.164E-02
   3 F= -.21789128E+01 E0= -.21789128E+01  d E =-.172620E+00  mag=     0.0001
