Ag                                      
   1.00000000000000     
    17.0000000000000000    0.0000000000000000    0.0000000000000000
     0.0000000000000000   17.0000000000000000    0.0000000000000000
     0.0000000000000000    0.0000000000000000   17.0000000000000000
   Ag
     2
Direct
 -0.0000000000000000  0.0000000000000000  0.9245886563928796
  0.0000000000000000  0.0000000000000000  0.0754113436071204
 
  0.00000000E+00  0.00000000E+00  0.00000000E+00
  0.00000000E+00  0.00000000E+00  0.00000000E+00
