PROCAR new format
# of k-points:    1         # of bands:   16         # of ions:    2

 k-point     1 :    0.00000000 0.00000000 0.00000000     weight = 1.00000000

band     1 # energy   -8.27107903 # occ.  1.00000000
 
ion      s      p      d      f    tot
    1  0.021  0.008  0.462  0.001  0.491
    2  0.021  0.008  0.462  0.001  0.491
tot    0.041  0.016  0.924  0.002  0.982
 
band     2 # energy   -7.75439713 # occ.  1.00000000
 
ion      s      p      d      f    tot
    1  0.000  0.001  0.468  0.000  0.469
    2  0.000  0.001  0.468  0.000  0.469
tot    0.000  0.002  0.936  0.001  0.938
 
band     3 # energy   -7.75439712 # occ.  1.00000000
 
ion      s      p      d      f    tot
    1  0.000  0.001  0.468  0.000  0.469
    2  0.000  0.001  0.468  0.000  0.469
tot    0.000  0.002  0.936  0.001  0.938
 
band     4 # energy   -7.23490830 # occ.  1.00000000
 
ion      s      p      d      f    tot
    1  0.000  0.000  0.471  0.000  0.471
    2  0.000  0.000  0.471  0.000  0.471
tot    0.000  0.000  0.941  0.000  0.941
 
band     5 # energy   -7.23490757 # occ.  1.00000000
 
ion      s      p      d      f    tot
    1  0.000  0.000  0.471  0.000  0.471
    2  0.000  0.000  0.471  0.000  0.471
tot    0.000  0.000  0.941  0.000  0.941
 
band     6 # energy   -7.03993610 # occ.  1.00000000
 
ion      s      p      d      f    tot
    1  0.000  0.000  0.477  0.000  0.478
    2  0.000  0.000  0.477  0.000  0.478
tot    0.000  0.000  0.955  0.000  0.955
 
band     7 # energy   -7.03993304 # occ.  1.00000000
 
ion      s      p      d      f    tot
    1  0.000  0.000  0.477  0.000  0.478
    2  0.000  0.000  0.477  0.000  0.478
tot    0.000  0.000  0.955  0.000  0.955
 
band     8 # energy   -6.77907441 # occ.  1.00000000
 
ion      s      p      d      f    tot
    1  0.000  0.001  0.478  0.000  0.480
    2  0.000  0.001  0.478  0.000  0.480
tot    0.000  0.003  0.956  0.001  0.960
 
band     9 # energy   -6.77907441 # occ.  1.00000000
 
ion      s      p      d      f    tot
    1  0.000  0.001  0.478  0.000  0.480
    2  0.000  0.001  0.478  0.000  0.480
tot    0.000  0.003  0.956  0.001  0.960
 
band    10 # energy   -6.62679183 # occ.  1.00000000
 
ion      s      p      d      f    tot
    1  0.007  0.004  0.461  0.001  0.472
    2  0.007  0.004  0.461  0.001  0.472
tot    0.015  0.008  0.921  0.001  0.945
 
band    11 # energy   -5.11252587 # occ.  1.00000000
 
ion      s      p      d      f    tot
    1  0.226  0.006  0.022  0.000  0.255
    2  0.226  0.006  0.022  0.000  0.255
tot    0.453  0.013  0.044  0.000  0.510
 
band    12 # energy   -3.05145718 # occ.  0.00000000
 
ion      s      p      d      f    tot
    1  0.166  0.028  0.004  0.000  0.198
    2  0.166  0.028  0.004  0.000  0.198
tot    0.331  0.057  0.009  0.000  0.397
 
band    13 # energy   -1.03899998 # occ.  0.00000000
 
ion      s      p      d      f    tot
    1  0.000  0.075  0.002  0.000  0.078
    2  0.000  0.075  0.002  0.000  0.078
tot    0.000  0.151  0.004  0.000  0.155
 
band    14 # energy   -1.03899998 # occ.  0.00000000
 
ion      s      p      d      f    tot
    1  0.000  0.075  0.002  0.000  0.078
    2  0.000  0.075  0.002  0.000  0.078
tot    0.000  0.151  0.004  0.000  0.155
 
band    15 # energy   -0.60264856 # occ.  0.00000000
 
ion      s      p      d      f    tot
    1  0.003  0.094  0.000  0.000  0.098
    2  0.003  0.094  0.000  0.000  0.098
tot    0.006  0.189  0.000  0.000  0.195
 
band    16 # energy    0.08683212 # occ.  0.00000000
 
ion      s      p      d      f    tot
    1  0.002  0.012  0.000  0.000  0.014
    2  0.002  0.012  0.000  0.000  0.014
tot    0.004  0.023  0.000  0.000  0.028
 
# of k-points:    1         # of bands:   16         # of ions:    2

 k-point     1 :    0.00000000 0.00000000 0.00000000     weight = 1.00000000

band     1 # energy   -8.27105957 # occ.  1.00000000
 
ion      s      p      d      f    tot
    1  0.021  0.008  0.462  0.001  0.491
    2  0.021  0.008  0.462  0.001  0.491
tot    0.041  0.016  0.924  0.002  0.982
 
band     2 # energy   -7.75436782 # occ.  1.00000000
 
ion      s      p      d      f    tot
    1  0.000  0.001  0.468  0.000  0.469
    2  0.000  0.001  0.468  0.000  0.469
tot    0.000  0.002  0.936  0.001  0.938
 
band     3 # energy   -7.75436781 # occ.  1.00000000
 
ion      s      p      d      f    tot
    1  0.000  0.001  0.468  0.000  0.469
    2  0.000  0.001  0.468  0.000  0.469
tot    0.000  0.002  0.936  0.001  0.938
 
band     4 # energy   -7.23484959 # occ.  1.00000000
 
ion      s      p      d      f    tot
    1  0.000  0.000  0.471  0.000  0.471
    2  0.000  0.000  0.471  0.000  0.471
tot    0.000  0.000  0.941  0.000  0.941
 
band     5 # energy   -7.23484197 # occ.  1.00000000
 
ion      s      p      d      f    tot
    1  0.000  0.000  0.471  0.000  0.471
    2  0.000  0.000  0.471  0.000  0.471
tot    0.000  0.000  0.941  0.000  0.941
 
band     6 # energy   -7.03988160 # occ.  1.00000000
 
ion      s      p      d      f    tot
    1  0.000  0.000  0.477  0.000  0.478
    2  0.000  0.000  0.477  0.000  0.478
tot    0.000  0.000  0.955  0.000  0.955
 
band     7 # energy   -7.03987271 # occ.  1.00000000
 
ion      s      p      d      f    tot
    1  0.000  0.000  0.477  0.000  0.478
    2  0.000  0.000  0.477  0.000  0.478
tot    0.000  0.000  0.955  0.000  0.955
 
band     8 # energy   -6.77905609 # occ.  1.00000000
 
ion      s      p      d      f    tot
    1  0.000  0.001  0.478  0.000  0.480
    2  0.000  0.001  0.478  0.000  0.480
tot    0.000  0.003  0.956  0.001  0.960
 
band     9 # energy   -6.77905609 # occ.  1.00000000
 
ion      s      p      d      f    tot
    1  0.000  0.001  0.478  0.000  0.480
    2  0.000  0.001  0.478  0.000  0.480
tot    0.000  0.003  0.956  0.001  0.960
 
band    10 # energy   -6.62681097 # occ.  1.00000000
 
ion      s      p      d      f    tot
    1  0.007  0.004  0.461  0.001  0.472
    2  0.007  0.004  0.461  0.001  0.472
tot    0.015  0.008  0.921  0.001  0.945
 
band    11 # energy   -5.11231414 # occ.  1.00000000
 
ion      s      p      d      f    tot
    1  0.227  0.006  0.022  0.000  0.255
    2  0.227  0.006  0.022  0.000  0.255
tot    0.453  0.013  0.044  0.000  0.510
 
band    12 # energy   -3.05121653 # occ.  0.00000000
 
ion      s      p      d      f    tot
    1  0.166  0.028  0.004  0.000  0.198
    2  0.166  0.028  0.004  0.000  0.198
tot    0.331  0.057  0.009  0.000  0.397
 
band    13 # energy   -1.03861417 # occ.  0.00000000
 
ion      s      p      d      f    tot
    1  0.000  0.075  0.002  0.000  0.078
    2  0.000  0.075  0.002  0.000  0.078
tot    0.000  0.151  0.004  0.000  0.155
 
band    14 # energy   -1.03861417 # occ.  0.00000000
 
ion      s      p      d      f    tot
    1  0.000  0.075  0.002  0.000  0.078
    2  0.000  0.075  0.002  0.000  0.078
tot    0.000  0.151  0.004  0.000  0.155
 
band    15 # energy   -0.60215192 # occ.  0.00000000
 
ion      s      p      d      f    tot
    1  0.003  0.095  0.000  0.000  0.098
    2  0.003  0.095  0.000  0.000  0.098
tot    0.006  0.189  0.000  0.000  0.195
 
band    16 # energy    0.08791056 # occ.  0.00000000
 
ion      s      p      d      f    tot
    1  0.002  0.012  0.000  0.000  0.014
    2  0.002  0.012  0.000  0.000  0.014
tot    0.004  0.023  0.000  0.000  0.028
 
