Cd                                      
   1.00000000000000     
    17.0000000000000000    0.0000000000000000    0.0000000000000000
     0.0000000000000000   17.0000000000000000    0.0000000000000000
     0.0000000000000000    0.0000000000000000   17.0000000000000000
   Cd
     2
Direct
  0.0000000000000000 -0.0000000000000000  0.8965735859840611
 -0.0000000000000000  0.0000000000000000  0.1034264140159388
 
  0.00000000E+00  0.00000000E+00  0.00000000E+00
  0.00000000E+00  0.00000000E+00  0.00000000E+00
