    4    4  200    2
  0.1228250E+04  0.1700000E-08  0.1700000E-08  0.1700000E-08  0.5000000E-15
  1.000000000000000E-004
  CAR 
 CuPd                                    
     40      1     26
 
  0.0000000E+00  0.0000000E+00  0.0000000E+00  0.1000000E+01
    1       -7.898623     -7.773361
    2       -7.081800     -6.578519
    3       -6.810763     -6.522528
    4       -6.810451     -6.522183
    5       -6.781025     -6.119233
    6       -6.231523     -5.877091
    7       -5.969696     -5.684732
    8       -5.816664     -5.544122
    9       -5.816483     -5.543924
   10       -5.591385     -5.525789
   11       -4.937030     -4.741969
   12       -4.881615     -4.695535
   13       -4.881301     -4.695236
   14       -4.824977     -4.603519
   15       -4.800516     -4.599482
   16       -4.757823     -4.537714
   17       -4.757643     -4.537542
   18       -4.722264     -4.516973
   19       -4.521319     -3.869037
   20       -4.521052     -3.836945
   21       -4.284145     -3.836664
   22       -2.688181     -2.537322
   23       -2.618865     -2.444241
   24       -2.618648     -2.444034
   25       -0.644246     -0.589154
   26       -0.097374     -0.047445
