       N       E                     dE             d eps       ncg     rms          rms(c)
DAV:   1     0.360587400101E+03    0.36059E+03   -0.65655E+03   104   0.846E+02
DAV:   2     0.251620759822E+03   -0.10897E+03   -0.10357E+03   160   0.125E+02
DAV:   3     0.173860065977E+03   -0.77761E+02   -0.74389E+02   208   0.202E+02
DAV:   4     0.710861470509E+02   -0.10277E+03   -0.10058E+03   208   0.305E+02
DAV:   5     0.190083499184E+02   -0.52078E+02   -0.50870E+02   208   0.253E+02
DAV:   6    -0.237423057819E+00   -0.19246E+02   -0.18133E+02   208   0.136E+02
DAV:   7    -0.127403110374E+02   -0.12503E+02   -0.10707E+02   200   0.878E+01
DAV:   8    -0.139568506883E+02   -0.12165E+01   -0.10882E+01   200   0.264E+01    0.943E+00
DAV:   9    -0.140273278221E+02   -0.70477E-01   -0.23499E+00   200   0.135E+01    0.880E+00
DAV:  10    -0.138807381504E+02    0.14659E+00   -0.23430E-01   200   0.733E+00    0.818E+00
DAV:  11    -0.128740665739E+02    0.10067E+01   -0.34921E+00   200   0.313E+01    0.440E+00
DAV:  12    -0.127706301026E+02    0.10344E+00   -0.37964E-01   208   0.861E+00    0.405E+00
DAV:  13    -0.127710964365E+02   -0.46633E-03   -0.39522E-02   208   0.289E+00    0.315E+00
DAV:  14    -0.127842284586E+02   -0.13132E-01   -0.80600E-01   192   0.114E+01    0.224E+00
DAV:  15    -0.127673502045E+02    0.16878E-01   -0.48747E-02   192   0.365E+00    0.176E+00
DAV:  16    -0.127528694427E+02    0.14481E-01   -0.28277E-02   208   0.248E+00    0.140E+00
DAV:  17    -0.127288663633E+02    0.24003E-01   -0.29424E-02   200   0.350E+00    0.113E+00
DAV:  18    -0.127049714528E+02    0.23895E-01   -0.10530E-01   208   0.657E+00    0.540E-01
DAV:  19    -0.127046669199E+02    0.30453E-03   -0.88953E-03   208   0.122E+00    0.711E-01
DAV:  20    -0.127038713841E+02    0.79554E-03   -0.75497E-03   208   0.742E-01    0.642E-01
DAV:  21    -0.127032362742E+02    0.63511E-03   -0.11914E-02   208   0.852E-01    0.816E-01
DAV:  22    -0.127015746667E+02    0.16616E-02   -0.15159E-02   208   0.916E-01    0.389E-01
DAV:  23    -0.127016115314E+02   -0.36865E-04   -0.15307E-03   200   0.562E-01    0.196E-01
DAV:  24    -0.127016922879E+02   -0.80757E-04   -0.10492E-03   192   0.194E-01    0.422E-01
DAV:  25    -0.127016198166E+02    0.72471E-04   -0.56492E-04   192   0.426E-01    0.272E-01
DAV:  26    -0.127016268039E+02   -0.69873E-05   -0.71095E-04   192   0.243E-01    0.326E-01
DAV:  27    -0.127015653941E+02    0.61410E-04   -0.25591E-04   200   0.147E-01    0.258E-01
DAV:  28    -0.127015341101E+02    0.31284E-04   -0.11866E-03   200   0.166E-01    0.220E-01
DAV:  29    -0.127015375933E+02   -0.34832E-05   -0.28075E-04   192   0.165E-01    0.135E-01
DAV:  30    -0.127015588009E+02   -0.21208E-04   -0.10071E-04   176   0.853E-02    0.222E-01
DAV:  31    -0.127015561211E+02    0.26798E-05   -0.63078E-05   192   0.708E-02    0.220E-01
DAV:  32    -0.127015729829E+02   -0.16862E-04   -0.38207E-05   112   0.390E-02    0.273E-01
DAV:  33    -0.127015372744E+02    0.35708E-04   -0.10400E-05   104   0.421E-02    0.245E-01
DAV:  34    -0.127015289165E+02    0.83580E-05   -0.16309E-05   120   0.430E-02    0.204E-01
DAV:  35    -0.127015321708E+02   -0.32543E-05   -0.32789E-05   152   0.390E-02    0.149E-01
DAV:  36    -0.127015504773E+02   -0.18306E-04   -0.55234E-06   112   0.367E-02    0.128E-01
DAV:  37    -0.127015578732E+02   -0.73960E-05   -0.31398E-04   200   0.708E-02    0.835E-02
DAV:  38    -0.127015829278E+02   -0.25055E-04   -0.59867E-05   160   0.739E-02    0.478E-02
DAV:  39    -0.127015864547E+02   -0.35268E-05   -0.93352E-06    96   0.356E-02    0.569E-02
DAV:  40    -0.127015851309E+02    0.13238E-05   -0.20385E-06    72   0.306E-02    0.457E-02
DAV:  41    -0.127015874775E+02   -0.23466E-05   -0.28120E-06    64   0.253E-02    0.485E-02
DAV:  42    -0.127015864579E+02    0.10196E-05   -0.33898E-06    64   0.265E-02    0.308E-02
DAV:  43    -0.127015919147E+02   -0.54568E-05   -0.20473E-05    96   0.380E-02    0.189E-02
DAV:  44    -0.127015969918E+02   -0.50771E-05   -0.19297E-06    80   0.417E-02    0.104E-02
DAV:  45    -0.127015973470E+02   -0.35519E-06   -0.14095E-06    64   0.221E-02
   1 F= -.12701597E+02 E0= -.12701597E+02  d E =-.127016E+02  mag=     1.9999
       N       E                     dE             d eps       ncg     rms          rms(c)
DAV:   1    -0.127000385254E+02    0.15585E-02   -0.16870E+00   156   0.403E+01    0.248E-01
DAV:   2    -0.127026203879E+02   -0.25819E-02   -0.26499E-02   160   0.489E+00    0.222E-01
DAV:   3    -0.127027520863E+02   -0.13170E-03   -0.11033E-03   176   0.781E-01    0.217E-01
DAV:   4    -0.127028151111E+02   -0.63025E-04   -0.20146E-04   192   0.280E-01    0.177E-01
DAV:   5    -0.127027682117E+02    0.46899E-04   -0.14458E-04   184   0.264E-01    0.137E-01
DAV:   6    -0.127026783946E+02    0.89817E-04   -0.77090E-05   200   0.192E-01    0.109E-01
DAV:   7    -0.127028723554E+02   -0.19396E-03   -0.39394E-04   192   0.261E-01    0.184E-01
DAV:   8    -0.127028124953E+02    0.59860E-04   -0.50962E-04   184   0.173E-01    0.605E-02
DAV:   9    -0.127028421937E+02   -0.29698E-04   -0.49934E-05   152   0.742E-02    0.184E-02
DAV:  10    -0.127028449290E+02   -0.27353E-05   -0.47692E-05   112   0.507E-02    0.730E-02
DAV:  11    -0.127028275933E+02    0.17336E-04   -0.10249E-05   128   0.515E-02    0.672E-02
DAV:  12    -0.127028263512E+02    0.12422E-05   -0.19418E-05   168   0.636E-02    0.745E-02
DAV:  13    -0.127028196949E+02    0.66563E-05   -0.76809E-07    72   0.219E-02    0.676E-02
DAV:  14    -0.127028192972E+02    0.39763E-06   -0.57742E-06    80   0.398E-02
   2 F= -.12702819E+02 E0= -.12702819E+02  d E =-.122195E-02  mag=     2.0000
       N       E                     dE             d eps       ncg     rms          rms(c)
DAV:   1    -0.127028131145E+02    0.65803E-05   -0.94442E-03   160   0.304E+00    0.435E-02
DAV:   2    -0.127028290155E+02   -0.15901E-04   -0.15122E-04   160   0.366E-01    0.253E-02
DAV:   3    -0.127028345897E+02   -0.55742E-05   -0.66992E-06   112   0.610E-02    0.192E-02
DAV:   4    -0.127028370674E+02   -0.24777E-05   -0.32652E-06    80   0.277E-02    0.184E-02
DAV:   5    -0.127028381340E+02   -0.10666E-05   -0.56740E-06    64   0.277E-02    0.209E-02
DAV:   6    -0.127028353715E+02    0.27626E-05   -0.15855E-05    80   0.440E-02    0.243E-02
DAV:   7    -0.127028355276E+02   -0.15610E-06   -0.62683E-06    64   0.310E-02
   3 F= -.12702836E+02 E0= -.12702835E+02  d E =-.123818E-02  mag=     2.0000
