CuPd                                    
   1.00000000000000     
    17.0000000000000000    0.0000000000000000    0.0000000000000000
     0.0000000000000000   17.0000000000000000    0.0000000000000000
     0.0000000000000000    0.0000000000000000   17.0000000000000000
   Pd
     4
Direct
  0.9477286754636022  0.0353567673467429  0.0688206075408757
  0.0450269338125369  0.0677796129587279  0.9542035935664810
  0.9468828484272520  0.9559078271675794  0.9371054174715819
  0.0603614834730851  0.9409557925269498  0.0398704402445994
 
  0.00000000E+00  0.00000000E+00  0.00000000E+00
  0.00000000E+00  0.00000000E+00  0.00000000E+00
  0.00000000E+00  0.00000000E+00  0.00000000E+00
  0.00000000E+00  0.00000000E+00  0.00000000E+00
