PROCAR new format
# of k-points:    1         # of bands:  26         # of ions:   4

 k-point    1 :    0.00000000 0.00000000 0.00000000     weight = 1.00000000

band   1 # energy   -7.89862317 # occ.  1.00000000
 
ion      s      p      d      f    tot
  1  0.044  0.019  0.184  0.001  0.248
  2  0.044  0.019  0.184  0.001  0.248
  3  0.044  0.019  0.184  0.001  0.247
  4  0.044  0.019  0.184  0.001  0.247
tot  0.174  0.075  0.737  0.003  0.990
 
band   2 # energy   -7.08180014 # occ.  1.00000000
 
ion      s      p      d      f    tot
  1  0.012  0.006  0.224  0.001  0.242
  2  0.012  0.006  0.224  0.001  0.242
  3  0.012  0.006  0.223  0.001  0.241
  4  0.012  0.006  0.224  0.001  0.242
tot  0.048  0.022  0.894  0.002  0.967
 
band   3 # energy   -6.81076349 # occ.  1.00000000
 
ion      s      p      d      f    tot
  1  0.000  0.006  0.313  0.001  0.320
  2  0.018  0.005  0.131  0.000  0.155
  3  0.018  0.005  0.128  0.000  0.152
  4  0.000  0.006  0.313  0.001  0.320
tot  0.037  0.021  0.886  0.002  0.946
 
band   4 # energy   -6.81045063 # occ.  1.00000000
 
ion      s      p      d      f    tot
  1  0.018  0.005  0.130  0.000  0.153
  2  0.000  0.006  0.313  0.001  0.320
  3  0.000  0.006  0.313  0.001  0.320
  4  0.018  0.005  0.130  0.000  0.153
tot  0.037  0.021  0.886  0.002  0.946
 
band   5 # energy   -6.78102472 # occ.  1.00000000
 
ion      s      p      d      f    tot
  1  0.000  0.002  0.240  0.001  0.243
  2  0.000  0.002  0.239  0.001  0.242
  3  0.000  0.002  0.243  0.001  0.246
  4  0.000  0.002  0.241  0.001  0.244
tot  0.001  0.008  0.963  0.002  0.975
 
band   6 # energy   -6.23152306 # occ.  1.00000000
 
ion      s      p      d      f    tot
  1  0.000  0.002  0.239  0.000  0.241
  2  0.000  0.002  0.239  0.000  0.241
  3  0.000  0.002  0.238  0.000  0.241
  4  0.000  0.002  0.239  0.000  0.241
tot  0.000  0.007  0.954  0.002  0.963
 
band   7 # energy   -5.96969582 # occ.  1.00000000
 
ion      s      p      d      f    tot
  1  0.002  0.000  0.224  0.000  0.226
  2  0.002  0.000  0.224  0.000  0.227
  3  0.002  0.000  0.224  0.000  0.226
  4  0.002  0.000  0.224  0.000  0.226
tot  0.009  0.000  0.895  0.001  0.906
 
band   8 # energy   -5.81666409 # occ.  1.00000000
 
ion      s      p      d      f    tot
  1  0.001  0.000  0.302  0.000  0.304
  2  0.006  0.000  0.144  0.000  0.151
  3  0.006  0.000  0.145  0.000  0.151
  4  0.001  0.000  0.302  0.000  0.304
tot  0.014  0.001  0.893  0.001  0.910
 
band   9 # energy   -5.81648316 # occ.  1.00000000
 
ion      s      p      d      f    tot
  1  0.006  0.000  0.144  0.000  0.151
  2  0.001  0.000  0.302  0.000  0.304
  3  0.001  0.000  0.302  0.000  0.304
  4  0.006  0.000  0.144  0.000  0.151
tot  0.014  0.001  0.893  0.001  0.910
 
band  10 # energy   -5.59138460 # occ.  1.00000000
 
ion      s      p      d      f    tot
  1  0.100  0.004  0.047  0.000  0.151
  2  0.100  0.004  0.047  0.000  0.151
  3  0.100  0.004  0.047  0.000  0.151
  4  0.100  0.004  0.047  0.000  0.151
tot  0.399  0.017  0.188  0.001  0.604
 
band  11 # energy   -4.93702974 # occ.  1.00000000
 
ion      s      p      d      f    tot
  1  0.002  0.002  0.226  0.000  0.230
  2  0.002  0.002  0.226  0.000  0.231
  3  0.002  0.002  0.227  0.000  0.231
  4  0.002  0.002  0.227  0.000  0.231
tot  0.008  0.009  0.905  0.001  0.924
 
band  12 # energy   -4.88161466 # occ.  1.00000000
 
ion      s      p      d      f    tot
  1  0.000  0.001  0.012  0.000  0.013
  2  0.003  0.003  0.444  0.001  0.451
  3  0.003  0.003  0.444  0.001  0.451
  4  0.000  0.001  0.012  0.000  0.013
tot  0.007  0.009  0.912  0.002  0.928
 
band  13 # energy   -4.88130123 # occ.  1.00000000
 
ion      s      p      d      f    tot
  1  0.003  0.003  0.444  0.001  0.451
  2  0.000  0.001  0.012  0.000  0.013
  3  0.000  0.001  0.012  0.000  0.013
  4  0.003  0.003  0.444  0.001  0.451
tot  0.007  0.009  0.912  0.002  0.928
 
band  14 # energy   -4.82497748 # occ.  1.00000000
 
ion      s      p      d      f    tot
  1  0.001  0.002  0.227  0.000  0.230
  2  0.001  0.002  0.227  0.000  0.230
  3  0.001  0.002  0.228  0.000  0.231
  4  0.001  0.002  0.228  0.000  0.231
tot  0.002  0.008  0.911  0.001  0.922
 
band  15 # energy   -4.80051607 # occ.  1.00000000
 
ion      s      p      d      f    tot
  1  0.000  0.002  0.228  0.000  0.230
  2  0.000  0.002  0.230  0.000  0.232
  3  0.000  0.002  0.230  0.000  0.232
  4  0.000  0.002  0.228  0.000  0.231
tot  0.000  0.008  0.916  0.001  0.925
 
band  16 # energy   -4.75782314 # occ.  1.00000000
 
ion      s      p      d      f    tot
  1  0.000  0.000  0.124  0.000  0.125
  2  0.000  0.000  0.350  0.000  0.351
  3  0.000  0.000  0.349  0.000  0.350
  4  0.000  0.000  0.124  0.000  0.125
tot  0.001  0.001  0.948  0.001  0.950
 
band  17 # energy   -4.75764342 # occ.  1.00000000
 
ion      s      p      d      f    tot
  1  0.000  0.000  0.350  0.000  0.351
  2  0.000  0.000  0.125  0.000  0.125
  3  0.000  0.000  0.124  0.000  0.124
  4  0.000  0.000  0.349  0.000  0.350
tot  0.001  0.001  0.948  0.001  0.950
 
band  18 # energy   -4.72226420 # occ.  1.00000000
 
ion      s      p      d      f    tot
  1  0.000  0.000  0.238  0.000  0.239
  2  0.000  0.000  0.237  0.000  0.237
  3  0.000  0.000  0.237  0.000  0.238
  4  0.000  0.000  0.238  0.000  0.239
tot  0.000  0.001  0.951  0.001  0.953
 
band  19 # energy   -4.52131887 # occ.  1.00000000
 
ion      s      p      d      f    tot
  1  0.000  0.002  0.139  0.000  0.141
  2  0.000  0.008  0.314  0.001  0.324
  3  0.000  0.008  0.314  0.001  0.324
  4  0.000  0.002  0.139  0.000  0.141
tot  0.000  0.020  0.906  0.003  0.929
 
band  20 # energy   -4.52105180 # occ.  1.00000000
 
ion      s      p      d      f    tot
  1  0.000  0.008  0.314  0.001  0.324
  2  0.000  0.002  0.139  0.000  0.141
  3  0.000  0.002  0.139  0.000  0.141
  4  0.000  0.008  0.314  0.001  0.324
tot  0.000  0.020  0.906  0.003  0.929
 
band  21 # energy   -4.28414509 # occ.  1.00000000
 
ion      s      p      d      f    tot
  1  0.000  0.004  0.228  0.001  0.233
  2  0.000  0.004  0.228  0.001  0.233
  3  0.000  0.004  0.228  0.001  0.233
  4  0.000  0.004  0.228  0.001  0.233
tot  0.000  0.017  0.912  0.003  0.931
 
band  22 # energy   -2.68818083 # occ.  0.00000000
 
ion      s      p      d      f    tot
  1  0.057  0.022  0.015  0.000  0.094
  2  0.057  0.022  0.015  0.000  0.094
  3  0.057  0.022  0.015  0.000  0.095
  4  0.057  0.022  0.015  0.000  0.094
tot  0.228  0.089  0.060  0.000  0.377
 
band  23 # energy   -2.61886528 # occ.  0.00000000
 
ion      s      p      d      f    tot
  1  0.011  0.021  0.020  0.000  0.052
  2  0.098  0.025  0.008  0.000  0.131
  3  0.097  0.025  0.008  0.000  0.130
  4  0.011  0.021  0.020  0.000  0.053
tot  0.216  0.092  0.057  0.000  0.366
 
band  24 # energy   -2.61864848 # occ.  0.00000000
 
ion      s      p      d      f    tot
  1  0.098  0.025  0.008  0.000  0.130
  2  0.011  0.021  0.020  0.000  0.053
  3  0.011  0.021  0.020  0.000  0.052
  4  0.097  0.025  0.008  0.000  0.130
tot  0.216  0.092  0.057  0.000  0.366
 
band  25 # energy   -0.64424603 # occ.  0.00000000
 
ion      s      p      d      f    tot
  1  0.005  0.046  0.003  0.000  0.054
  2  0.005  0.046  0.003  0.000  0.054
  3  0.005  0.046  0.003  0.000  0.054
  4  0.005  0.046  0.003  0.000  0.054
tot  0.020  0.186  0.011  0.000  0.217
 
band  26 # energy   -0.09737398 # occ.  0.00000000
 
ion      s      p      d      f    tot
  1  0.000  0.037  0.004  0.000  0.041
  2  0.008  0.029  0.012  0.000  0.050
  3  0.004  0.033  0.007  0.000  0.045
  4  0.001  0.037  0.005  0.000  0.044
tot  0.014  0.136  0.028  0.001  0.179
 
# of k-points:    1         # of bands:  26         # of ions:   4

 k-point    1 :    0.00000000 0.00000000 0.00000000     weight = 1.00000000

band   1 # energy   -7.77336116 # occ.  1.00000000
 
ion      s      p      d      f    tot
  1  0.046  0.020  0.180  0.001  0.247
  2  0.046  0.020  0.180  0.001  0.248
  3  0.046  0.020  0.180  0.001  0.247
  4  0.046  0.020  0.180  0.001  0.247
tot  0.183  0.081  0.722  0.004  0.990
 
band   2 # energy   -6.57851876 # occ.  1.00000000
 
ion      s      p      d      f    tot
  1  0.012  0.007  0.221  0.001  0.240
  2  0.011  0.007  0.221  0.001  0.240
  3  0.012  0.007  0.219  0.001  0.238
  4  0.012  0.007  0.220  0.001  0.239
tot  0.046  0.027  0.881  0.003  0.957
 
band   3 # energy   -6.52252802 # occ.  1.00000000
 
ion      s      p      d      f    tot
  1  0.000  0.006  0.329  0.001  0.336
  2  0.018  0.005  0.109  0.000  0.133
  3  0.018  0.005  0.111  0.000  0.135
  4  0.000  0.006  0.328  0.001  0.336
tot  0.036  0.024  0.877  0.003  0.940
 
band   4 # energy   -6.52218319 # occ.  1.00000000
 
ion      s      p      d      f    tot
  1  0.018  0.005  0.110  0.000  0.134
  2  0.000  0.006  0.329  0.001  0.336
  3  0.000  0.006  0.328  0.001  0.336
  4  0.018  0.005  0.110  0.000  0.134
tot  0.036  0.024  0.877  0.003  0.940
 
band   5 # energy   -6.11923297 # occ.  1.00000000
 
ion      s      p      d      f    tot
  1  0.001  0.003  0.238  0.001  0.243
  2  0.001  0.003  0.238  0.001  0.243
  3  0.001  0.003  0.238  0.001  0.243
  4  0.001  0.003  0.238  0.001  0.243
tot  0.005  0.012  0.953  0.002  0.972
 
band   6 # energy   -5.87709093 # occ.  1.00000000
 
ion      s      p      d      f    tot
  1  0.000  0.002  0.238  0.000  0.240
  2  0.000  0.002  0.238  0.000  0.241
  3  0.000  0.002  0.237  0.000  0.240
  4  0.000  0.002  0.238  0.000  0.240
tot  0.000  0.008  0.951  0.002  0.961
 
band   7 # energy   -5.68473205 # occ.  1.00000000
 
ion      s      p      d      f    tot
  1  0.005  0.001  0.220  0.000  0.227
  2  0.005  0.001  0.220  0.000  0.227
  3  0.005  0.001  0.220  0.000  0.226
  4  0.005  0.001  0.220  0.000  0.226
tot  0.022  0.002  0.880  0.001  0.906
 
band   8 # energy   -5.54412197 # occ.  1.00000000
 
ion      s      p      d      f    tot
  1  0.003  0.000  0.294  0.000  0.297
  2  0.010  0.001  0.146  0.000  0.156
  3  0.009  0.001  0.146  0.000  0.156
  4  0.003  0.000  0.294  0.000  0.297
tot  0.024  0.002  0.880  0.001  0.907
 
band   9 # energy   -5.54392413 # occ.  1.00000000
 
ion      s      p      d      f    tot
  1  0.009  0.001  0.146  0.000  0.157
  2  0.003  0.000  0.294  0.000  0.297
  3  0.003  0.000  0.294  0.000  0.297
  4  0.010  0.001  0.146  0.000  0.156
tot  0.024  0.002  0.880  0.001  0.907
 
band  10 # energy   -5.52578912 # occ.  1.00000000
 
ion      s      p      d      f    tot
  1  0.096  0.004  0.051  0.000  0.151
  2  0.096  0.004  0.051  0.000  0.151
  3  0.096  0.004  0.051  0.000  0.151
  4  0.096  0.004  0.051  0.000  0.151
tot  0.383  0.017  0.203  0.001  0.605
 
band  11 # energy   -4.74196895 # occ.  1.00000000
 
ion      s      p      d      f    tot
  1  0.002  0.002  0.225  0.000  0.230
  2  0.002  0.002  0.225  0.000  0.230
  3  0.002  0.002  0.225  0.000  0.230
  4  0.002  0.002  0.225  0.000  0.230
tot  0.009  0.009  0.900  0.001  0.920
 
band  12 # energy   -4.69553531 # occ.  1.00000000
 
ion      s      p      d      f    tot
  1  0.000  0.001  0.013  0.000  0.014
  2  0.004  0.003  0.441  0.001  0.448
  3  0.004  0.003  0.441  0.001  0.448
  4  0.000  0.001  0.013  0.000  0.015
tot  0.007  0.009  0.908  0.002  0.926
 
band  13 # energy   -4.69523565 # occ.  1.00000000
 
ion      s      p      d      f    tot
  1  0.004  0.003  0.441  0.001  0.449
  2  0.000  0.001  0.013  0.000  0.015
  3  0.000  0.001  0.013  0.000  0.014
  4  0.004  0.003  0.441  0.001  0.448
tot  0.007  0.009  0.908  0.002  0.926
 
band  14 # energy   -4.60351859 # occ.  1.00000000
 
ion      s      p      d      f    tot
  1  0.000  0.002  0.228  0.000  0.230
  2  0.000  0.002  0.228  0.000  0.230
  3  0.000  0.002  0.228  0.000  0.230
  4  0.000  0.002  0.228  0.000  0.231
tot  0.001  0.007  0.912  0.001  0.921
 
band  15 # energy   -4.59948237 # occ.  1.00000000
 
ion      s      p      d      f    tot
  1  0.000  0.002  0.228  0.000  0.230
  2  0.000  0.002  0.229  0.000  0.231
  3  0.000  0.002  0.229  0.000  0.232
  4  0.000  0.002  0.228  0.000  0.230
tot  0.000  0.008  0.914  0.001  0.923
 
band  16 # energy   -4.53771377 # occ.  1.00000000
 
ion      s      p      d      f    tot
  1  0.000  0.000  0.123  0.000  0.124
  2  0.001  0.000  0.349  0.000  0.350
  3  0.001  0.000  0.349  0.000  0.350
  4  0.000  0.000  0.124  0.000  0.124
tot  0.001  0.001  0.946  0.001  0.949
 
band  17 # energy   -4.53754217 # occ.  1.00000000
 
ion      s      p      d      f    tot
  1  0.001  0.000  0.350  0.000  0.351
  2  0.000  0.000  0.124  0.000  0.124
  3  0.000  0.000  0.124  0.000  0.124
  4  0.001  0.000  0.349  0.000  0.350
tot  0.001  0.001  0.946  0.001  0.949
 
band  18 # energy   -4.51697330 # occ.  1.00000000
 
ion      s      p      d      f    tot
  1  0.000  0.000  0.238  0.000  0.239
  2  0.000  0.000  0.237  0.000  0.238
  3  0.000  0.000  0.237  0.000  0.237
  4  0.000  0.000  0.238  0.000  0.239
tot  0.000  0.001  0.950  0.001  0.952
 
band  19 # energy   -3.86903676 # occ.  0.99999633
 
ion      s      p      d      f    tot
  1  0.000  0.004  0.227  0.001  0.232
  2  0.000  0.004  0.227  0.001  0.232
  3  0.000  0.004  0.227  0.001  0.232
  4  0.000  0.004  0.227  0.001  0.232
tot  0.000  0.017  0.907  0.003  0.928
 
band  20 # energy   -3.83694470 # occ.  0.00000218
 
ion      s      p      d      f    tot
  1  0.000  0.003  0.118  0.000  0.121
  2  0.000  0.007  0.332  0.001  0.341
  3  0.000  0.007  0.332  0.001  0.341
  4  0.000  0.003  0.118  0.000  0.121
tot  0.001  0.020  0.901  0.003  0.924
 
band  21 # energy   -3.83666382 # occ.  0.00000149
 
ion      s      p      d      f    tot
  1  0.000  0.007  0.332  0.001  0.341
  2  0.000  0.003  0.118  0.000  0.121
  3  0.000  0.003  0.118  0.000  0.121
  4  0.000  0.007  0.332  0.001  0.341
tot  0.001  0.020  0.901  0.003  0.924
 
band  22 # energy   -2.53732206 # occ.  0.00000000
 
ion      s      p      d      f    tot
  1  0.052  0.022  0.020  0.000  0.093
  2  0.052  0.022  0.020  0.000  0.093
  3  0.052  0.022  0.020  0.000  0.094
  4  0.052  0.022  0.020  0.000  0.093
tot  0.207  0.087  0.079  0.000  0.373
 
band  23 # energy   -2.44424062 # occ.  0.00000000
 
ion      s      p      d      f    tot
  1  0.007  0.021  0.021  0.000  0.049
  2  0.091  0.024  0.015  0.000  0.130
  3  0.091  0.024  0.015  0.000  0.130
  4  0.007  0.021  0.021  0.000  0.049
tot  0.197  0.091  0.072  0.000  0.359
 
band  24 # energy   -2.44403394 # occ.  0.00000000
 
ion      s      p      d      f    tot
  1  0.091  0.024  0.015  0.000  0.130
  2  0.007  0.021  0.021  0.000  0.049
  3  0.007  0.021  0.021  0.000  0.049
  4  0.091  0.024  0.015  0.000  0.130
tot  0.197  0.091  0.072  0.000  0.359
 
band  25 # energy   -0.58915442 # occ.  0.00000000
 
ion      s      p      d      f    tot
  1  0.005  0.043  0.003  0.000  0.050
  2  0.005  0.043  0.003  0.000  0.050
  3  0.005  0.043  0.003  0.000  0.050
  4  0.005  0.043  0.003  0.000  0.050
tot  0.019  0.171  0.011  0.000  0.201
 
band  26 # energy   -0.04744541 # occ.  0.00000000
 
ion      s      p      d      f    tot
  1  0.001  0.033  0.005  0.000  0.040
  2  0.006  0.029  0.009  0.000  0.045
  3  0.006  0.030  0.009  0.000  0.046
  4  0.001  0.034  0.005  0.000  0.041
tot  0.015  0.127  0.029  0.001  0.171
 
