CuPd                                    
           1
    17.000000    0.000000    0.000000
     0.000000   17.000000    0.000000
     0.000000    0.000000   17.000000
   Pd
   4
Direct configuration=     1
   0.94755088  0.03547435  0.06903671
   0.04518329  0.06801100  0.95406018
   0.94670865  0.95575353  0.93691294
   0.06055712  0.94076112  0.03999024
Direct configuration=     2
   0.94774310  0.03534723  0.06880307
   0.04501425  0.06776084  0.95421523
   0.94689698  0.95592035  0.93712103
   0.06034561  0.94097159  0.03986072
Direct configuration=     3
   0.94772868  0.03535677  0.06882061
   0.04502693  0.06777961  0.95420359
   0.94688285  0.95590783  0.93710542
   0.06036148  0.94095579  0.03987044
