       N       E                     dE             d eps       ncg     rms          rms(c)
DAV:   1     0.274229283469E+04    0.27423E+04   -0.11221E+05  5680   0.108E+03
DAV:   2    -0.155415186005E+03   -0.28977E+04   -0.26929E+04  8376   0.250E+02
DAV:   3    -0.662886121246E+03   -0.50747E+03   -0.50517E+03  6928   0.106E+02
DAV:   4    -0.681011537976E+03   -0.18125E+02   -0.18065E+02  6976   0.249E+01
DAV:   5    -0.681506859109E+03   -0.49532E+00   -0.49453E+00  7656   0.362E+00
DAV:   6    -0.681520281197E+03   -0.13422E-01   -0.13403E-01  7704   0.594E-01
DAV:   7    -0.681520699598E+03   -0.41840E-03   -0.41792E-03  7752   0.973E-02
DAV:   8    -0.681520718027E+03   -0.18430E-04   -0.18411E-04  7496   0.195E-02    0.547E+01
DAV:   9    -0.477771380442E+03    0.20375E+03   -0.31111E+02  5664   0.264E+01    0.303E+01
DAV:  10    -0.548321580112E+03   -0.70550E+02   -0.61215E+01  5944   0.130E+01    0.177E+01
DAV:  11    -0.588311435076E+03   -0.39990E+02   -0.32052E+01  6064   0.862E+00    0.101E+01
DAV:  12    -0.619714737117E+03   -0.31403E+02   -0.14952E+01  5968   0.582E+00    0.691E+00
DAV:  13    -0.643896110771E+03   -0.24181E+02   -0.13971E+01  5952   0.494E+00    0.377E+00
DAV:  14    -0.656054202484E+03   -0.12158E+02   -0.67681E+00  5848   0.293E+00    0.231E+00
DAV:  15    -0.660344211619E+03   -0.42900E+01   -0.29180E+00  5704   0.192E+00    0.853E-01
DAV:  16    -0.663789521970E+03   -0.34453E+01   -0.66520E-01  6088   0.830E-01    0.306E-01
DAV:  17    -0.664263279005E+03   -0.47376E+00   -0.35780E-02  6072   0.274E-01    0.162E-01
DAV:  18    -0.664370758608E+03   -0.10748E+00   -0.18192E-02  5672   0.184E-01    0.751E-02
DAV:  19    -0.664392107039E+03   -0.21348E-01   -0.22946E-03  5840   0.105E-01    0.439E-02
DAV:  20    -0.664415504076E+03   -0.23397E-01   -0.17756E-03  5576   0.687E-02    0.220E-02
DAV:  21    -0.664419078966E+03   -0.35749E-02   -0.49938E-04  5912   0.434E-02    0.159E-02
DAV:  22    -0.664423395000E+03   -0.43160E-02   -0.51340E-04  5832   0.453E-02    0.122E-02
DAV:  23    -0.664424685719E+03   -0.12907E-02   -0.22617E-04  5744   0.291E-02    0.651E-03
DAV:  24    -0.664425242655E+03   -0.55694E-03   -0.16735E-05  4808   0.876E-03    0.541E-03
DAV:  25    -0.664425613167E+03   -0.37051E-03   -0.14899E-05  4624   0.601E-03    0.193E-03
DAV:  26    -0.664425680206E+03   -0.67039E-04   -0.15844E-06  4408   0.271E-03    0.148E-03
DAV:  27    -0.664425724776E+03   -0.44570E-04   -0.24258E-06  4704   0.203E-03    0.109E-03
DAV:  28    -0.664425734301E+03   -0.95245E-05   -0.49892E-07  4280   0.129E-03    0.532E-04
DAV:  29    -0.664425766684E+03   -0.32383E-04   -0.42912E-07  3808   0.119E-03    0.627E-04
DAV:  30    -0.664425782957E+03   -0.16273E-04   -0.29273E-07  3808   0.949E-04    0.300E-04
DAV:  31    -0.664425785501E+03   -0.25445E-05   -0.26754E-08  4176   0.285E-04    0.133E-04
DAV:  32    -0.664425787205E+03   -0.17035E-05   -0.48048E-09  3744   0.157E-04    0.132E-04
DAV:  33    -0.664425787736E+03   -0.53100E-06   -0.29563E-10  3744   0.940E-05
   1 F= -.66690562E+03 E0= -.66690562E+03  d E =-.666906E+03  mag=     0.0000
