 vasp.5.4.4.18Apr17-6-g9f103f2a35 (build Jul 15 2022 14:42:01) complex          
  
 executed on             LinuxIFC date 2023.01.21  04:37:39
 running on   32 total cores
 distrk:  each k-point on   32 cores,    1 groups
 distr:  one band on NCORES_PER_BAND=   4 cores,    8 groups


--------------------------------------------------------------------------------------------------------


 INCAR:
 POTCAR:    PAW_PBE C 08Apr2002                   
 POTCAR:    PAW_PBE C 08Apr2002                   
  local pseudopotential read in
  partial core-charges read in
  partial kinetic energy density read in
  atomic valenz-charges read in
  non local Contribution for L=           0  read in
    real space projection operators read in
  non local Contribution for L=           0  read in
    real space projection operators read in
  non local Contribution for L=           1  read in
    real space projection operators read in
  non local Contribution for L=           1  read in
    real space projection operators read in
    PAW grid and wavefunctions read in
 
   number of l-projection  operators is LMAX  =           4
   number of lm-projection operators is LMMAX =           8
 
 Optimization of the real space projectors (new method)

 maximal supplied QI-value         = 25.13
 optimisation between [QCUT,QGAM] = [ 12.32, 24.88] = [ 42.47,173.37] Ry 
 Optimized for a Real-space Cutoff    1.06 Angstroem

   l    n(q)    QCUT    max X(q) W(low)/X(q) W(high)/X(q)  e(spline) 
   0      8    12.315   115.676    0.34E-03    0.18E-03    0.23E-06
   0      8    12.315    87.132    0.34E-03    0.18E-03    0.22E-06
   1      7    12.315     4.429    0.45E-03    0.12E-03    0.18E-06
   1      7    12.315     2.733    0.35E-03    0.97E-04    0.15E-06
  PAW_PBE C 08Apr2002                   :
 energy of atom  1       EATOM= -147.1560
 kinetic energy error for atom=    0.0057 (will be added to EATOM!!)
 
 
 POSCAR: Graphene                                
  positions in direct lattice
  velocities in cartesian coordinates
 exchange correlation table for  LEXCH =        8
   RHO(1)=    0.500       N(1)  =     2000
   RHO(2)=  100.500       N(2)  =     4000
 


--------------------------------------------------------------------------------------------------------


 ion  position               nearest neighbor table
   1  0.056  0.028  0.000-  72 1.42  37 1.42  42 1.42
   2  0.056  0.194  0.000-  67 1.42  37 1.42  38 1.42
   3  0.056  0.361  0.000-  39 1.42  68 1.42  38 1.42
   4  0.056  0.528  0.000-  69 1.42  40 1.42  39 1.42
   5  0.056  0.694  0.000-  70 1.42  41 1.42  40 1.42
   6  0.056  0.861  0.000-  41 1.42  71 1.42  42 1.42
   7  0.222  0.028  0.000-  42 1.42  43 1.42  48 1.42
   8  0.222  0.194  0.000-  37 1.42  43 1.42  44 1.42
   9  0.222  0.361  0.000-  45 1.42  38 1.42  44 1.42
  10  0.222  0.528  0.000-  39 1.42  46 1.42  45 1.42
  11  0.222  0.694  0.000-  40 1.42  47 1.42  46 1.42
  12  0.222  0.861  0.000-  41 1.42  47 1.42  48 1.42
  13  0.389  0.028  0.000-  54 1.42  48 1.42  49 1.42
  14  0.389  0.194  0.000-  43 1.42  49 1.42  50 1.42
  15  0.389  0.361  0.000-  51 1.42  50 1.42  44 1.42
  16  0.389  0.528  0.000-  52 1.42  51 1.42  45 1.42
  17  0.389  0.694  0.000-  46 1.42  52 1.42  53 1.42
  18  0.389  0.861  0.000-  47 1.42  53 1.42  54 1.42
  19  0.556  0.028  0.000-  55 1.42  54 1.42  60 1.42
  20  0.556  0.194  0.000-  55 1.42  49 1.42  56 1.42
  21  0.556  0.361  0.000-  57 1.42  56 1.42  50 1.42
  22  0.556  0.528  0.000-  58 1.42  57 1.42  51 1.42
  23  0.556  0.694  0.000-  52 1.42  59 1.42  58 1.42
  24  0.556  0.861  0.000-  53 1.42  59 1.42  60 1.42
  25  0.722  0.028  0.000-  66 1.42  60 1.42  61 1.42
  26  0.722  0.194  0.000-  55 1.42  61 1.42  62 1.42
  27  0.722  0.361  0.000-  63 1.42  62 1.42  56 1.42
  28  0.722  0.528  0.000-  64 1.42  63 1.42  57 1.42
  29  0.722  0.694  0.000-  58 1.42  64 1.42  65 1.42
  30  0.722  0.861  0.000-  65 1.42  59 1.42  66 1.42
  31  0.889  0.028  0.000-  66 1.42  67 1.42  72 1.42
  32  0.889  0.194  0.000-  61 1.42  67 1.42  68 1.42
  33  0.889  0.361  0.000-  69 1.42  68 1.42  62 1.42
  34  0.889  0.528  0.000-  70 1.42  63 1.42  69 1.42
  35  0.889  0.694  0.000-  64 1.42  70 1.42  71 1.42
  36  0.889  0.861  0.000-  71 1.42  65 1.42  72 1.42
  37  0.111  0.139  0.000-   8 1.42   2 1.42   1 1.42
  38  0.111  0.306  0.000-   9 1.42   2 1.42   3 1.42
  39  0.111  0.472  0.000-  10 1.42   3 1.42   4 1.42
  40  0.111  0.639  0.000-   4 1.42  11 1.42   5 1.42
  41  0.111  0.806  0.000-   6 1.42  12 1.42   5 1.42
  42  0.111  0.972  0.000-   7 1.42   6 1.42   1 1.42
  43  0.278  0.139  0.000-  14 1.42   8 1.42   7 1.42
  44  0.278  0.306  0.000-   9 1.42  15 1.42   8 1.42
  45  0.278  0.472  0.000-   9 1.42  16 1.42  10 1.42
  46  0.278  0.639  0.000-  10 1.42  17 1.42  11 1.42
  47  0.278  0.806  0.000-  18 1.42  12 1.42  11 1.42
  48  0.278  0.972  0.000-  13 1.42  12 1.42   7 1.42
  49  0.444  0.139  0.000-  14 1.42  20 1.42  13 1.42
  50  0.444  0.306  0.000-  15 1.42  14 1.42  21 1.42
  51  0.444  0.472  0.000-  15 1.42  16 1.42  22 1.42
  52  0.444  0.639  0.000-  16 1.42  23 1.42  17 1.42
  53  0.444  0.806  0.000-  18 1.42  24 1.42  17 1.42
  54  0.444  0.972  0.000-  13 1.42  18 1.42  19 1.42
  55  0.611  0.139  0.000-  26 1.42  20 1.42  19 1.42
  56  0.611  0.306  0.000-  21 1.42  27 1.42  20 1.42
  57  0.611  0.472  0.000-  21 1.42  22 1.42  28 1.42
  58  0.611  0.639  0.000-  22 1.42  29 1.42  23 1.42
  59  0.611  0.806  0.000-  30 1.42  24 1.42  23 1.42
  60  0.611  0.972  0.000-  25 1.42  24 1.42  19 1.42
  61  0.778  0.139  0.000-  32 1.42  26 1.42  25 1.42
  62  0.778  0.306  0.000-  27 1.42  33 1.42  26 1.42
  63  0.778  0.472  0.000-  27 1.42  28 1.42  34 1.42
  64  0.778  0.639  0.000-  28 1.42  35 1.42  29 1.42
  65  0.778  0.806  0.000-  30 1.42  36 1.42  29 1.42
  66  0.778  0.972  0.000-  25 1.42  31 1.42  30 1.42
  67  0.944  0.139  0.000-   2 1.42  32 1.42  31 1.42
  68  0.944  0.306  0.000-  33 1.42   3 1.42  32 1.42
  69  0.944  0.472  0.000-   4 1.42  33 1.42  34 1.42
  70  0.944  0.639  0.000-   5 1.42  34 1.42  35 1.42
  71  0.944  0.806  0.000-   6 1.42  36 1.42  35 1.42
  72  0.944  0.972  0.000-   1 1.42  36 1.42  31 1.42
 
  LATTYP: Found a hexagonal cell.
 ALAT       =    14.7681255341
 C/A-ratio  =     1.1511278097
  
  Lattice vectors:
  
 A1 = (  14.7681255341,   0.0000000000,   0.0000000000)
 A2 = (  -7.3840627670,  12.7895718788,   0.0000000000)
 A3 = (   0.0000000000,   0.0000000000,  17.0000000000)


Analysis of symmetry for initial positions (statically):
=====================================================================
 Subroutine PRICEL returns following result:
 
  LATTYP: Found a hexagonal cell.
 ALAT       =     2.4613539471
 C/A-ratio  =     6.9067677245
  
  Lattice vectors:
  
 A1 = (   2.4613540000,   0.0000000000,   0.0000000000)
 A2 = (  -1.2306769470,   2.1315950000,   0.0000000000)
 A3 = (   0.0000000000,   0.0000000000,  17.0000000000)
 
  36 primitive cells build up your supercell.
 

 Routine SETGRP: Setting up the symmetry group for a 
 hexagonal supercell.


 Subroutine GETGRP returns: Found 24 space group operations
 (whereof  8 operations were pure point group operations)
 out of a pool of 24 trial point group operations.


The static configuration has the point symmetry D_2h.
 The point group associated with its full space group is D_6h.


Analysis of symmetry for dynamics (positions and initial velocities):
=====================================================================
 Subroutine PRICEL returns following result:
 
  LATTYP: Found a hexagonal cell.
 ALAT       =     2.4613539471
 C/A-ratio  =     6.9067677245
  
  Lattice vectors:
  
 A1 = (   2.4613540000,   0.0000000000,   0.0000000000)
 A2 = (  -1.2306769470,   2.1315950000,   0.0000000000)
 A3 = (   0.0000000000,   0.0000000000,  17.0000000000)
 
  36 primitive cells build up your supercell.
 

 Routine SETGRP: Setting up the symmetry group for a 
 hexagonal supercell.


 Subroutine GETGRP returns: Found 24 space group operations
 (whereof  8 operations were pure point group operations)
 out of a pool of 24 trial point group operations.


The dynamic configuration has the point symmetry D_2h.
 The point group associated with its full space group is D_6h.


Analysis of structural, dynamic, and magnetic symmetry:
=====================================================================
 Subroutine PRICEL returns following result:
 
  LATTYP: Found a hexagonal cell.
 ALAT       =     2.4613539471
 C/A-ratio  =     6.9067677245
  
  Lattice vectors:
  
 A1 = (   2.4613540000,   0.0000000000,   0.0000000000)
 A2 = (  -1.2306769470,   2.1315950000,   0.0000000000)
 A3 = (   0.0000000000,   0.0000000000,  17.0000000000)
 
  36 primitive cells build up your supercell.
 

 Routine SETGRP: Setting up the symmetry group for a 
 hexagonal supercell.


 Subroutine GETGRP returns: Found 24 space group operations
 (whereof  8 operations were pure point group operations)
 out of a pool of 24 trial point group operations.


The magnetic configuration has the point symmetry D_2h.
 The point group associated with its full space group is D_6h.


 Subroutine INISYM returns: Found 24 space group operations
 (whereof  8 operations are pure point group operations),
 and found    36 'primitive' translations

 
 
 KPOINTS: Automatic mesh                          

Automatic generation of k-mesh.
Space group operators:
 irot       det(A)        alpha          n_x          n_y          n_z        tau_x        tau_y        tau_z
    1     1.000000     0.000000     1.000000     0.000000     0.000000     0.000000     0.000000     0.000000
    2    -1.000000     0.000000     1.000000     0.000000     0.000000     0.000000     0.000000     0.000000
    3     1.000000   180.000000     0.000000     0.000000     1.000000     0.000000     0.000000     0.000000
    4    -1.000000   180.000000     0.000000     0.000000     1.000000     0.000000     0.000000     0.000000
    5     1.000000   180.000000     0.500000    -0.866025     0.000000     0.000000     0.000000     0.000000
    6    -1.000000   180.000000     0.500000    -0.866025     0.000000     0.000000     0.000000     0.000000
    7     1.000000   180.000000     0.866025     0.500000     0.000000     0.000000     0.000000     0.000000
    8    -1.000000   180.000000     0.866025     0.500000     0.000000     0.000000     0.000000     0.000000
    9     1.000000    60.000000     0.000000     0.000000    -1.000000     0.083333     0.083333     0.000000
   10    -1.000000    60.000000     0.000000     0.000000    -1.000000     0.083333     0.083333     0.000000
   11     1.000000   120.000000     0.000000     0.000000    -1.000000     0.083333     0.000000     0.000000
   12    -1.000000   120.000000     0.000000     0.000000    -1.000000     0.083333     0.000000     0.000000
   13     1.000000   120.000000     0.000000     0.000000     1.000000     0.083333     0.083333     0.000000
   14    -1.000000   120.000000     0.000000     0.000000     1.000000     0.083333     0.083333     0.000000
   15     1.000000    60.000000     0.000000     0.000000     1.000000     0.083333     0.000000     0.000000
   16    -1.000000    60.000000     0.000000     0.000000     1.000000     0.083333     0.000000     0.000000
   17     1.000000   180.000000     1.000000    -0.000000     0.000000     0.083333     0.000000     0.000000
   18    -1.000000   180.000000     1.000000    -0.000000     0.000000     0.083333     0.000000     0.000000
   19     1.000000   180.000000     0.866025    -0.500000     0.000000     0.083333     0.083333     0.000000
   20    -1.000000   180.000000     0.866025    -0.500000     0.000000     0.083333     0.083333     0.000000
   21     1.000000   180.000000     0.000000     1.000000     0.000000     0.083333     0.000000     0.000000
   22    -1.000000   180.000000     0.000000     1.000000     0.000000     0.083333     0.000000     0.000000
   23     1.000000   180.000000    -0.500000    -0.866025     0.000000     0.083333     0.083333     0.000000
   24    -1.000000   180.000000    -0.500000    -0.866025     0.000000     0.083333     0.083333     0.000000
 
 Subroutine IBZKPT returns following result:
 ===========================================
 
 Found      6 irreducible k-points:
 
 Following reciprocal coordinates:
            Coordinates               Weight
  0.125000  0.125000  0.000000     48.000000
  0.375000  0.125000  0.000000     96.000000
 -0.375000  0.125000  0.000000     96.000000
 -0.125000  0.125000  0.000000     48.000000
  0.375000  0.375000  0.000000     48.000000
 -0.375000  0.375000  0.000000     48.000000
 
 Following cartesian coordinates:
            Coordinates               Weight
  0.008464  0.014660  0.000000     48.000000
  0.025393  0.024434  0.000000     96.000000
 -0.025393 -0.004887  0.000000     96.000000
 -0.008464  0.004887  0.000000     48.000000
  0.025393  0.043981  0.000000     48.000000
 -0.025393  0.014660  0.000000     48.000000
 


--------------------------------------------------------------------------------------------------------




 Dimension of arrays:
   k-points           NKPTS =      6   k-points in BZ     NKDIM =      6   number of bands    NBANDS=    224
   number of dos      NEDOS =    301   number of ions     NIONS =     72
   non local maximal  LDIM  =      4   non local SUM 2l+1 LMDIM =      8
   total plane-waves  NPLWV = 874800
   max r-space proj   IRMAX =   1418   max aug-charges    IRDMAX=  25917
   dimension x,y,z NGX =    90 NGY =   90 NGZ =  108
   dimension x,y,z NGXF=   180 NGYF=  180 NGZF=  216
   support grid    NGXF=   360 NGYF=  360 NGZF=  432
   ions per type =              72
   NGX,Y,Z   is equivalent  to a cutoff of  10.13, 10.13, 10.56 a.u.
   NGXF,Y,Z  is equivalent  to a cutoff of  20.26, 20.26, 21.12 a.u.

 SYSTEM =  molecule                                
 POSCAR =  Graphene                                

 Startparameter for this run:
   NWRITE =      1    write-flag & timer
   PREC   = normal    normal or accurate (medium, high low for compatibility)
   ISTART =      0    job   : 0-new  1-cont  2-samecut
   ICHARG =      2    charge: 1-file 2-atom 10-const
   ISPIN  =      2    spin polarized calculation?
   LNONCOLLINEAR =      F non collinear calculations
   LSORBIT =      F    spin-orbit coupling
   INIWAV =      1    electr: 0-lowe 1-rand  2-diag
   LASPH  =      T    aspherical Exc in radial PAW
   METAGGA=      F    non-selfconsistent MetaGGA calc.

 Electronic Relaxation 1
   ENCUT  =  600.0 eV  44.10 Ry    6.64 a.u.  29.50 29.50 33.95*2*pi/ulx,y,z
   ENINI  =  600.0     initial cutoff
   ENAUG  =  644.9 eV  augmentation charge cutoff
   NELM   =    120;   NELMIN=  6; NELMDL= -8     # of ELM steps 
   EDIFF  = 0.1E-05   stopping-criterion for ELM
   LREAL  =      T    real-space projection
   NLSPLINE    = F    spline interpolate recip. space projectors
   LCOMPAT=      F    compatible to vasp.4.4
   GGA_COMPAT  = T    GGA compatible to vasp.4.4-vasp.4.6
   LMAXPAW     = -100 max onsite density
   LMAXMIX     =    2 max onsite mixed and CHGCAR
   VOSKOWN=      0    Vosko Wilk Nusair interpolation
   ROPT   =   -0.00050
 Ionic relaxation
   EDIFFG = -.1E-01   stopping-criterion for IOM
   NSW    =    200    number of steps for IOM
   NBLOCK =      1;   KBLOCK =    200    inner block; outer block 
   IBRION =      2    ionic relax: 0-MD 1-quasi-New 2-CG
   NFREE  =      1    steps in history (QN), initial steepest desc. (CG)
   ISIF   =      0    stress and relaxation
   IWAVPR =     11    prediction:  0-non 1-charg 2-wave 3-comb
   ISYM   =      2    0-nonsym 1-usesym 2-fastsym
   LCORR  =      T    Harris-Foulkes like correction to forces

   POTIM  = 0.5000    time-step for ionic-motion
   TEIN   =    0.0    initial temperature
   TEBEG  =    0.0;   TEEND  =   0.0 temperature during run
   SMASS  =  -3.00    Nose mass-parameter (am)
   estimated Nose-frequenzy (Omega)   =  0.10E-29 period in steps =****** mass=  -0.498E-26a.u.
   SCALEE = 1.0000    scale energy and forces
   NPACO  =    256;   APACO  = 16.0  distance and # of slots for P.C.
   PSTRESS=    0.0 pullay stress

  Mass of Ions in am
   POMASS =  12.01
  Ionic Valenz
   ZVAL   =   4.00
  Atomic Wigner-Seitz radii
   RWIGS  =  -1.00
  virtual crystal weights 
   VCA    =   1.00
   NELECT =     288.0000    total number of electrons
   NUPDOWN=      -1.0000    fix difference up-down

 DOS related values:
   EMIN   =  10.00;   EMAX   =-10.00  energy-range for DOS
   EFERMI =   0.00
   ISMEAR =     0;   SIGMA  =   0.01  broadening in eV -4-tet -1-fermi 0-gaus

 Electronic relaxation 2 (details)
   IALGO  =     38    algorithm
   LDIAG  =      T    sub-space diagonalisation (order eigenvalues)
   LSUBROT=      F    optimize rotation matrix (better conditioning)
   TURBO    =      0    0=normal 1=particle mesh
   IRESTART =      0    0=no restart 2=restart with 2 vectors
   NREBOOT  =      0    no. of reboots
   NMIN     =      0    reboot dimension
   EREF     =   0.00    reference energy to select bands
   IMIX   =      4    mixing-type and parameters
     AMIX     =   0.40;   BMIX     =  1.00
     AMIX_MAG =   1.60;   BMIX_MAG =  1.00
     AMIN     =   0.10
     WC   =   100.;   INIMIX=   1;  MIXPRE=   1;  MAXMIX= -45

 Intra band minimization:
   WEIMIN = 0.0010     energy-eigenvalue tresh-hold
   EBREAK =  0.11E-08  absolut break condition
   DEPER  =   0.30     relativ break condition  

   TIME   =   0.40     timestep for ELM

  volume/ion in A,a.u.               =      44.60       300.95
  Fermi-wavevector in a.u.,A,eV,Ry     =   0.732817  1.384823  7.306612  0.537021
  Thomas-Fermi vector in A             =   1.825373
 
 Write flags
   LWAVE        =      F    write WAVECAR
   LDOWNSAMPLE  =      F    k-point downsampling of WAVECAR
   LCHARG       =      F    write CHGCAR
   LVTOT        =      F    write LOCPOT, total local potential
   LVHAR        =      F    write LOCPOT, Hartree potential only
   LELF         =      F    write electronic localiz. function (ELF)
   LORBIT       =     10    0 simple, 1 ext, 2 COOP (PROOUT), +10 PAW based schemes


 Dipole corrections
   LMONO  =      F    monopole corrections only (constant potential shift)
   LDIPOL =      F    correct potential (dipole corrections)
   IDIPOL =      0    1-x, 2-y, 3-z, 4-all directions 
   EPSILON=  1.0000000 bulk dielectric constant

 Exchange correlation treatment:
   GGA     =    --    GGA type
   LEXCH   =     8    internal setting for exchange type
   VOSKOWN=      0    Vosko Wilk Nusair interpolation
   LHFCALC =     F    Hartree Fock is set to
   LHFONE  =     F    Hartree Fock one center treatment
   AEXX    =    0.0000 exact exchange contribution

 Linear response parameters
   LEPSILON=     F    determine dielectric tensor
   LRPA    =     F    only Hartree local field effects (RPA)
   LNABLA  =     F    use nabla operator in PAW spheres
   LVEL    =     F    velocity operator in full k-point grid
   LINTERFAST=   F  fast interpolation
   KINTER  =     0    interpolate to denser k-point grid
   CSHIFT  =0.1000    complex shift for real part using Kramers Kronig
   OMEGAMAX=  -1.0    maximum frequency
   DEG_THRESHOLD= 0.2000000E-02 threshold for treating states as degnerate
   RTIME   =   -0.100 relaxation time in fs
  (WPLASMAI=    0.000 imaginary part of plasma frequency in eV, 0.658/RTIME)
   DFIELD  = 0.0000000 0.0000000 0.0000000 field for delta impulse in time
 
 Orbital magnetization related:
   ORBITALMAG=     F  switch on orbital magnetization
   LCHIMAG   =     F  perturbation theory with respect to B field
   DQ        =  0.001000  dq finite difference perturbation B field
   LLRAUG    =     F  two centre corrections for induced B field



--------------------------------------------------------------------------------------------------------


 conjugate gradient relaxation of ions
 charge density and potential will be updated during run
 spin polarized calculation
 Variant of blocked Davidson
 Davidson routine will perform the subspace rotation
 perform sub-space diagonalisation
    after iterative eigenvector-optimisation
 modified Broyden-mixing scheme, WC =      100.0
 initial mixing is a Kerker type mixing with AMIX =  0.4000 and BMIX =      1.0000
 Hartree-type preconditioning will be used
 using additional bands           80
 real space projection scheme for non local part
 use partial core corrections
 calculate Harris-corrections to forces 
   (improved forces if not selfconsistent)
 use gradient corrections 
 use of overlap-Matrix (Vanderbilt PP)
 Gauss-broadening in eV      SIGMA  =   0.01


--------------------------------------------------------------------------------------------------------


  energy-cutoff  :      600.00
  volume of cell :     3210.93
      direct lattice vectors                 reciprocal lattice vectors
    14.768125534  0.000000000  0.000000000     0.067713401  0.039094350  0.000000000
    -7.384062767 12.789571879  0.000000000     0.000000000  0.078188700  0.000000000
     0.000000000  0.000000000 17.000000000     0.000000000  0.000000000  0.058823529

  length of vectors
    14.768125534 14.768125534 17.000000000     0.078188700  0.078188700  0.058823529


 
 k-points in units of 2pi/SCALE and weight: Automatic mesh                          
   0.00846418  0.01466038  0.00000000       0.125
   0.02539253  0.02443397  0.00000000       0.250
  -0.02539253 -0.00488679  0.00000000       0.250
  -0.00846418  0.00488679  0.00000000       0.125
   0.02539253  0.04398114  0.00000000       0.125
  -0.02539253  0.01466038  0.00000000       0.125
 
 k-points in reciprocal lattice and weights: Automatic mesh                          
   0.12500000  0.12500000  0.00000000       0.125
   0.37500000  0.12500000  0.00000000       0.250
  -0.37500000  0.12500000  0.00000000       0.250
  -0.12500000  0.12500000  0.00000000       0.125
   0.37500000  0.37500000  0.00000000       0.125
  -0.37500000  0.37500000  0.00000000       0.125
 
 position of ions in fractional coordinates (direct lattice) 
   0.05555550  0.02777779  0.00000000
   0.05555550  0.19444443  0.00000000
   0.05555553  0.36111115  0.00000000
   0.05555554  0.52777778  0.00000000
   0.05555547  0.69444442  0.00000000
   0.05555554  0.86111107  0.00000000
   0.22222222  0.02777779  0.00000000
   0.22222222  0.19444443  0.00000000
   0.22222225  0.36111115  0.00000000
   0.22222219  0.52777778  0.00000000
   0.22222219  0.69444442  0.00000000
   0.22222218  0.86111107  0.00000000
   0.38888894  0.02777779  0.00000000
   0.38888887  0.19444443  0.00000000
   0.38888890  0.36111115  0.00000000
   0.38888891  0.52777778  0.00000000
   0.38888891  0.69444442  0.00000000
   0.38888883  0.86111107  0.00000000
   0.55555555  0.02777779  0.00000000
   0.55555555  0.19444443  0.00000000
   0.55555559  0.36111115  0.00000000
   0.55555559  0.52777778  0.00000000
   0.55555552  0.69444442  0.00000000
   0.55555552  0.86111107  0.00000000
   0.72222227  0.02777779  0.00000000
   0.72222220  0.19444443  0.00000000
   0.72222224  0.36111115  0.00000000
   0.72222224  0.52777778  0.00000000
   0.72222224  0.69444442  0.00000000
   0.72222224  0.86111107  0.00000000
   0.88888885  0.02777779  0.00000000
   0.88888885  0.19444443  0.00000000
   0.88888889  0.36111115  0.00000000
   0.88888889  0.52777778  0.00000000
   0.88888889  0.69444442  0.00000000
   0.88888889  0.86111107  0.00000000
   0.11111114  0.13888893  0.00000000
   0.11111114  0.30555558  0.00000000
   0.11111114  0.47222222  0.00000000
   0.11111108  0.63888885  0.00000000
   0.11111111  0.80555557  0.00000000
   0.11111111  0.97222221  0.00000000
   0.27777779  0.13888893  0.00000000
   0.27777779  0.30555558  0.00000000
   0.27777779  0.47222222  0.00000000
   0.27777779  0.63888885  0.00000000
   0.27777783  0.80555557  0.00000000
   0.27777783  0.97222221  0.00000000
   0.44444444  0.13888893  0.00000000
   0.44444444  0.30555558  0.00000000
   0.44444444  0.47222222  0.00000000
   0.44444444  0.63888885  0.00000000
   0.44444441  0.80555557  0.00000000
   0.44444441  0.97222221  0.00000000
   0.61111113  0.13888893  0.00000000
   0.61111112  0.30555558  0.00000000
   0.61111112  0.47222222  0.00000000
   0.61111113  0.63888885  0.00000000
   0.61111116  0.80555557  0.00000000
   0.61111116  0.97222221  0.00000000
   0.77777778  0.13888893  0.00000000
   0.77777777  0.30555558  0.00000000
   0.77777777  0.47222222  0.00000000
   0.77777778  0.63888885  0.00000000
   0.77777775  0.80555557  0.00000000
   0.77777774  0.97222221  0.00000000
   0.94444449  0.13888893  0.00000000
   0.94444442  0.30555558  0.00000000
   0.94444449  0.47222222  0.00000000
   0.94444443  0.63888885  0.00000000
   0.94444446  0.80555557  0.00000000
   0.94444446  0.97222221  0.00000000
 
 position of ions in cartesian coordinates  (Angst):
   0.61533772  0.35526600  0.00000000
  -0.61533928  2.48686100  0.00000000
  -1.84601628  4.61845700  0.00000000
  -3.07669304  6.75005188  0.00000000
  -4.30737104  8.88164688  0.00000000
  -5.53804704 11.01324188  0.00000000
   3.07669272  0.35526600  0.00000000
   1.84601572  2.48686100  0.00000000
   0.61533872  4.61845700  0.00000000
  -0.61533904  6.75005188  0.00000000
  -1.84601604  8.88164688  0.00000000
  -3.07669304 11.01324188  0.00000000
   5.53804772  0.35526600  0.00000000
   4.30736972  2.48686100  0.00000000
   3.07669272  4.61845700  0.00000000
   1.84601596  6.75005188  0.00000000
   0.61533896  8.88164688  0.00000000
  -0.61533904 11.01324188  0.00000000
   7.99940126  0.35526600  0.00000000
   6.76872426  2.48686100  0.00000000
   5.53804726  4.61845700  0.00000000
   4.30737049  6.75005188  0.00000000
   3.07669249  8.88164688  0.00000000
   1.84601549 11.01324188  0.00000000
  10.46075626  0.35526600  0.00000000
   9.23007826  2.48686100  0.00000000
   7.99940126  4.61845700  0.00000000
   6.76872449  6.75005188  0.00000000
   5.53804749  8.88164688  0.00000000
   4.30737049 11.01324188  0.00000000
  12.92210926  0.35526600  0.00000000
  11.69143226  2.48686100  0.00000000
  10.46075526  4.61845700  0.00000000
   9.23007849  6.75005188  0.00000000
   7.99940149  8.88164688  0.00000000
   6.76872449 11.01324188  0.00000000
   0.61533872  1.77633000  0.00000000
  -0.61533828  3.90792500  0.00000000
  -1.84601528  6.03952000  0.00000000
  -3.07669304  8.17111488  0.00000000
  -4.30737004 10.30271088  0.00000000
  -5.53804704 12.43430588  0.00000000
   3.07669272  1.77633000  0.00000000
   1.84601572  3.90792500  0.00000000
   0.61533872  6.03952000  0.00000000
  -0.61533804  8.17111488  0.00000000
  -1.84601504 10.30271088  0.00000000
  -3.07669204 12.43430588  0.00000000
   5.53804672  1.77633000  0.00000000
   4.30736972  3.90792500  0.00000000
   3.07669272  6.03952000  0.00000000
   1.84601596  8.17111488  0.00000000
   0.61533796 10.30271088  0.00000000
  -0.61533904 12.43430588  0.00000000
   7.99940126  1.77633000  0.00000000
   6.76872426  3.90792500  0.00000000
   5.53804726  6.03952000  0.00000000
   4.30737049  8.17111488  0.00000000
   3.07669349 10.30271088  0.00000000
   1.84601649 12.43430588  0.00000000
  10.46075526  1.77633000  0.00000000
   9.23007826  3.90792500  0.00000000
   7.99940126  6.03952000  0.00000000
   6.76872449  8.17111488  0.00000000
   5.53804649 10.30271088  0.00000000
   4.30736949 12.43430588  0.00000000
  12.92211026  1.77633000  0.00000000
  11.69143226  3.90792500  0.00000000
  10.46075626  6.03952000  0.00000000
   9.23007849  8.17111488  0.00000000
   7.99940149 10.30271088  0.00000000
   6.76872449 12.43430588  0.00000000
 


--------------------------------------------------------------------------------------------------------


 k-point  1 :   0.1250 0.1250 0.0000  plane waves:  107107
 k-point  2 :   0.3750 0.1250 0.0000  plane waves:  107140
 k-point  3 :  -0.3750 0.1250 0.0000  plane waves:  107173
 k-point  4 :  -0.1250 0.1250 0.0000  plane waves:  107083
 k-point  5 :   0.3750 0.3750 0.0000  plane waves:  107166
 k-point  6 :  -0.3750 0.3750 0.0000  plane waves:  107153

 maximum and minimum number of plane-waves per node :     26830    26740

 maximum number of plane-waves:    107173
 maximum index in each direction: 
   IXMAX=   29   IYMAX=   29   IZMAX=   33
   IXMIN=  -29   IYMIN=  -29   IZMIN=  -33


 real space projection operators:
  total allocation   :       5958.00 KBytes
  max/ min on nodes  :       1516.50       1462.50


 parallel 3D FFT for wavefunctions:
    minimum data exchange during FFTs selected (reduces bandwidth)
 parallel 3D FFT for charge:
    minimum data exchange during FFTs selected (reduces bandwidth)


 total amount of memory used by VASP MPI-rank0   253776. kBytes
=======================================================================

   base      :      30000. kBytes
   nonlr-proj:       3539. kBytes
   fftplans  :      40452. kBytes
   grid      :      34868. kBytes
   one-center:        110. kBytes
   wavefun   :     144807. kBytes
 
     INWAV:  cpu time    0.0000: real time    0.0000
 Broyden mixing: mesh for mixing (old mesh)
   NGX = 59   NGY = 59   NGZ = 67
  (NGX  =180   NGY  =180   NGZ  =216)
  gives a total of 233227 points

 initial charge density was supplied:
 charge density of overlapping atoms calculated
 number of electron     288.0000000 magnetization      72.0000000
 keeping initial charge density in first step


--------------------------------------------------------------------------------------------------------


 Maximum index for non-local projection operator          390
 Maximum index for augmentation-charges          953 (set IRDMAX)


--------------------------------------------------------------------------------------------------------


 First call to EWALD:  gamma=   0.120
 Maximum number of real-space cells 3x 3x 2
 Maximum number of reciprocal cells 3x 3x 3

    FEWALD:  cpu time    0.0844: real time    0.0845


--------------------------------------- Iteration      1(   1)  ---------------------------------------


    POTLOK:  cpu time    0.3884: real time    0.3985
    SETDIJ:  cpu time    0.9102: real time    0.9113
     EDDAV:  cpu time   51.4688: real time   51.6065
       DOS:  cpu time    0.0016: real time    0.0016
    --------------------------------------------
      LOOP:  cpu time   52.7690: real time   52.9180

 eigenvalue-minimisations  :  5680
 total energy-change (2. order) : 0.2742293E+04  (-0.1122142E+05)
 number of electron     288.0000000 magnetization      72.0000000
 augmentation part      288.0000000 magnetization      72.0000000

 Free energy of the ion-electron system (eV)
  ---------------------------------------------------
  alpha Z        PSCENC =       132.62484682
  Ewald energy   TEWEN  =     36891.50589590
  -Hartree energ DENC   =    -44653.32974753
  -exchange      EXHF   =         0.00000000
  -V(xc)+E(xc)   XCENC  =       961.85957336
  PAW double counting   =      7804.35344789    -7844.71319232
  entropy T*S    EENTRO =        -0.00067406
  eigenvalues    EBANDS =     -1144.82803396
  atomic energy  EATOM  =     10594.82071859
  Solvation  Ediel_sol  =         0.00000000
  ---------------------------------------------------
  free energy    TOTEN  =      2742.29283469 eV

  energy without entropy =     2742.29350875  energy(sigma->0) =     2742.29317172


--------------------------------------------------------------------------------------------------------




--------------------------------------- Iteration      1(   2)  ---------------------------------------


     EDDAV:  cpu time  110.7886: real time  110.9798
       DOS:  cpu time    0.0008: real time    0.0008
    --------------------------------------------
      LOOP:  cpu time  110.7894: real time  110.9806

 eigenvalue-minimisations  :  8376
 total energy-change (2. order) :-0.2897708E+04  (-0.2692883E+04)
 number of electron     288.0000000 magnetization      72.0000000
 augmentation part      288.0000000 magnetization      72.0000000

 Free energy of the ion-electron system (eV)
  ---------------------------------------------------
  alpha Z        PSCENC =       132.62484682
  Ewald energy   TEWEN  =     36891.50589590
  -Hartree energ DENC   =    -44653.32974753
  -exchange      EXHF   =         0.00000000
  -V(xc)+E(xc)   XCENC  =       961.85957336
  PAW double counting   =      7804.35344789    -7844.71319232
  entropy T*S    EENTRO =        -0.00000000
  eigenvalues    EBANDS =     -4042.53672872
  atomic energy  EATOM  =     10594.82071859
  Solvation  Ediel_sol  =         0.00000000
  ---------------------------------------------------
  free energy    TOTEN  =      -155.41518601 eV

  energy without entropy =     -155.41518600  energy(sigma->0) =     -155.41518600


--------------------------------------------------------------------------------------------------------




--------------------------------------- Iteration      1(   3)  ---------------------------------------


     EDDAV:  cpu time   77.2562: real time   77.7859
       DOS:  cpu time    0.0008: real time    0.0008
    --------------------------------------------
      LOOP:  cpu time   77.2570: real time   77.7867

 eigenvalue-minimisations  :  6928
 total energy-change (2. order) :-0.5074709E+03  (-0.5051746E+03)
 number of electron     288.0000000 magnetization      72.0000000
 augmentation part      288.0000000 magnetization      72.0000000

 Free energy of the ion-electron system (eV)
  ---------------------------------------------------
  alpha Z        PSCENC =       132.62484682
  Ewald energy   TEWEN  =     36891.50589590
  -Hartree energ DENC   =    -44653.32974753
  -exchange      EXHF   =         0.00000000
  -V(xc)+E(xc)   XCENC  =       961.85957336
  PAW double counting   =      7804.35344789    -7844.71319232
  entropy T*S    EENTRO =        -0.00000001
  eigenvalues    EBANDS =     -4550.00766395
  atomic energy  EATOM  =     10594.82071859
  Solvation  Ediel_sol  =         0.00000000
  ---------------------------------------------------
  free energy    TOTEN  =      -662.88612125 eV

  energy without entropy =     -662.88612124  energy(sigma->0) =     -662.88612124


--------------------------------------------------------------------------------------------------------




--------------------------------------- Iteration      1(   4)  ---------------------------------------


     EDDAV:  cpu time   57.7989: real time   57.9759
       DOS:  cpu time    0.0017: real time    0.0017
    --------------------------------------------
      LOOP:  cpu time   57.8006: real time   57.9776

 eigenvalue-minimisations  :  6976
 total energy-change (2. order) :-0.1812542E+02  (-0.1806501E+02)
 number of electron     288.0000000 magnetization      72.0000000
 augmentation part      288.0000000 magnetization      72.0000000

 Free energy of the ion-electron system (eV)
  ---------------------------------------------------
  alpha Z        PSCENC =       132.62484682
  Ewald energy   TEWEN  =     36891.50589590
  -Hartree energ DENC   =    -44653.32974753
  -exchange      EXHF   =         0.00000000
  -V(xc)+E(xc)   XCENC  =       961.85957336
  PAW double counting   =      7804.35344789    -7844.71319232
  entropy T*S    EENTRO =        -0.00063734
  eigenvalues    EBANDS =     -4568.13244334
  atomic energy  EATOM  =     10594.82071859
  Solvation  Ediel_sol  =         0.00000000
  ---------------------------------------------------
  free energy    TOTEN  =      -681.01153798 eV

  energy without entropy =     -681.01090063  energy(sigma->0) =     -681.01121930


--------------------------------------------------------------------------------------------------------




--------------------------------------- Iteration      1(   5)  ---------------------------------------


     EDDAV:  cpu time   62.4947: real time   62.6630
       DOS:  cpu time    0.0015: real time    0.0015
    --------------------------------------------
      LOOP:  cpu time   62.4963: real time   62.6645

 eigenvalue-minimisations  :  7656
 total energy-change (2. order) :-0.4953211E+00  (-0.4945348E+00)
 number of electron     288.0000000 magnetization      72.0000000
 augmentation part      288.0000000 magnetization      72.0000000

 Free energy of the ion-electron system (eV)
  ---------------------------------------------------
  alpha Z        PSCENC =       132.62484682
  Ewald energy   TEWEN  =     36891.50589590
  -Hartree energ DENC   =    -44653.32974753
  -exchange      EXHF   =         0.00000000
  -V(xc)+E(xc)   XCENC  =       961.85957336
  PAW double counting   =      7804.35344789    -7844.71319232
  entropy T*S    EENTRO =        -0.00069916
  eigenvalues    EBANDS =     -4568.62770266
  atomic energy  EATOM  =     10594.82071859
  Solvation  Ediel_sol  =         0.00000000
  ---------------------------------------------------
  free energy    TOTEN  =      -681.50685911 eV

  energy without entropy =     -681.50615995  energy(sigma->0) =     -681.50650953


--------------------------------------------------------------------------------------------------------




--------------------------------------- Iteration      1(   6)  ---------------------------------------


     EDDAV:  cpu time   60.5019: real time   60.6720
       DOS:  cpu time    0.0014: real time    0.0014
    --------------------------------------------
      LOOP:  cpu time   60.5033: real time   60.6734

 eigenvalue-minimisations  :  7704
 total energy-change (2. order) :-0.1342209E-01  (-0.1340270E-01)
 number of electron     288.0000000 magnetization      72.0000000
 augmentation part      288.0000000 magnetization      72.0000000

 Free energy of the ion-electron system (eV)
  ---------------------------------------------------
  alpha Z        PSCENC =       132.62484682
  Ewald energy   TEWEN  =     36891.50589590
  -Hartree energ DENC   =    -44653.32974753
  -exchange      EXHF   =         0.00000000
  -V(xc)+E(xc)   XCENC  =       961.85957336
  PAW double counting   =      7804.35344789    -7844.71319232
  entropy T*S    EENTRO =        -0.00069981
  eigenvalues    EBANDS =     -4568.64112410
  atomic energy  EATOM  =     10594.82071859
  Solvation  Ediel_sol  =         0.00000000
  ---------------------------------------------------
  free energy    TOTEN  =      -681.52028120 eV

  energy without entropy =     -681.51958139  energy(sigma->0) =     -681.51993129


--------------------------------------------------------------------------------------------------------




--------------------------------------- Iteration      1(   7)  ---------------------------------------


     EDDAV:  cpu time   82.2553: real time   82.4288
       DOS:  cpu time    0.0013: real time    0.0013
    --------------------------------------------
      LOOP:  cpu time   82.2566: real time   82.4301

 eigenvalue-minimisations  :  7752
 total energy-change (2. order) :-0.4184001E-03  (-0.4179209E-03)
 number of electron     288.0000000 magnetization      72.0000000
 augmentation part      288.0000000 magnetization      72.0000000

 Free energy of the ion-electron system (eV)
  ---------------------------------------------------
  alpha Z        PSCENC =       132.62484682
  Ewald energy   TEWEN  =     36891.50589590
  -Hartree energ DENC   =    -44653.32974753
  -exchange      EXHF   =         0.00000000
  -V(xc)+E(xc)   XCENC  =       961.85957336
  PAW double counting   =      7804.35344789    -7844.71319232
  entropy T*S    EENTRO =        -0.00069983
  eigenvalues    EBANDS =     -4568.64154248
  atomic energy  EATOM  =     10594.82071859
  Solvation  Ediel_sol  =         0.00000000
  ---------------------------------------------------
  free energy    TOTEN  =      -681.52069960 eV

  energy without entropy =     -681.51999977  energy(sigma->0) =     -681.52034968


--------------------------------------------------------------------------------------------------------




--------------------------------------- Iteration      1(   8)  ---------------------------------------


     EDDAV:  cpu time   90.3423: real time   90.5287
       DOS:  cpu time    0.0015: real time    0.0015
    CHARGE:  cpu time    2.3775: real time    2.3830
    MIXING:  cpu time    0.0097: real time    0.0097
    --------------------------------------------
      LOOP:  cpu time   92.7311: real time   92.9230

 eigenvalue-minimisations  :  7496
 total energy-change (2. order) :-0.1842981E-04  (-0.1841147E-04)
 number of electron     287.9999992 magnetization      58.3902274
 augmentation part        7.7295715 magnetization      57.2623223

 Broyden mixing:
  rms(total) = 0.54748E+01    rms(broyden)= 0.54746E+01
  rms(prec ) = 0.57335E+01
  weight for this iteration     100.00

 Free energy of the ion-electron system (eV)
  ---------------------------------------------------
  alpha Z        PSCENC =       132.62484682
  Ewald energy   TEWEN  =     36891.50589590
  -Hartree energ DENC   =    -44653.32974753
  -exchange      EXHF   =         0.00000000
  -V(xc)+E(xc)   XCENC  =       961.85957336
  PAW double counting   =      7804.35344789    -7844.71319232
  entropy T*S    EENTRO =        -0.00069983
  eigenvalues    EBANDS =     -4568.64156091
  atomic energy  EATOM  =     10594.82071859
  Solvation  Ediel_sol  =         0.00000000
  ---------------------------------------------------
  free energy    TOTEN  =      -681.52071803 eV

  energy without entropy =     -681.52001820  energy(sigma->0) =     -681.52036811


--------------------------------------------------------------------------------------------------------




--------------------------------------- Iteration      1(   9)  ---------------------------------------


    POTLOK:  cpu time    0.3329: real time    0.3385
    SETDIJ:  cpu time    0.7421: real time    0.7436
     EDDAV:  cpu time   44.1716: real time   44.3003
       DOS:  cpu time    0.0013: real time    0.0013
    CHARGE:  cpu time    2.1812: real time    2.1871
    MIXING:  cpu time    0.0080: real time    0.0081
    --------------------------------------------
      LOOP:  cpu time   47.4371: real time   47.5788

 eigenvalue-minimisations  :  5664
 total energy-change (2. order) : 0.2037493E+03  (-0.3111142E+02)
 number of electron     287.9999992 magnetization      43.6125909
 augmentation part        7.5935636 magnetization      41.8593010

 Broyden mixing:
  rms(total) = 0.30295E+01    rms(broyden)= 0.30295E+01
  rms(prec ) = 0.32307E+01
  weight for this iteration     100.00

 eigenvalues of (default mixing * dielectric matrix)
  average eigenvalue GAMMA=   1.0490
  1.0490

 Free energy of the ion-electron system (eV)
  ---------------------------------------------------
  alpha Z        PSCENC =       132.62484682
  Ewald energy   TEWEN  =     36891.50589590
  -Hartree energ DENC   =    -45058.21186912
  -exchange      EXHF   =         0.00000000
  -V(xc)+E(xc)   XCENC  =      1109.26072138
  PAW double counting   =     14275.42164235   -14321.77533131
  entropy T*S    EENTRO =        -0.00007109
  eigenvalues    EBANDS =     -4101.41793396
  atomic energy  EATOM  =     10594.82071859
  Solvation  Ediel_sol  =         0.00000000
  ---------------------------------------------------
  free energy    TOTEN  =      -477.77138044 eV

  energy without entropy =     -477.77130935  energy(sigma->0) =     -477.77134490


--------------------------------------------------------------------------------------------------------




--------------------------------------- Iteration      1(  10)  ---------------------------------------


    POTLOK:  cpu time    0.2992: real time    0.3012
    SETDIJ:  cpu time    0.6781: real time    0.6793
     EDDAV:  cpu time   62.1289: real time   62.2681
       DOS:  cpu time    0.0011: real time    0.0011
    CHARGE:  cpu time    2.6414: real time    2.6485
    MIXING:  cpu time    0.0091: real time    0.0091
    --------------------------------------------
      LOOP:  cpu time   65.7579: real time   65.9071

 eigenvalue-minimisations  :  5944
 total energy-change (2. order) :-0.7055020E+02  (-0.6121481E+01)
 number of electron     287.9999993 magnetization      28.2768081
 augmentation part        7.3098120 magnetization      27.4552496

 Broyden mixing:
  rms(total) = 0.17651E+01    rms(broyden)= 0.17651E+01
  rms(prec ) = 0.18271E+01
  weight for this iteration     100.00

 eigenvalues of (default mixing * dielectric matrix)
  average eigenvalue GAMMA=   1.3692
  0.8557  1.8827

 Free energy of the ion-electron system (eV)
  ---------------------------------------------------
  alpha Z        PSCENC =       132.62484682
  Ewald energy   TEWEN  =     36891.50589590
  -Hartree energ DENC   =    -45480.94691234
  -exchange      EXHF   =         0.00000000
  -V(xc)+E(xc)   XCENC  =      1063.57589443
  PAW double counting   =     21737.20028871   -21787.18029630
  entropy T*S    EENTRO =        -0.00000000
  eigenvalues    EBANDS =     -3699.92201592
  atomic energy  EATOM  =     10594.82071859
  Solvation  Ediel_sol  =         0.00000000
  ---------------------------------------------------
  free energy    TOTEN  =      -548.32158011 eV

  energy without entropy =     -548.32158011  energy(sigma->0) =     -548.32158011


--------------------------------------------------------------------------------------------------------




--------------------------------------- Iteration      1(  11)  ---------------------------------------


    POTLOK:  cpu time    0.3456: real time    0.3475
    SETDIJ:  cpu time    0.7276: real time    0.7289
     EDDAV:  cpu time   66.1467: real time   66.3007
       DOS:  cpu time    0.0013: real time    0.0013
    CHARGE:  cpu time    2.2922: real time    2.2977
    MIXING:  cpu time    0.0128: real time    0.0129
    --------------------------------------------
      LOOP:  cpu time   69.5261: real time   69.6889

 eigenvalue-minimisations  :  6064
 total energy-change (2. order) :-0.3998985E+02  (-0.3205234E+01)
 number of electron     287.9999993 magnetization      19.9595864
 augmentation part        7.0682867 magnetization      19.2550609

 Broyden mixing:
  rms(total) = 0.10113E+01    rms(broyden)= 0.10113E+01
  rms(prec ) = 0.10316E+01
  weight for this iteration     100.00

 eigenvalues of (default mixing * dielectric matrix)
  average eigenvalue GAMMA=   1.3526
  2.2649  1.0820  0.7111

 Free energy of the ion-electron system (eV)
  ---------------------------------------------------
  alpha Z        PSCENC =       132.62484682
  Ewald energy   TEWEN  =     36891.50589590
  -Hartree energ DENC   =    -45796.41418991
  -exchange      EXHF   =         0.00000000
  -V(xc)+E(xc)   XCENC  =      1046.72056656
  PAW double counting   =     28848.85317425   -28900.16269829
  entropy T*S    EENTRO =        -0.00025137
  eigenvalues    EBANDS =     -3406.25949763
  atomic energy  EATOM  =     10594.82071859
  Solvation  Ediel_sol  =         0.00000000
  ---------------------------------------------------
  free energy    TOTEN  =      -588.31143508 eV

  energy without entropy =     -588.31118371  energy(sigma->0) =     -588.31130939


--------------------------------------------------------------------------------------------------------




--------------------------------------- Iteration      1(  12)  ---------------------------------------


    POTLOK:  cpu time    0.3076: real time    0.3130
    SETDIJ:  cpu time    0.7225: real time    0.7239
     EDDAV:  cpu time   47.4418: real time   47.5850
       DOS:  cpu time    0.0007: real time    0.0007
    CHARGE:  cpu time    2.7326: real time    2.7401
    MIXING:  cpu time    0.0144: real time    0.0145
    --------------------------------------------
      LOOP:  cpu time   51.2197: real time   51.3770

 eigenvalue-minimisations  :  5968
 total energy-change (2. order) :-0.3140330E+02  (-0.1495223E+01)
 number of electron     287.9999993 magnetization      11.2358735
 augmentation part        6.9940202 magnetization      11.0328873

 Broyden mixing:
  rms(total) = 0.69121E+00    rms(broyden)= 0.69119E+00
  rms(prec ) = 0.70786E+00
  weight for this iteration     100.00

 eigenvalues of (default mixing * dielectric matrix)
  average eigenvalue GAMMA=   1.4425
  2.6380  1.6509  0.8561  0.6250

 Free energy of the ion-electron system (eV)
  ---------------------------------------------------
  alpha Z        PSCENC =       132.62484682
  Ewald energy   TEWEN  =     36891.50589590
  -Hartree energ DENC   =    -45854.09225321
  -exchange      EXHF   =         0.00000000
  -V(xc)+E(xc)   XCENC  =      1026.90159022
  PAW double counting   =     30558.28182059   -30608.67519284
  entropy T*S    EENTRO =        -0.00000000
  eigenvalues    EBANDS =     -3361.08216319
  atomic energy  EATOM  =     10594.82071859
  Solvation  Ediel_sol  =         0.00000000
  ---------------------------------------------------
  free energy    TOTEN  =      -619.71473712 eV

  energy without entropy =     -619.71473712  energy(sigma->0) =     -619.71473712


--------------------------------------------------------------------------------------------------------




--------------------------------------- Iteration      1(  13)  ---------------------------------------


    POTLOK:  cpu time    0.4603: real time    0.4627
    SETDIJ:  cpu time    0.8408: real time    0.8426
     EDDAV:  cpu time   52.7724: real time   52.9144
       DOS:  cpu time    0.0005: real time    0.0005
    CHARGE:  cpu time    2.3101: real time    2.3157
    MIXING:  cpu time    0.0104: real time    0.0104
    --------------------------------------------
      LOOP:  cpu time   56.3944: real time   56.5463

 eigenvalue-minimisations  :  5952
 total energy-change (2. order) :-0.2418137E+02  (-0.1397101E+01)
 number of electron     287.9999993 magnetization       5.8552230
 augmentation part        6.9658379 magnetization       5.7466651

 Broyden mixing:
  rms(total) = 0.37721E+00    rms(broyden)= 0.37719E+00
  rms(prec ) = 0.38845E+00
  weight for this iteration     100.00

 eigenvalues of (default mixing * dielectric matrix)
  average eigenvalue GAMMA=   1.5439
  3.1681  2.1036  1.0437  0.8030  0.6010

 Free energy of the ion-electron system (eV)
  ---------------------------------------------------
  alpha Z        PSCENC =       132.62484682
  Ewald energy   TEWEN  =     36891.50589590
  -Hartree energ DENC   =    -45884.21859714
  -exchange      EXHF   =         0.00000000
  -V(xc)+E(xc)   XCENC  =      1009.90053262
  PAW double counting   =     31385.42037426   -31434.70734471
  entropy T*S    EENTRO =        -0.00000000
  eigenvalues    EBANDS =     -3339.24253712
  atomic energy  EATOM  =     10594.82071859
  Solvation  Ediel_sol  =         0.00000000
  ---------------------------------------------------
  free energy    TOTEN  =      -643.89611077 eV

  energy without entropy =     -643.89611077  energy(sigma->0) =     -643.89611077


--------------------------------------------------------------------------------------------------------




--------------------------------------- Iteration      1(  14)  ---------------------------------------


    POTLOK:  cpu time    0.3057: real time    0.3104
    SETDIJ:  cpu time    0.7412: real time    0.7426
     EDDAV:  cpu time   47.9446: real time   48.0694
       DOS:  cpu time    0.0008: real time    0.0008
    CHARGE:  cpu time    2.2116: real time    2.2167
    MIXING:  cpu time    0.0114: real time    0.0114
    --------------------------------------------
      LOOP:  cpu time   51.2153: real time   51.3514

 eigenvalue-minimisations  :  5848
 total energy-change (2. order) :-0.1215809E+02  (-0.6768140E+00)
 number of electron     287.9999993 magnetization       2.1481334
 augmentation part        6.9433321 magnetization       2.0911027

 Broyden mixing:
  rms(total) = 0.23089E+00    rms(broyden)= 0.23087E+00
  rms(prec ) = 0.24134E+00
  weight for this iteration     100.00

 eigenvalues of (default mixing * dielectric matrix)
  average eigenvalue GAMMA=   1.6413
  3.6023  2.3074  1.5730  1.0060  0.7557  0.6036

 Free energy of the ion-electron system (eV)
  ---------------------------------------------------
  alpha Z        PSCENC =       132.62484682
  Ewald energy   TEWEN  =     36891.50589590
  -Hartree energ DENC   =    -45894.86824968
  -exchange      EXHF   =         0.00000000
  -V(xc)+E(xc)   XCENC  =      1001.04645623
  PAW double counting   =     31212.10564461   -31261.06395686
  entropy T*S    EENTRO =        -0.00000000
  eigenvalues    EBANDS =     -3332.22555809
  atomic energy  EATOM  =     10594.82071859
  Solvation  Ediel_sol  =         0.00000000
  ---------------------------------------------------
  free energy    TOTEN  =      -656.05420248 eV

  energy without entropy =     -656.05420248  energy(sigma->0) =     -656.05420248


--------------------------------------------------------------------------------------------------------




--------------------------------------- Iteration      1(  15)  ---------------------------------------


    POTLOK:  cpu time    0.3934: real time    0.3985
    SETDIJ:  cpu time    0.6785: real time    0.6797
     EDDAV:  cpu time   58.1527: real time   58.2863
       DOS:  cpu time    0.0005: real time    0.0005
    CHARGE:  cpu time    2.1658: real time    2.1711
    MIXING:  cpu time    0.0116: real time    0.0116
    --------------------------------------------
      LOOP:  cpu time   61.4025: real time   61.5477

 eigenvalue-minimisations  :  5704
 total energy-change (2. order) :-0.4290009E+01  (-0.2918022E+00)
 number of electron     287.9999993 magnetization       0.4181933
 augmentation part        6.9343029 magnetization       0.3910270

 Broyden mixing:
  rms(total) = 0.85301E-01    rms(broyden)= 0.85284E-01
  rms(prec ) = 0.93647E-01
  weight for this iteration     100.00

 eigenvalues of (default mixing * dielectric matrix)
  average eigenvalue GAMMA=   1.7977
  4.7476  2.3588  2.1929  1.0918  0.8613  0.7266  0.6052

 Free energy of the ion-electron system (eV)
  ---------------------------------------------------
  alpha Z        PSCENC =       132.62484682
  Ewald energy   TEWEN  =     36891.50589590
  -Hartree energ DENC   =    -45886.62388370
  -exchange      EXHF   =         0.00000000
  -V(xc)+E(xc)   XCENC  =       997.31500452
  PAW double counting   =     30327.64100854   -30376.72948224
  entropy T*S    EENTRO =        -0.00000000
  eigenvalues    EBANDS =     -3340.89832005
  atomic energy  EATOM  =     10594.82071859
  Solvation  Ediel_sol  =         0.00000000
  ---------------------------------------------------
  free energy    TOTEN  =      -660.34421162 eV

  energy without entropy =     -660.34421162  energy(sigma->0) =     -660.34421162


--------------------------------------------------------------------------------------------------------




--------------------------------------- Iteration      1(  16)  ---------------------------------------


    POTLOK:  cpu time    0.3631: real time    0.3652
    SETDIJ:  cpu time    0.7367: real time    0.7380
     EDDAV:  cpu time   47.1019: real time   47.2438
       DOS:  cpu time    0.0004: real time    0.0004
    CHARGE:  cpu time    2.3105: real time    2.3163
    MIXING:  cpu time    0.0174: real time    0.0174
    --------------------------------------------
      LOOP:  cpu time   50.5300: real time   50.6811

 eigenvalue-minimisations  :  6088
 total energy-change (2. order) :-0.3445310E+01  (-0.6652003E-01)
 number of electron     287.9999993 magnetization       0.1733471
 augmentation part        6.9306264 magnetization       0.1674292

 Broyden mixing:
  rms(total) = 0.30615E-01    rms(broyden)= 0.30594E-01
  rms(prec ) = 0.39926E-01
  weight for this iteration     100.00

 eigenvalues of (default mixing * dielectric matrix)
  average eigenvalue GAMMA=   1.7498
  5.0671  2.3374  2.3374  1.1957  0.9755  0.7895  0.6109  0.6849

 Free energy of the ion-electron system (eV)
  ---------------------------------------------------
  alpha Z        PSCENC =       132.62484682
  Ewald energy   TEWEN  =     36891.50589590
  -Hartree energ DENC   =    -45883.88614783
  -exchange      EXHF   =         0.00000000
  -V(xc)+E(xc)   XCENC  =       993.78184238
  PAW double counting   =     30086.44617321   -30135.61949018
  entropy T*S    EENTRO =        -0.00000000
  eigenvalues    EBANDS =     -3343.46336086
  atomic energy  EATOM  =     10594.82071859
  Solvation  Ediel_sol  =         0.00000000
  ---------------------------------------------------
  free energy    TOTEN  =      -663.78952197 eV

  energy without entropy =     -663.78952197  energy(sigma->0) =     -663.78952197


--------------------------------------------------------------------------------------------------------




--------------------------------------- Iteration      1(  17)  ---------------------------------------


    POTLOK:  cpu time    0.3987: real time    0.4082
    SETDIJ:  cpu time    1.0249: real time    1.0265
     EDDAV:  cpu time   57.6006: real time   57.7779
       DOS:  cpu time    0.0006: real time    0.0006
    CHARGE:  cpu time    2.1242: real time    2.1298
    MIXING:  cpu time    0.0177: real time    0.0177
    --------------------------------------------
      LOOP:  cpu time   61.1667: real time   61.3607

 eigenvalue-minimisations  :  6072
 total energy-change (2. order) :-0.4737570E+00  (-0.3577958E-02)
 number of electron     287.9999993 magnetization       0.0682899
 augmentation part        6.9283285 magnetization       0.0656345

 Broyden mixing:
  rms(total) = 0.16223E-01    rms(broyden)= 0.16216E-01
  rms(prec ) = 0.25129E-01
  weight for this iteration     100.00

 eigenvalues of (default mixing * dielectric matrix)
  average eigenvalue GAMMA=   1.7632
  5.1244  2.4414  2.4414  1.7608  1.0632  0.9661  0.6129  0.7769  0.6822

 Free energy of the ion-electron system (eV)
  ---------------------------------------------------
  alpha Z        PSCENC =       132.62484682
  Ewald energy   TEWEN  =     36891.50589590
  -Hartree energ DENC   =    -45882.38298605
  -exchange      EXHF   =         0.00000000
  -V(xc)+E(xc)   XCENC  =       993.27992657
  PAW double counting   =     30118.14714744   -30167.34351015
  entropy T*S    EENTRO =        -0.00000000
  eigenvalues    EBANDS =     -3344.91531812
  atomic energy  EATOM  =     10594.82071859
  Solvation  Ediel_sol  =         0.00000000
  ---------------------------------------------------
  free energy    TOTEN  =      -664.26327901 eV

  energy without entropy =     -664.26327901  energy(sigma->0) =     -664.26327901


--------------------------------------------------------------------------------------------------------




--------------------------------------- Iteration      1(  18)  ---------------------------------------


    POTLOK:  cpu time    0.4551: real time    0.4597
    SETDIJ:  cpu time    0.8634: real time    0.8651
     EDDAV:  cpu time   44.7386: real time   44.9056
       DOS:  cpu time    0.0005: real time    0.0005
    CHARGE:  cpu time    2.3367: real time    2.3433
    MIXING:  cpu time    0.0172: real time    0.0173
    --------------------------------------------
      LOOP:  cpu time   48.4116: real time   48.5915

 eigenvalue-minimisations  :  5672
 total energy-change (2. order) :-0.1074796E+00  (-0.1819163E-02)
 number of electron     287.9999993 magnetization       0.0393427
 augmentation part        6.9291501 magnetization       0.0390603

 Broyden mixing:
  rms(total) = 0.75146E-02    rms(broyden)= 0.75129E-02
  rms(prec ) = 0.12051E-01
  weight for this iteration     100.00

 eigenvalues of (default mixing * dielectric matrix)
  average eigenvalue GAMMA=   1.7271
  5.1318  2.6397  2.6397  1.9780  1.1206  0.9718  0.7881  0.6158  0.6928  0.6928

 Free energy of the ion-electron system (eV)
  ---------------------------------------------------
  alpha Z        PSCENC =       132.62484682
  Ewald energy   TEWEN  =     36891.50589590
  -Hartree energ DENC   =    -45877.30422507
  -exchange      EXHF   =         0.00000000
  -V(xc)+E(xc)   XCENC  =       992.96556809
  PAW double counting   =     30132.19520559   -30181.38819686
  entropy T*S    EENTRO =        -0.00000000
  eigenvalues    EBANDS =     -3349.79057167
  atomic energy  EATOM  =     10594.82071859
  Solvation  Ediel_sol  =         0.00000000
  ---------------------------------------------------
  free energy    TOTEN  =      -664.37075861 eV

  energy without entropy =     -664.37075861  energy(sigma->0) =     -664.37075861


--------------------------------------------------------------------------------------------------------




--------------------------------------- Iteration      1(  19)  ---------------------------------------


    POTLOK:  cpu time    0.5276: real time    0.5330
    SETDIJ:  cpu time    1.3375: real time    1.3395
     EDDAV:  cpu time   50.2009: real time   50.3648
       DOS:  cpu time    0.0008: real time    0.0008
    CHARGE:  cpu time    2.5377: real time    2.5589
    MIXING:  cpu time    0.0238: real time    0.0238
    --------------------------------------------
      LOOP:  cpu time   54.6282: real time   54.8208

 eigenvalue-minimisations  :  5840
 total energy-change (2. order) :-0.2134843E-01  (-0.2294566E-03)
 number of electron     287.9999993 magnetization       0.0140940
 augmentation part        6.9296087 magnetization       0.0136255

 Broyden mixing:
  rms(total) = 0.43941E-02    rms(broyden)= 0.43937E-02
  rms(prec ) = 0.77411E-02
  weight for this iteration     100.00

 eigenvalues of (default mixing * dielectric matrix)
  average eigenvalue GAMMA=   1.7321
  5.1434  2.8794  2.7914  2.1059  1.3674  1.0681  0.9586  0.7830  0.6968  0.6231
  0.6356

 Free energy of the ion-electron system (eV)
  ---------------------------------------------------
  alpha Z        PSCENC =       132.62484682
  Ewald energy   TEWEN  =     36891.50589590
  -Hartree energ DENC   =    -45875.69628213
  -exchange      EXHF   =         0.00000000
  -V(xc)+E(xc)   XCENC  =       992.86591969
  PAW double counting   =     30134.65954378   -30183.85013681
  entropy T*S    EENTRO =        -0.00000000
  eigenvalues    EBANDS =     -3351.32261288
  atomic energy  EATOM  =     10594.82071859
  Solvation  Ediel_sol  =         0.00000000
  ---------------------------------------------------
  free energy    TOTEN  =      -664.39210704 eV

  energy without entropy =     -664.39210704  energy(sigma->0) =     -664.39210704


--------------------------------------------------------------------------------------------------------




--------------------------------------- Iteration      1(  20)  ---------------------------------------


    POTLOK:  cpu time    0.2982: real time    0.3011
    SETDIJ:  cpu time    0.7295: real time    0.7310
     EDDAV:  cpu time   48.9495: real time   49.0818
       DOS:  cpu time    0.0006: real time    0.0006
    CHARGE:  cpu time    2.3408: real time    2.3470
    MIXING:  cpu time    0.0165: real time    0.0165
    --------------------------------------------
      LOOP:  cpu time   52.3350: real time   52.4780

 eigenvalue-minimisations  :  5576
 total energy-change (2. order) :-0.2339704E-01  (-0.1775567E-03)
 number of electron     287.9999993 magnetization       0.0059322
 augmentation part        6.9301492 magnetization       0.0058378

 Broyden mixing:
  rms(total) = 0.22012E-02    rms(broyden)= 0.22009E-02
  rms(prec ) = 0.46765E-02
  weight for this iteration     100.00

 eigenvalues of (default mixing * dielectric matrix)
  average eigenvalue GAMMA=   1.7633
  5.1347  3.7740  2.3560  2.3560  1.8448  1.1202  0.9558  0.8687  0.7678  0.7291
  0.6263  0.6263

 Free energy of the ion-electron system (eV)
  ---------------------------------------------------
  alpha Z        PSCENC =       132.62484682
  Ewald energy   TEWEN  =     36891.50589590
  -Hartree energ DENC   =    -45874.94667236
  -exchange      EXHF   =         0.00000000
  -V(xc)+E(xc)   XCENC  =       992.79173692
  PAW double counting   =     30137.23348474   -30186.42186531
  entropy T*S    EENTRO =        -0.00000000
  eigenvalues    EBANDS =     -3352.02364938
  atomic energy  EATOM  =     10594.82071859
  Solvation  Ediel_sol  =         0.00000000
  ---------------------------------------------------
  free energy    TOTEN  =      -664.41550408 eV

  energy without entropy =     -664.41550408  energy(sigma->0) =     -664.41550408


--------------------------------------------------------------------------------------------------------




--------------------------------------- Iteration      1(  21)  ---------------------------------------


    POTLOK:  cpu time    0.4231: real time    0.4287
    SETDIJ:  cpu time    0.8765: real time    0.8781
     EDDAV:  cpu time   50.0555: real time   50.2042
       DOS:  cpu time    0.0006: real time    0.0006
    CHARGE:  cpu time    2.7963: real time    2.8041
    MIXING:  cpu time    0.0244: real time    0.0245
    --------------------------------------------
      LOOP:  cpu time   54.1765: real time   54.3402

 eigenvalue-minimisations  :  5912
 total energy-change (2. order) :-0.3574890E-02  (-0.4993767E-04)
 number of electron     287.9999993 magnetization      -0.0027456
 augmentation part        6.9303118 magnetization      -0.0027815

 Broyden mixing:
  rms(total) = 0.15949E-02    rms(broyden)= 0.15945E-02
  rms(prec ) = 0.33271E-02
  weight for this iteration     100.00

 eigenvalues of (default mixing * dielectric matrix)
  average eigenvalue GAMMA=   1.7308
  5.1333  4.0264  2.3803  2.3803  1.9470  1.1686  0.9940  0.9940  0.7917  0.7188
  0.7188  0.6169  0.6298

 Free energy of the ion-electron system (eV)
  ---------------------------------------------------
  alpha Z        PSCENC =       132.62484682
  Ewald energy   TEWEN  =     36891.50589590
  -Hartree energ DENC   =    -45875.26118039
  -exchange      EXHF   =         0.00000000
  -V(xc)+E(xc)   XCENC  =       992.78097348
  PAW double counting   =     30138.82548131   -30188.01577847
  entropy T*S    EENTRO =        -0.00000000
  eigenvalues    EBANDS =     -3351.70003621
  atomic energy  EATOM  =     10594.82071859
  Solvation  Ediel_sol  =         0.00000000
  ---------------------------------------------------
  free energy    TOTEN  =      -664.41907897 eV

  energy without entropy =     -664.41907897  energy(sigma->0) =     -664.41907897


--------------------------------------------------------------------------------------------------------




--------------------------------------- Iteration      1(  22)  ---------------------------------------


    POTLOK:  cpu time    0.5155: real time    0.5194
    SETDIJ:  cpu time    1.1094: real time    1.1111
     EDDAV:  cpu time   65.9915: real time   71.0092
       DOS:  cpu time    0.0005: real time    0.0005
    CHARGE:  cpu time    2.2027: real time    2.2048
    MIXING:  cpu time    0.0398: real time    0.0399
    --------------------------------------------
      LOOP:  cpu time   69.8595: real time   74.8848

 eigenvalue-minimisations  :  5832
 total energy-change (2. order) :-0.4316034E-02  (-0.5134042E-04)
 number of electron     287.9999993 magnetization      -0.0070689
 augmentation part        6.9303044 magnetization      -0.0070717

 Broyden mixing:
  rms(total) = 0.12227E-02    rms(broyden)= 0.12221E-02
  rms(prec ) = 0.21394E-02
  weight for this iteration     100.00

 eigenvalues of (default mixing * dielectric matrix)
  average eigenvalue GAMMA=   1.8423
  5.1834  4.7149  2.9728  2.3588  2.3588  1.8157  1.1237  0.9371  0.9371  0.7700
  0.7313  0.6564  0.6291  0.6030

 Free energy of the ion-electron system (eV)
  ---------------------------------------------------
  alpha Z        PSCENC =       132.62484682
  Ewald energy   TEWEN  =     36891.50589590
  -Hartree energ DENC   =    -45876.05157022
  -exchange      EXHF   =         0.00000000
  -V(xc)+E(xc)   XCENC  =       992.77836038
  PAW double counting   =     30137.71594954   -30186.90930613
  entropy T*S    EENTRO =        -0.00000000
  eigenvalues    EBANDS =     -3350.90828988
  atomic energy  EATOM  =     10594.82071859
  Solvation  Ediel_sol  =         0.00000000
  ---------------------------------------------------
  free energy    TOTEN  =      -664.42339500 eV

  energy without entropy =     -664.42339500  energy(sigma->0) =     -664.42339500


--------------------------------------------------------------------------------------------------------




--------------------------------------- Iteration      1(  23)  ---------------------------------------


    POTLOK:  cpu time    0.4673: real time    0.4685
    SETDIJ:  cpu time    0.7936: real time    0.7944
     EDDAV:  cpu time   45.0435: real time   45.0961
       DOS:  cpu time    0.0005: real time    0.0005
    CHARGE:  cpu time    2.3248: real time    2.3270
    MIXING:  cpu time    0.0422: real time    0.0422
    --------------------------------------------
      LOOP:  cpu time   48.6719: real time   48.7288

 eigenvalue-minimisations  :  5744
 total energy-change (2. order) :-0.1290719E-02  (-0.2261713E-04)
 number of electron     287.9999993 magnetization      -0.0053069
 augmentation part        6.9302413 magnetization      -0.0052980

 Broyden mixing:
  rms(total) = 0.65082E-03    rms(broyden)= 0.65042E-03
  rms(prec ) = 0.11760E-02
  weight for this iteration     100.00

 eigenvalues of (default mixing * dielectric matrix)
  average eigenvalue GAMMA=   1.8245
  5.2451  4.9640  3.2119  2.3416  2.3416  1.8246  1.1853  1.0256  1.0256  0.8382
  0.7534  0.7262  0.6536  0.6274  0.6031

 Free energy of the ion-electron system (eV)
  ---------------------------------------------------
  alpha Z        PSCENC =       132.62484682
  Ewald energy   TEWEN  =     36891.50589590
  -Hartree energ DENC   =    -45876.87044964
  -exchange      EXHF   =         0.00000000
  -V(xc)+E(xc)   XCENC  =       992.78122332
  PAW double counting   =     30137.53219254   -30186.72682981
  entropy T*S    EENTRO =        -0.00000000
  eigenvalues    EBANDS =     -3350.09228344
  atomic energy  EATOM  =     10594.82071859
  Solvation  Ediel_sol  =         0.00000000
  ---------------------------------------------------
  free energy    TOTEN  =      -664.42468572 eV

  energy without entropy =     -664.42468572  energy(sigma->0) =     -664.42468572


--------------------------------------------------------------------------------------------------------




--------------------------------------- Iteration      1(  24)  ---------------------------------------


    POTLOK:  cpu time    0.4510: real time    0.4550
    SETDIJ:  cpu time    0.9021: real time    0.9029
     EDDAV:  cpu time   58.1019: real time   58.1734
       DOS:  cpu time    0.0006: real time    0.0006
    CHARGE:  cpu time    2.7127: real time    2.7175
    MIXING:  cpu time    0.0445: real time    0.0446
    --------------------------------------------
      LOOP:  cpu time   62.2128: real time   62.2940

 eigenvalue-minimisations  :  4808
 total energy-change (2. order) :-0.5569364E-03  (-0.1673521E-05)
 number of electron     287.9999993 magnetization      -0.0029478
 augmentation part        6.9302199 magnetization      -0.0029276

 Broyden mixing:
  rms(total) = 0.54083E-03    rms(broyden)= 0.54074E-03
  rms(prec ) = 0.77267E-03
  weight for this iteration     100.00

 eigenvalues of (default mixing * dielectric matrix)
  average eigenvalue GAMMA=   1.9377
  5.9463  5.1435  3.6694  2.6603  2.3428  2.3428  1.8078  1.1311  0.9529  0.9529
  0.7796  0.7408  0.6690  0.6359  0.6110  0.6169

 Free energy of the ion-electron system (eV)
  ---------------------------------------------------
  alpha Z        PSCENC =       132.62484682
  Ewald energy   TEWEN  =     36891.50589590
  -Hartree energ DENC   =    -45877.42616134
  -exchange      EXHF   =         0.00000000
  -V(xc)+E(xc)   XCENC  =       992.78133941
  PAW double counting   =     30137.96731075   -30187.16028044
  entropy T*S    EENTRO =        -0.00000000
  eigenvalues    EBANDS =     -3349.53891236
  atomic energy  EATOM  =     10594.82071859
  Solvation  Ediel_sol  =         0.00000000
  ---------------------------------------------------
  free energy    TOTEN  =      -664.42524266 eV

  energy without entropy =     -664.42524266  energy(sigma->0) =     -664.42524266


--------------------------------------------------------------------------------------------------------




--------------------------------------- Iteration      1(  25)  ---------------------------------------


    POTLOK:  cpu time    0.5188: real time    0.5208
    SETDIJ:  cpu time    0.9501: real time    0.9511
     EDDAV:  cpu time   55.8984: real time   55.9955
       DOS:  cpu time    0.0006: real time    0.0006
    CHARGE:  cpu time    2.6680: real time    2.6757
    MIXING:  cpu time    0.0252: real time    0.0252
    --------------------------------------------
      LOOP:  cpu time   60.0609: real time   60.1689

 eigenvalue-minimisations  :  4624
 total energy-change (2. order) :-0.3705116E-03  (-0.1489895E-05)
 number of electron     287.9999993 magnetization      -0.0015823
 augmentation part        6.9302274 magnetization      -0.0015732

 Broyden mixing:
  rms(total) = 0.19281E-03    rms(broyden)= 0.19261E-03
  rms(prec ) = 0.33836E-03
  weight for this iteration     100.00

 eigenvalues of (default mixing * dielectric matrix)
  average eigenvalue GAMMA=   1.9690
  6.8625  5.1669  3.9723  2.9566  2.3235  2.3235  1.8038  1.1531  1.0044  1.0044
  0.8663  0.7642  0.7397  0.6741  0.6298  0.6233  0.6045

 Free energy of the ion-electron system (eV)
  ---------------------------------------------------
  alpha Z        PSCENC =       132.62484682
  Ewald energy   TEWEN  =     36891.50589590
  -Hartree energ DENC   =    -45877.83573783
  -exchange      EXHF   =         0.00000000
  -V(xc)+E(xc)   XCENC  =       992.77909317
  PAW double counting   =     30137.31860498   -30186.51081077
  entropy T*S    EENTRO =        -0.00000000
  eigenvalues    EBANDS =     -3349.12822403
  atomic energy  EATOM  =     10594.82071859
  Solvation  Ediel_sol  =         0.00000000
  ---------------------------------------------------
  free energy    TOTEN  =      -664.42561317 eV

  energy without entropy =     -664.42561317  energy(sigma->0) =     -664.42561317


--------------------------------------------------------------------------------------------------------




--------------------------------------- Iteration      1(  26)  ---------------------------------------


    POTLOK:  cpu time    0.3485: real time    0.3504
    SETDIJ:  cpu time    0.8281: real time    0.8296
     EDDAV:  cpu time   47.0659: real time   47.1673
       DOS:  cpu time    0.0010: real time    0.0010
    CHARGE:  cpu time    2.7248: real time    2.7317
    MIXING:  cpu time    0.0301: real time    0.0301
    --------------------------------------------
      LOOP:  cpu time   50.9984: real time   51.1102

 eigenvalue-minimisations  :  4408
 total energy-change (2. order) :-0.6703919E-04  (-0.1584441E-06)
 number of electron     287.9999993 magnetization      -0.0006719
 augmentation part        6.9302131 magnetization      -0.0006578

 Broyden mixing:
  rms(total) = 0.14789E-03    rms(broyden)= 0.14764E-03
  rms(prec ) = 0.25505E-03
  weight for this iteration     100.00

 eigenvalues of (default mixing * dielectric matrix)
  average eigenvalue GAMMA=   1.9735
  7.2533  5.1685  4.0869  3.0490  2.2850  2.2850  1.8368  1.7154  1.1341  0.9629
  0.9629  0.7956  0.7397  0.6933  0.6933  0.6336  0.6256  0.6026

 Free energy of the ion-electron system (eV)
  ---------------------------------------------------
  alpha Z        PSCENC =       132.62484682
  Ewald energy   TEWEN  =     36891.50589590
  -Hartree energ DENC   =    -45877.99763661
  -exchange      EXHF   =         0.00000000
  -V(xc)+E(xc)   XCENC  =       992.78062109
  PAW double counting   =     30137.20112803   -30186.39390024
  entropy T*S    EENTRO =        -0.00000000
  eigenvalues    EBANDS =     -3348.96735379
  atomic energy  EATOM  =     10594.82071859
  Solvation  Ediel_sol  =         0.00000000
  ---------------------------------------------------
  free energy    TOTEN  =      -664.42568021 eV

  energy without entropy =     -664.42568021  energy(sigma->0) =     -664.42568021


--------------------------------------------------------------------------------------------------------




--------------------------------------- Iteration      1(  27)  ---------------------------------------


    POTLOK:  cpu time    0.3502: real time    0.3551
    SETDIJ:  cpu time    0.8408: real time    0.8424
     EDDAV:  cpu time   38.5084: real time   38.6163
       DOS:  cpu time    0.0005: real time    0.0005
    CHARGE:  cpu time    2.6046: real time    2.6110
    MIXING:  cpu time    0.0308: real time    0.0309
    --------------------------------------------
      LOOP:  cpu time   42.3354: real time   42.4562

 eigenvalue-minimisations  :  4704
 total energy-change (2. order) :-0.4457012E-04  (-0.2425814E-06)
 number of electron     287.9999993 magnetization      -0.0005543
 augmentation part        6.9301923 magnetization      -0.0005516

 Broyden mixing:
  rms(total) = 0.10904E-03    rms(broyden)= 0.10870E-03
  rms(prec ) = 0.15910E-03
  weight for this iteration     100.00

 eigenvalues of (default mixing * dielectric matrix)
  average eigenvalue GAMMA=   2.0272
  7.8524  5.1422  4.4524  3.3468  2.4368  2.4368  2.3487  1.7993  1.1439  0.9867
  0.9867  0.8702  0.7755  0.7389  0.6867  0.6466  0.6466  0.6066  0.6133

 Free energy of the ion-electron system (eV)
  ---------------------------------------------------
  alpha Z        PSCENC =       132.62484682
  Ewald energy   TEWEN  =     36891.50589590
  -Hartree energ DENC   =    -45878.20721073
  -exchange      EXHF   =         0.00000000
  -V(xc)+E(xc)   XCENC  =       992.78266371
  PAW double counting   =     30137.27328078   -30186.46631646
  entropy T*S    EENTRO =        -0.00000000
  eigenvalues    EBANDS =     -3348.75960339
  atomic energy  EATOM  =     10594.82071859
  Solvation  Ediel_sol  =         0.00000000
  ---------------------------------------------------
  free energy    TOTEN  =      -664.42572478 eV

  energy without entropy =     -664.42572478  energy(sigma->0) =     -664.42572478


--------------------------------------------------------------------------------------------------------




--------------------------------------- Iteration      1(  28)  ---------------------------------------


    POTLOK:  cpu time    0.3433: real time    0.3460
    SETDIJ:  cpu time    0.8336: real time    0.8351
     EDDAV:  cpu time   38.5580: real time   38.6703
       DOS:  cpu time    0.0007: real time    0.0007
    CHARGE:  cpu time    2.7047: real time    2.7120
    MIXING:  cpu time    0.0232: real time    0.0232
    --------------------------------------------
      LOOP:  cpu time   42.4634: real time   42.5873

 eigenvalue-minimisations  :  4280
 total energy-change (2. order) :-0.9524545E-05  (-0.4989249E-07)
 number of electron     287.9999993 magnetization      -0.0002350
 augmentation part        6.9301943 magnetization      -0.0002325

 Broyden mixing:
  rms(total) = 0.53219E-04    rms(broyden)= 0.52525E-04
  rms(prec ) = 0.94178E-04
  weight for this iteration     100.00

 eigenvalues of (default mixing * dielectric matrix)
  average eigenvalue GAMMA=   1.9891
  7.9917  5.1259  4.5639  3.4275  2.4983  2.4983  2.2426  1.8007  1.1616  1.0215
  0.9992  0.9358  0.8025  0.7400  0.7400  0.7226  0.6597  0.6326  0.6053  0.6123

 Free energy of the ion-electron system (eV)
  ---------------------------------------------------
  alpha Z        PSCENC =       132.62484682
  Ewald energy   TEWEN  =     36891.50589590
  -Hartree energ DENC   =    -45878.28500814
  -exchange      EXHF   =         0.00000000
  -V(xc)+E(xc)   XCENC  =       992.78273019
  PAW double counting   =     30137.40411629   -30186.59684822
  entropy T*S    EENTRO =        -0.00000000
  eigenvalues    EBANDS =     -3348.68218573
  atomic energy  EATOM  =     10594.82071859
  Solvation  Ediel_sol  =         0.00000000
  ---------------------------------------------------
  free energy    TOTEN  =      -664.42573430 eV

  energy without entropy =     -664.42573430  energy(sigma->0) =     -664.42573430


--------------------------------------------------------------------------------------------------------




--------------------------------------- Iteration      1(  29)  ---------------------------------------


    POTLOK:  cpu time    0.4416: real time    0.4435
    SETDIJ:  cpu time    1.0322: real time    1.0338
     EDDAV:  cpu time   34.8763: real time   34.9712
       DOS:  cpu time    0.0007: real time    0.0007
    CHARGE:  cpu time    2.1742: real time    2.1796
    MIXING:  cpu time    0.0216: real time    0.0216
    --------------------------------------------
      LOOP:  cpu time   38.5465: real time   38.6504

 eigenvalue-minimisations  :  3808
 total energy-change (2. order) :-0.3238282E-04  (-0.4291153E-07)
 number of electron     287.9999993 magnetization       0.0000756
 augmentation part        6.9301952 magnetization       0.0000792

 Broyden mixing:
  rms(total) = 0.62665E-04    rms(broyden)= 0.62068E-04
  rms(prec ) = 0.72801E-04
  weight for this iteration     100.00

 eigenvalues of (default mixing * dielectric matrix)
  average eigenvalue GAMMA=   2.0950
  8.3230  5.0515  5.0515  4.0463  2.9246  2.7159  2.3264  2.3264  1.8020  1.1430
  0.9830  0.9830  0.8825  0.7989  0.7323  0.7323  0.6619  0.6619  0.6023  0.6174
  0.6287

 Free energy of the ion-electron system (eV)
  ---------------------------------------------------
  alpha Z        PSCENC =       132.62484682
  Ewald energy   TEWEN  =     36891.50589590
  -Hartree energ DENC   =    -45878.35341600
  -exchange      EXHF   =         0.00000000
  -V(xc)+E(xc)   XCENC  =       992.78297026
  PAW double counting   =     30137.57455889   -30186.76699819
  entropy T*S    EENTRO =        -0.00000000
  eigenvalues    EBANDS =     -3348.61434296
  atomic energy  EATOM  =     10594.82071859
  Solvation  Ediel_sol  =         0.00000000
  ---------------------------------------------------
  free energy    TOTEN  =      -664.42576668 eV

  energy without entropy =     -664.42576668  energy(sigma->0) =     -664.42576668


--------------------------------------------------------------------------------------------------------




--------------------------------------- Iteration      1(  30)  ---------------------------------------


    POTLOK:  cpu time    0.4004: real time    0.4050
    SETDIJ:  cpu time    0.8497: real time    0.8509
     EDDAV:  cpu time   53.0186: real time   53.1193
       DOS:  cpu time    0.0003: real time    0.0003
    CHARGE:  cpu time    3.9300: real time    3.9357
    MIXING:  cpu time    0.0672: real time    0.0673
    --------------------------------------------
      LOOP:  cpu time   58.2663: real time   58.3785

 eigenvalue-minimisations  :  3808
 total energy-change (2. order) :-0.1627325E-04  (-0.2927343E-07)
 number of electron     287.9999993 magnetization       0.0000900
 augmentation part        6.9301908 magnetization       0.0000910

 Broyden mixing:
  rms(total) = 0.29972E-04    rms(broyden)= 0.28687E-04
  rms(prec ) = 0.30714E-04
  weight for this iteration     100.00

 eigenvalues of (default mixing * dielectric matrix)
  average eigenvalue GAMMA=   2.1198
  8.7057  5.7821  5.2115  4.3261  3.1065  2.7617  2.3006  2.3006  1.8040  1.1460
  0.9963  0.9963  0.8776  0.8776  0.7804  0.7804  0.7248  0.6733  0.6339  0.6339
  0.6078  0.6078

 Free energy of the ion-electron system (eV)
  ---------------------------------------------------
  alpha Z        PSCENC =       132.62484682
  Ewald energy   TEWEN  =     36891.50589590
  -Hartree energ DENC   =    -45878.40413135
  -exchange      EXHF   =         0.00000000
  -V(xc)+E(xc)   XCENC  =       992.78350752
  PAW double counting   =     30137.45785645   -30186.65040251
  entropy T*S    EENTRO =        -0.00000000
  eigenvalues    EBANDS =     -3348.56407438
  atomic energy  EATOM  =     10594.82071859
  Solvation  Ediel_sol  =         0.00000000
  ---------------------------------------------------
  free energy    TOTEN  =      -664.42578296 eV

  energy without entropy =     -664.42578296  energy(sigma->0) =     -664.42578296


--------------------------------------------------------------------------------------------------------




--------------------------------------- Iteration      1(  31)  ---------------------------------------


    POTLOK:  cpu time    0.3121: real time    0.3161
    SETDIJ:  cpu time    0.6762: real time    0.6774
     EDDAV:  cpu time   58.5820: real time   58.6971
       DOS:  cpu time    0.0009: real time    0.0009
    CHARGE:  cpu time    2.2131: real time    2.2183
    MIXING:  cpu time    0.0247: real time    0.0247
    --------------------------------------------
      LOOP:  cpu time   61.8090: real time   61.9345

 eigenvalue-minimisations  :  4176
 total energy-change (2. order) :-0.2544453E-05  (-0.2675355E-08)
 number of electron     287.9999993 magnetization       0.0000547
 augmentation part        6.9301877 magnetization       0.0000556

 Broyden mixing:
  rms(total) = 0.13274E-04    rms(broyden)= 0.10139E-04
  rms(prec ) = 0.11623E-04
  weight for this iteration     100.00
  WARNING: grid for Broyden might be to small

 eigenvalues of (default mixing * dielectric matrix)
  average eigenvalue GAMMA=   2.1258
  9.0580  6.3444  5.1825  4.3763  3.1694  2.7910  2.2779  2.2779  1.8113  1.3932
  1.1437  0.9854  0.9854  0.8597  0.8597  0.7747  0.7357  0.7153  0.6755  0.6315
  0.6315  0.6060  0.6085

 Free energy of the ion-electron system (eV)
  ---------------------------------------------------
  alpha Z        PSCENC =       132.62484682
  Ewald energy   TEWEN  =     36891.50589590
  -Hartree energ DENC   =    -45878.41114258
  -exchange      EXHF   =         0.00000000
  -V(xc)+E(xc)   XCENC  =       992.78359399
  PAW double counting   =     30137.31227311   -30186.50493832
  entropy T*S    EENTRO =        -0.00000000
  eigenvalues    EBANDS =     -3348.55703302
  atomic energy  EATOM  =     10594.82071859
  Solvation  Ediel_sol  =         0.00000000
  ---------------------------------------------------
  free energy    TOTEN  =      -664.42578550 eV

  energy without entropy =     -664.42578550  energy(sigma->0) =     -664.42578550


--------------------------------------------------------------------------------------------------------




--------------------------------------- Iteration      1(  32)  ---------------------------------------


    POTLOK:  cpu time    0.2877: real time    0.2900
    SETDIJ:  cpu time    0.6934: real time    0.6947
     EDDAV:  cpu time   36.0781: real time   36.1660
       DOS:  cpu time    0.0005: real time    0.0005
    CHARGE:  cpu time    2.6011: real time    2.6078
    MIXING:  cpu time    0.0341: real time    0.0341
    --------------------------------------------
      LOOP:  cpu time   39.6948: real time   39.7931

 eigenvalue-minimisations  :  3744
 total energy-change (2. order) :-0.1703524E-05  (-0.4804832E-09)
 number of electron     287.9999993 magnetization       0.0000330
 augmentation part        6.9301859 magnetization       0.0000334

 Broyden mixing:
  rms(total) = 0.13247E-04    rms(broyden)= 0.10107E-04
  rms(prec ) = 0.10420E-04
  weight for this iteration     100.00
  WARNING: grid for Broyden might be to small

 eigenvalues of (default mixing * dielectric matrix)
  average eigenvalue GAMMA=   2.1669
  9.5219  6.7698  5.1723  4.4646  3.3038  2.9150  2.3421  2.3421  2.2525  1.8018
  1.1441  0.9804  0.9804  0.9399  0.9399  0.7928  0.7864  0.7172  0.6934  0.6659
  0.6022  0.6363  0.6225  0.6172

 Free energy of the ion-electron system (eV)
  ---------------------------------------------------
  alpha Z        PSCENC =       132.62484682
  Ewald energy   TEWEN  =     36891.50589590
  -Hartree energ DENC   =    -45878.41406523
  -exchange      EXHF   =         0.00000000
  -V(xc)+E(xc)   XCENC  =       992.78358459
  PAW double counting   =     30137.30570548   -30186.49837467
  entropy T*S    EENTRO =        -0.00000000
  eigenvalues    EBANDS =     -3348.55409868
  atomic energy  EATOM  =     10594.82071859
  Solvation  Ediel_sol  =         0.00000000
  ---------------------------------------------------
  free energy    TOTEN  =      -664.42578720 eV

  energy without entropy =     -664.42578720  energy(sigma->0) =     -664.42578720


--------------------------------------------------------------------------------------------------------




--------------------------------------- Iteration      1(  33)  ---------------------------------------


    POTLOK:  cpu time    0.4693: real time    0.4786
    SETDIJ:  cpu time    0.7737: real time    0.7749
     EDDAV:  cpu time   41.9119: real time   42.0115
       DOS:  cpu time    0.0007: real time    0.0007
    --------------------------------------------
      LOOP:  cpu time   43.1555: real time   43.2658

 eigenvalue-minimisations  :  3744
 total energy-change (2. order) :-0.5309994E-06  (-0.2956285E-10)
 number of electron     287.9999993 magnetization       0.0000330
 augmentation part        6.9301859 magnetization       0.0000334

 Free energy of the ion-electron system (eV)
  ---------------------------------------------------
  alpha Z        PSCENC =       132.62484682
  Ewald energy   TEWEN  =     36891.50589590
  -Hartree energ DENC   =    -45878.41384590
  -exchange      EXHF   =         0.00000000
  -V(xc)+E(xc)   XCENC  =       992.78355009
  PAW double counting   =     30137.34313352   -30186.53577568
  entropy T*S    EENTRO =        -0.00000000
  eigenvalues    EBANDS =     -3348.55431108
  atomic energy  EATOM  =     10594.82071859
  Solvation  Ediel_sol  =         0.00000000
  ---------------------------------------------------
  free energy    TOTEN  =      -664.42578774 eV

  energy without entropy =     -664.42578774  energy(sigma->0) =     -664.42578774


--------------------------------------------------------------------------------------------------------




 average (electrostatic) potential at core
  the test charge radii are     0.6991
  (the norm of the test charge is              1.0000)
       1 -57.8994       2 -57.8994       3 -57.8994       4 -57.8995       5 -57.8994
       6 -57.8994       7 -57.8994       8 -57.8994       9 -57.8995      10 -57.8995
      11 -57.8994      12 -57.8994      13 -57.8994      14 -57.8994      15 -57.8995
      16 -57.8995      17 -57.8994      18 -57.8995      19 -57.8994      20 -57.8994
      21 -57.8995      22 -57.8995      23 -57.8994      24 -57.8994      25 -57.8994
      26 -57.8995      27 -57.8995      28 -57.8995      29 -57.8994      30 -57.8995
      31 -57.8994      32 -57.8994      33 -57.8995      34 -57.8995      35 -57.8995
      36 -57.8994      37 -57.8994      38 -57.8994      39 -57.8995      40 -57.8994
      41 -57.8994      42 -57.8994      43 -57.8994      44 -57.8994      45 -57.8995
      46 -57.8994      47 -57.8994      48 -57.8994      49 -57.8994      50 -57.8994
      51 -57.8995      52 -57.8995      53 -57.8994      54 -57.8994      55 -57.8994
      56 -57.8994      57 -57.8995      58 -57.8994      59 -57.8994      60 -57.8994
      61 -57.8994      62 -57.8994      63 -57.8995      64 -57.8995      65 -57.8994
      66 -57.8994      67 -57.8994      68 -57.8994      69 -57.8995      70 -57.8995
      71 -57.8994      72 -57.8994
 
 
 
 E-fermi :  -2.7575     XC(G=0):  -2.5366     alpha+bet : -2.2473


 spin component 1

 k-point     1 :       0.1250    0.1250    0.0000
  band No.  band energies     occupation 
      1     -21.9962      1.00000
      2     -21.5854      1.00000
      3     -21.5854      1.00000
      4     -21.3398      1.00000
      5     -21.3398      1.00000
      6     -21.0950      1.00000
      7     -21.0950      1.00000
      8     -20.5269      1.00000
      9     -20.2848      1.00000
     10     -20.2848      1.00000
     11     -19.8826      1.00000
     12     -19.8826      1.00000
     13     -19.8034      1.00000
     14     -19.8034      1.00000
     15     -19.5644      1.00000
     16     -19.4044      1.00000
     17     -19.4044      1.00000
     18     -18.9308      1.00000
     19     -18.9308      1.00000
     20     -18.2333      1.00000
     21     -18.2333      1.00000
     22     -18.0040      1.00000
     23     -18.0040      1.00000
     24     -17.7779      1.00000
     25     -17.7779      1.00000
     26     -17.3293      1.00000
     27     -17.3293      1.00000
     28     -17.1219      1.00000
     29     -17.1219      1.00000
     30     -17.0847      1.00000
     31     -17.0846      1.00000
     32     -16.9031      1.00000
     33     -16.9031      1.00000
     34     -16.7346      1.00000
     35     -15.7095      1.00000
     36     -15.6319      1.00000
     37     -15.4705      1.00000
     38     -15.3646      1.00000
     39     -15.3646      1.00000
     40     -14.8543      1.00000
     41     -14.6550      1.00000
     42     -14.6550      1.00000
     43     -14.6339      1.00000
     44     -14.4865      1.00000
     45     -14.4865      1.00000
     46     -14.0264      1.00000
     47     -14.0263      1.00000
     48     -13.7501      1.00000
     49     -13.7501      1.00000
     50     -13.2300      1.00000
     51     -13.2300      1.00000
     52     -13.1246      1.00000
     53     -13.1246      1.00000
     54     -12.9201      1.00000
     55     -12.9201      1.00000
     56     -12.8881      1.00000
     57     -12.8318      1.00000
     58     -12.0990      1.00000
     59     -12.0990      1.00000
     60     -11.2848      1.00000
     61     -11.2848      1.00000
     62     -11.2661      1.00000
     63     -11.2661      1.00000
     64     -11.0225      1.00000
     65     -11.0225      1.00000
     66     -10.9836      1.00000
     67     -10.7647      1.00000
     68     -10.7646      1.00000
     69     -10.7188      1.00000
     70     -10.7188      1.00000
     71     -10.2839      1.00000
     72     -10.2839      1.00000
     73     -10.0772      1.00000
     74     -10.0175      1.00000
     75     -10.0175      1.00000
     76      -9.9974      1.00000
     77      -9.9974      1.00000
     78      -9.8379      1.00000
     79      -9.8379      1.00000
     80      -9.5874      1.00000
     81      -9.5874      1.00000
     82      -9.5564      1.00000
     83      -9.4719      1.00000
     84      -9.2963      1.00000
     85      -9.2963      1.00000
     86      -9.1055      1.00000
     87      -9.1055      1.00000
     88      -9.0358      1.00000
     89      -9.0074      1.00000
     90      -9.0074      1.00000
     91      -8.9098      1.00000
     92      -8.9098      1.00000
     93      -8.5623      1.00000
     94      -8.5623      1.00000
     95      -8.5072      1.00000
     96      -8.5072      1.00000
     97      -8.4721      1.00000
     98      -8.4721      1.00000
     99      -8.3948      1.00000
    100      -8.3948      1.00000
    101      -8.3411      1.00000
    102      -8.2461      1.00000
    103      -8.0603      1.00000
    104      -8.0603      1.00000
    105      -8.0443      1.00000
    106      -8.0443      1.00000
    107      -7.8363      1.00000
    108      -7.8363      1.00000
    109      -7.6062      1.00000
    110      -7.6062      1.00000
    111      -7.5063      1.00000
    112      -7.5063      1.00000
    113      -7.2325      1.00000
    114      -7.1163      1.00000
    115      -7.1163      1.00000
    116      -7.0714      1.00000
    117      -7.0714      1.00000
    118      -7.0075      1.00000
    119      -7.0075      1.00000
    120      -6.7494      1.00000
    121      -6.7494      1.00000
    122      -6.5629      1.00000
    123      -6.5629      1.00000
    124      -6.3393      1.00000
    125      -6.3393      1.00000
    126      -5.7895      1.00000
    127      -5.7895      1.00000
    128      -5.6305      1.00000
    129      -5.5717      1.00000
    130      -5.5242      1.00000
    131      -5.5242      1.00000
    132      -5.3647      1.00000
    133      -5.3647      1.00000
    134      -4.9679      1.00000
    135      -4.9679      1.00000
    136      -4.8296      1.00000
    137      -4.8296      1.00000
    138      -4.7923      1.00000
    139      -4.7727      1.00000
    140      -4.7727      1.00000
    141      -4.4938      1.00000
    142      -4.4938      1.00000
    143      -3.0825      1.00000
    144      -3.0072      1.00000
    145      -1.9270      0.00000
    146      -1.8436      0.00000
    147      -0.7875      0.00000
    148      -0.6087      0.00000
    149      -0.6087      0.00000
    150      -0.5972      0.00000
    151      -0.5972      0.00000
    152      -0.4550      0.00000
    153      -0.4550      0.00000
    154      -0.1408      0.00000
    155      -0.1408      0.00000
    156       0.2023      0.00000
    157       0.2024      0.00000
    158       0.6461      0.00000
    159       0.6461      0.00000
    160       0.8249      0.00000
    161       0.8493      0.00000
    162       0.8493      0.00000
    163       1.3839      0.00000
    164       1.3839      0.00000
    165       1.6154      0.00000
    166       1.6154      0.00000
    167       1.6671      0.00000
    168       1.7192      0.00000
    169       1.7192      0.00000
    170       2.0541      0.00000
    171       2.0541      0.00000
    172       2.1062      0.00000
    173       2.2316      0.00000
    174       2.2316      0.00000
    175       2.4470      0.00000
    176       2.4470      0.00000
    177       2.5696      0.00000
    178       2.5696      0.00000
    179       2.6776      0.00000
    180       2.6776      0.00000
    181       2.8366      0.00000
    182       2.9064      0.00000
    183       2.9064      0.00000
    184       3.0149      0.00000
    185       3.0205      0.00000
    186       3.0205      0.00000
    187       3.1710      0.00000
    188       3.1710      0.00000
    189       3.3258      0.00000
    190       3.3258      0.00000
    191       3.3633      0.00000
    192       3.3633      0.00000
    193       3.4120      0.00000
    194       3.4120      0.00000
    195       3.4750      0.00000
    196       3.6921      0.00000
    197       3.7228      0.00000
    198       3.7228      0.00000
    199       3.8390      0.00000
    200       3.8390      0.00000
    201       4.0170      0.00000
    202       4.0170      0.00000
    203       4.0388      0.00000
    204       4.0388      0.00000
    205       4.1156      0.00000
    206       4.1638      0.00000
    207       4.1726      0.00000
    208       4.3594      0.00000
    209       4.3594      0.00000
    210       4.3761      0.00000
    211       4.3761      0.00000
    212       4.3851      0.00000
    213       4.3851      0.00000
    214       4.5066      0.00000
    215       4.5066      0.00000
    216       4.6281      0.00000
    217       4.6281      0.00000
    218       4.6745      0.00000
    219       4.6746      0.00000
    220       4.6979      0.00000
    221       4.6979      0.00000
    222       4.7106      0.00000
    223       4.7106      0.00000
    224       4.9991      0.00000

 k-point     2 :       0.3750    0.1250    0.0000
  band No.  band energies     occupation 
      1     -21.8933      1.00000
      2     -21.8111      1.00000
      3     -21.6469      1.00000
      4     -21.4012      1.00000
      5     -21.0747      1.00000
      6     -20.9119      1.00000
      7     -20.8306      1.00000
      8     -20.6684      1.00000
      9     -20.6683      1.00000
     10     -20.4256      1.00000
     11     -20.1840      1.00000
     12     -20.1034      1.00000
     13     -19.7033      1.00000
     14     -19.6234      1.00000
     15     -19.2274      1.00000
     16     -18.9915      1.00000
     17     -18.9902      1.00000
     18     -18.9126      1.00000
     19     -18.7555      1.00000
     20     -18.6786      1.00000
     21     -18.5216      1.00000
     22     -18.2903      1.00000
     23     -18.2135      1.00000
     24     -18.0613      1.00000
     25     -17.8358      1.00000
     26     -17.5396      1.00000
     27     -17.3977      1.00000
     28     -17.3832      1.00000
     29     -16.9221      1.00000
     30     -16.8228      1.00000
     31     -16.6617      1.00000
     32     -16.4837      1.00000
     33     -16.3160      1.00000
     34     -16.2800      1.00000
     35     -16.2722      1.00000
     36     -15.9753      1.00000
     37     -15.4493      1.00000
     38     -15.3744      1.00000
     39     -15.2149      1.00000
     40     -15.1877      1.00000
     41     -14.8869      1.00000
     42     -14.7729      1.00000
     43     -14.6979      1.00000
     44     -14.6143      1.00000
     45     -14.4616      1.00000
     46     -14.2257      1.00000
     47     -14.0607      1.00000
     48     -13.9635      1.00000
     49     -13.6310      1.00000
     50     -13.4088      1.00000
     51     -13.3314      1.00000
     52     -12.8181      1.00000
     53     -12.7181      1.00000
     54     -12.5913      1.00000
     55     -12.4032      1.00000
     56     -12.2321      1.00000
     57     -12.2142      1.00000
     58     -12.2103      1.00000
     59     -12.0585      1.00000
     60     -11.8329      1.00000
     61     -11.7748      1.00000
     62     -11.7338      1.00000
     63     -11.7099      1.00000
     64     -11.5233      1.00000
     65     -11.2425      1.00000
     66     -11.1288      1.00000
     67     -11.0961      1.00000
     68     -10.7226      1.00000
     69     -10.4516      1.00000
     70     -10.3674      1.00000
     71     -10.3502      1.00000
     72     -10.1786      1.00000
     73     -10.1376      1.00000
     74      -9.9543      1.00000
     75      -9.8561      1.00000
     76      -9.7262      1.00000
     77      -9.6740      1.00000
     78      -9.6605      1.00000
     79      -9.6301      1.00000
     80      -9.5449      1.00000
     81      -9.4152      1.00000
     82      -9.4069      1.00000
     83      -9.3688      1.00000
     84      -9.3320      1.00000
     85      -9.2559      1.00000
     86      -9.1669      1.00000
     87      -9.1378      1.00000
     88      -9.1196      1.00000
     89      -8.9831      1.00000
     90      -8.9226      1.00000
     91      -8.8929      1.00000
     92      -8.8078      1.00000
     93      -8.7916      1.00000
     94      -8.7647      1.00000
     95      -8.7531      1.00000
     96      -8.7268      1.00000
     97      -8.6969      1.00000
     98      -8.6034      1.00000
     99      -8.5081      1.00000
    100      -8.5070      1.00000
    101      -8.4290      1.00000
    102      -8.2267      1.00000
    103      -8.2156      1.00000
    104      -8.1122      1.00000
    105      -7.9461      1.00000
    106      -7.8550      1.00000
    107      -7.7690      1.00000
    108      -7.6600      1.00000
    109      -7.5923      1.00000
    110      -7.5661      1.00000
    111      -7.4656      1.00000
    112      -7.4502      1.00000
    113      -7.3967      1.00000
    114      -7.3094      1.00000
    115      -7.2783      1.00000
    116      -6.8616      1.00000
    117      -6.8568      1.00000
    118      -6.7703      1.00000
    119      -6.6134      1.00000
    120      -6.5879      1.00000
    121      -6.5098      1.00000
    122      -6.3560      1.00000
    123      -6.3399      1.00000
    124      -6.2985      1.00000
    125      -6.2429      1.00000
    126      -6.1310      1.00000
    127      -6.0341      1.00000
    128      -5.9486      1.00000
    129      -5.8901      1.00000
    130      -5.8427      1.00000
    131      -5.7884      1.00000
    132      -5.5666      1.00000
    133      -5.5029      1.00000
    134      -5.2122      1.00000
    135      -5.1294      1.00000
    136      -4.8488      1.00000
    137      -4.7480      1.00000
    138      -4.7470      1.00000
    139      -4.3884      1.00000
    140      -4.1364      1.00000
    141      -4.0909      1.00000
    142      -3.8843      1.00000
    143      -3.7814      1.00000
    144      -3.5802      1.00000
    145      -1.4090      0.00000
    146      -1.1627      0.00000
    147      -1.1422      0.00000
    148      -1.0701      0.00000
    149      -0.9138      0.00000
    150      -0.8186      0.00000
    151      -0.7347      0.00000
    152      -0.6612      0.00000
    153      -0.3188      0.00000
    154      -0.1512      0.00000
    155      -0.0385      0.00000
    156       0.0967      0.00000
    157       0.5614      0.00000
    158       0.7595      0.00000
    159       0.7804      0.00000
    160       0.9646      0.00000
    161       1.0432      0.00000
    162       1.0764      0.00000
    163       1.3001      0.00000
    164       1.4970      0.00000
    165       1.5930      0.00000
    166       1.6356      0.00000
    167       1.8083      0.00000
    168       1.8175      0.00000
    169       1.8628      0.00000
    170       1.9213      0.00000
    171       2.0715      0.00000
    172       2.0826      0.00000
    173       2.1471      0.00000
    174       2.2490      0.00000
    175       2.3062      0.00000
    176       2.3633      0.00000
    177       2.3812      0.00000
    178       2.4173      0.00000
    179       2.4853      0.00000
    180       2.5919      0.00000
    181       2.6397      0.00000
    182       2.6408      0.00000
    183       2.9314      0.00000
    184       2.9349      0.00000
    185       2.9352      0.00000
    186       2.9737      0.00000
    187       3.1328      0.00000
    188       3.1599      0.00000
    189       3.2703      0.00000
    190       3.3091      0.00000
    191       3.3921      0.00000
    192       3.4195      0.00000
    193       3.4894      0.00000
    194       3.4937      0.00000
    195       3.6161      0.00000
    196       3.6208      0.00000
    197       3.7289      0.00000
    198       3.7348      0.00000
    199       3.8045      0.00000
    200       3.8088      0.00000
    201       3.9544      0.00000
    202       3.9629      0.00000
    203       3.9635      0.00000
    204       3.9765      0.00000
    205       3.9792      0.00000
    206       4.0861      0.00000
    207       4.2554      0.00000
    208       4.2597      0.00000
    209       4.2922      0.00000
    210       4.3052      0.00000
    211       4.3380      0.00000
    212       4.3673      0.00000
    213       4.5471      0.00000
    214       4.5914      0.00000
    215       4.6430      0.00000
    216       4.6487      0.00000
    217       4.7408      0.00000
    218       4.7621      0.00000
    219       4.8517      0.00000
    220       4.9276      0.00000
    221       4.9648      0.00000
    222       4.9668      0.00000
    223       4.9701      0.00000
    224       4.9785      0.00000

 k-point     3 :      -0.3750    0.1250    0.0000
  band No.  band energies     occupation 
      1     -21.9550      1.00000
      2     -21.7084      1.00000
      3     -21.6264      1.00000
      4     -21.3807      1.00000
      5     -21.2173      1.00000
      6     -20.9729      1.00000
      7     -20.8915      1.00000
      8     -20.7293      1.00000
      9     -20.4864      1.00000
     10     -20.2444      1.00000
     11     -20.1636      1.00000
     12     -20.0030      1.00000
     13     -19.7634      1.00000
     14     -19.5245      1.00000
     15     -19.5237      1.00000
     16     -19.2869      1.00000
     17     -19.2066      1.00000
     18     -18.7353      1.00000
     19     -18.5808      1.00000
     20     -18.5795      1.00000
     21     -18.5030      1.00000
     22     -18.3490      1.00000
     23     -18.0422      1.00000
     24     -18.0421      1.00000
     25     -17.6669      1.00000
     26     -17.4531      1.00000
     27     -17.3652      1.00000
     28     -17.2442      1.00000
     29     -17.0254      1.00000
     30     -17.0007      1.00000
     31     -16.7602      1.00000
     32     -16.7488      1.00000
     33     -16.5925      1.00000
     34     -16.5455      1.00000
     35     -15.9691      1.00000
     36     -15.6955      1.00000
     37     -15.6259      1.00000
     38     -15.1392      1.00000
     39     -15.0707      1.00000
     40     -14.9458      1.00000
     41     -14.9352      1.00000
     42     -14.8908      1.00000
     43     -14.8256      1.00000
     44     -14.6021      1.00000
     45     -14.4138      1.00000
     46     -14.3261      1.00000
     47     -13.9055      1.00000
     48     -13.8371      1.00000
     49     -13.4939      1.00000
     50     -13.4483      1.00000
     51     -13.1714      1.00000
     52     -13.0310      1.00000
     53     -12.8750      1.00000
     54     -12.7324      1.00000
     55     -12.6869      1.00000
     56     -12.6629      1.00000
     57     -12.5573      1.00000
     58     -12.3513      1.00000
     59     -11.8113      1.00000
     60     -11.6739      1.00000
     61     -11.5387      1.00000
     62     -11.4316      1.00000
     63     -11.3642      1.00000
     64     -11.2426      1.00000
     65     -11.0717      1.00000
     66     -11.0028      1.00000
     67     -10.9818      1.00000
     68     -10.9704      1.00000
     69     -10.7314      1.00000
     70     -10.5599      1.00000
     71     -10.3281      1.00000
     72     -10.2024      1.00000
     73     -10.0280      1.00000
     74      -9.9667      1.00000
     75      -9.8835      1.00000
     76      -9.8671      1.00000
     77      -9.7338      1.00000
     78      -9.6989      1.00000
     79      -9.6362      1.00000
     80      -9.6238      1.00000
     81      -9.5687      1.00000
     82      -9.4848      1.00000
     83      -9.3446      1.00000
     84      -9.3384      1.00000
     85      -9.1997      1.00000
     86      -9.1514      1.00000
     87      -9.0993      1.00000
     88      -9.0897      1.00000
     89      -8.9947      1.00000
     90      -8.9415      1.00000
     91      -8.8689      1.00000
     92      -8.8638      1.00000
     93      -8.8374      1.00000
     94      -8.7686      1.00000
     95      -8.6708      1.00000
     96      -8.6329      1.00000
     97      -8.6265      1.00000
     98      -8.5774      1.00000
     99      -8.4758      1.00000
    100      -8.3445      1.00000
    101      -8.2946      1.00000
    102      -8.1237      1.00000
    103      -8.1087      1.00000
    104      -8.0513      1.00000
    105      -8.0145      1.00000
    106      -7.9255      1.00000
    107      -7.9201      1.00000
    108      -7.8587      1.00000
    109      -7.7417      1.00000
    110      -7.6652      1.00000
    111      -7.4624      1.00000
    112      -7.2317      1.00000
    113      -7.2092      1.00000
    114      -7.2009      1.00000
    115      -7.1898      1.00000
    116      -6.9930      1.00000
    117      -6.9542      1.00000
    118      -6.9185      1.00000
    119      -6.8521      1.00000
    120      -6.7544      1.00000
    121      -6.7037      1.00000
    122      -6.3557      1.00000
    123      -6.3050      1.00000
    124      -6.2004      1.00000
    125      -6.1523      1.00000
    126      -6.1344      1.00000
    127      -6.0810      1.00000
    128      -5.8868      1.00000
    129      -5.7950      1.00000
    130      -5.6608      1.00000
    131      -5.6341      1.00000
    132      -5.5524      1.00000
    133      -5.2916      1.00000
    134      -5.2015      1.00000
    135      -5.0467      1.00000
    136      -4.8422      1.00000
    137      -4.7625      1.00000
    138      -4.7564      1.00000
    139      -4.5276      1.00000
    140      -4.4869      1.00000
    141      -4.2384      1.00000
    142      -4.1901      1.00000
    143      -3.4265      1.00000
    144      -3.2836      1.00000
    145      -1.6737      0.00000
    146      -1.5074      0.00000
    147      -0.9030      0.00000
    148      -0.8755      0.00000
    149      -0.7784      0.00000
    150      -0.7497      0.00000
    151      -0.5650      0.00000
    152      -0.4777      0.00000
    153      -0.4697      0.00000
    154      -0.2997      0.00000
    155      -0.0739      0.00000
    156       0.0252      0.00000
    157       0.4790      0.00000
    158       0.7344      0.00000
    159       0.8808      0.00000
    160       1.0727      0.00000
    161       1.1158      0.00000
    162       1.1742      0.00000
    163       1.2162      0.00000
    164       1.3280      0.00000
    165       1.3291      0.00000
    166       1.3498      0.00000
    167       1.6635      0.00000
    168       1.7236      0.00000
    169       1.8870      0.00000
    170       2.0624      0.00000
    171       2.1347      0.00000
    172       2.1633      0.00000
    173       2.1753      0.00000
    174       2.2217      0.00000
    175       2.3331      0.00000
    176       2.5062      0.00000
    177       2.5134      0.00000
    178       2.5467      0.00000
    179       2.5576      0.00000
    180       2.6205      0.00000
    181       2.7002      0.00000
    182       2.7384      0.00000
    183       2.8920      0.00000
    184       2.8993      0.00000
    185       2.9634      0.00000
    186       3.0745      0.00000
    187       3.1857      0.00000
    188       3.1920      0.00000
    189       3.2262      0.00000
    190       3.2960      0.00000
    191       3.3349      0.00000
    192       3.4122      0.00000
    193       3.5315      0.00000
    194       3.5347      0.00000
    195       3.5574      0.00000
    196       3.5832      0.00000
    197       3.6489      0.00000
    198       3.7440      0.00000
    199       3.8506      0.00000
    200       3.8699      0.00000
    201       3.8780      0.00000
    202       3.8940      0.00000
    203       3.9826      0.00000
    204       4.0370      0.00000
    205       4.1715      0.00000
    206       4.2208      0.00000
    207       4.2226      0.00000
    208       4.2276      0.00000
    209       4.2810      0.00000
    210       4.2927      0.00000
    211       4.3202      0.00000
    212       4.4663      0.00000
    213       4.5071      0.00000
    214       4.5445      0.00000
    215       4.5608      0.00000
    216       4.5635      0.00000
    217       4.6191      0.00000
    218       4.6619      0.00000
    219       4.6753      0.00000
    220       4.7606      0.00000
    221       4.7640      0.00000
    222       4.8765      0.00000
    223       4.9032      0.00000
    224       4.9815      0.00000

 k-point     4 :      -0.1250    0.1250    0.0000
  band No.  band energies     occupation 
      1     -22.0168      1.00000
      2     -21.5239      1.00000
      3     -21.4421      1.00000
      4     -21.4421      1.00000
      5     -21.2786      1.00000
      6     -21.2785      1.00000
      7     -21.1969      1.00000
      8     -20.3049      1.00000
      9     -20.3049      1.00000
     10     -20.0637      1.00000
     11     -20.0637      1.00000
     12     -19.8235      1.00000
     13     -19.8235      1.00000
     14     -19.7426      1.00000
     15     -19.5831      1.00000
     16     -19.5831      1.00000
     17     -19.2656      1.00000
     18     -19.2656      1.00000
     19     -19.1077      1.00000
     20     -17.9471      1.00000
     21     -17.9471      1.00000
     22     -17.8716      1.00000
     23     -17.8715      1.00000
     24     -17.6453      1.00000
     25     -17.6453      1.00000
     26     -17.4988      1.00000
     27     -17.4988      1.00000
     28     -17.2761      1.00000
     29     -17.2761      1.00000
     30     -17.2065      1.00000
     31     -17.2064      1.00000
     32     -16.9299      1.00000
     33     -16.8018      1.00000
     34     -16.8018      1.00000
     35     -15.6779      1.00000
     36     -15.6779      1.00000
     37     -15.5514      1.00000
     38     -15.3428      1.00000
     39     -15.3427      1.00000
     40     -14.8619      1.00000
     41     -14.8618      1.00000
     42     -14.3516      1.00000
     43     -14.3516      1.00000
     44     -14.1981      1.00000
     45     -14.1981      1.00000
     46     -14.0452      1.00000
     47     -14.0452      1.00000
     48     -13.7202      1.00000
     49     -13.7202      1.00000
     50     -13.5879      1.00000
     51     -13.5879      1.00000
     52     -13.4153      1.00000
     53     -13.4153      1.00000
     54     -12.9916      1.00000
     55     -12.9916      1.00000
     56     -12.6563      1.00000
     57     -12.3818      1.00000
     58     -12.3818      1.00000
     59     -11.8358      1.00000
     60     -11.8358      1.00000
     61     -11.5636      1.00000
     62     -10.9482      1.00000
     63     -10.9482      1.00000
     64     -10.8474      1.00000
     65     -10.8474      1.00000
     66     -10.6328      1.00000
     67     -10.6328      1.00000
     68     -10.6150      1.00000
     69     -10.6150      1.00000
     70     -10.4283      1.00000
     71     -10.4283      1.00000
     72     -10.3065      1.00000
     73     -10.3065      1.00000
     74     -10.2174      1.00000
     75     -10.2174      1.00000
     76     -10.1287      1.00000
     77     -10.1287      1.00000
     78     -10.1018      1.00000
     79      -9.8744      1.00000
     80      -9.8744      1.00000
     81      -9.5145      1.00000
     82      -9.4174      1.00000
     83      -9.4174      1.00000
     84      -9.2239      1.00000
     85      -9.2239      1.00000
     86      -9.2115      1.00000
     87      -9.2115      1.00000
     88      -9.1275      1.00000
     89      -8.9303      1.00000
     90      -8.9303      1.00000
     91      -8.8877      1.00000
     92      -8.8449      1.00000
     93      -8.8449      1.00000
     94      -8.5573      1.00000
     95      -8.5573      1.00000
     96      -8.4064      1.00000
     97      -8.3697      1.00000
     98      -8.3697      1.00000
     99      -8.2987      1.00000
    100      -8.2151      1.00000
    101      -8.2151      1.00000
    102      -8.0979      1.00000
    103      -8.0832      1.00000
    104      -8.0832      1.00000
    105      -8.0532      1.00000
    106      -8.0532      1.00000
    107      -7.8046      1.00000
    108      -7.8046      1.00000
    109      -7.5688      1.00000
    110      -7.5688      1.00000
    111      -7.5283      1.00000
    112      -7.5283      1.00000
    113      -7.4490      1.00000
    114      -7.3259      1.00000
    115      -7.2706      1.00000
    116      -7.2706      1.00000
    117      -6.9215      1.00000
    118      -6.9215      1.00000
    119      -6.8650      1.00000
    120      -6.7812      1.00000
    121      -6.7812      1.00000
    122      -6.7518      1.00000
    123      -6.5568      1.00000
    124      -6.5568      1.00000
    125      -6.4203      1.00000
    126      -5.5463      1.00000
    127      -5.5262      1.00000
    128      -5.4827      1.00000
    129      -5.4827      1.00000
    130      -5.4291      1.00000
    131      -5.4290      1.00000
    132      -5.1622      1.00000
    133      -5.1622      1.00000
    134      -5.0835      1.00000
    135      -5.0835      1.00000
    136      -4.8970      1.00000
    137      -4.8376      1.00000
    138      -4.8376      1.00000
    139      -4.8123      1.00000
    140      -4.8123      1.00000
    141      -4.7924      1.00000
    142      -4.7924      1.00000
    143      -2.7969      1.00000
    144      -2.7969      1.00000
    145      -2.1250      0.00000
    146      -2.1250      0.00000
    147      -0.7597      0.00000
    148      -0.7597      0.00000
    149      -0.6954      0.00000
    150      -0.3408      0.00000
    151      -0.3408      0.00000
    152      -0.2328      0.00000
    153      -0.2328      0.00000
    154      -0.0708      0.00000
    155      -0.0707      0.00000
    156       0.1923      0.00000
    157       0.1923      0.00000
    158       0.3711      0.00000
    159       0.3711      0.00000
    160       0.5222      0.00000
    161       0.5222      0.00000
    162       0.7970      0.00000
    163       1.4677      0.00000
    164       1.5794      0.00000
    165       1.5794      0.00000
    166       1.6388      0.00000
    167       1.8029      0.00000
    168       1.8029      0.00000
    169       1.8997      0.00000
    170       1.9145      0.00000
    171       2.0776      0.00000
    172       2.1783      0.00000
    173       2.1783      0.00000
    174       2.3162      0.00000
    175       2.4288      0.00000
    176       2.4288      0.00000
    177       2.6539      0.00000
    178       2.6539      0.00000
    179       2.7522      0.00000
    180       2.7522      0.00000
    181       2.7633      0.00000
    182       2.7661      0.00000
    183       2.8776      0.00000
    184       2.8776      0.00000
    185       3.0466      0.00000
    186       3.1062      0.00000
    187       3.1062      0.00000
    188       3.1433      0.00000
    189       3.1433      0.00000
    190       3.2204      0.00000
    191       3.4468      0.00000
    192       3.4726      0.00000
    193       3.4726      0.00000
    194       3.4775      0.00000
    195       3.4775      0.00000
    196       3.8114      0.00000
    197       3.8114      0.00000
    198       3.9142      0.00000
    199       3.9142      0.00000
    200       3.9158      0.00000
    201       3.9981      0.00000
    202       3.9981      0.00000
    203       4.0876      0.00000
    204       4.1232      0.00000
    205       4.1365      0.00000
    206       4.1365      0.00000
    207       4.2356      0.00000
    208       4.2356      0.00000
    209       4.3378      0.00000
    210       4.3378      0.00000
    211       4.4094      0.00000
    212       4.4094      0.00000
    213       4.4599      0.00000
    214       4.4599      0.00000
    215       4.4781      0.00000
    216       4.4781      0.00000
    217       4.5715      0.00000
    218       4.5722      0.00000
    219       4.5722      0.00000
    220       4.6657      0.00000
    221       4.6658      0.00000
    222       4.7587      0.00000
    223       4.7800      0.00000
    224       4.8209      0.00000

 k-point     5 :       0.3750    0.3750    0.0000
  band No.  band energies     occupation 
      1     -21.8316      1.00000
      2     -21.8316      1.00000
      3     -21.7495      1.00000
      4     -21.2582      1.00000
      5     -21.0950      1.00000
      6     -21.0950      1.00000
      7     -20.6076      1.00000
      8     -20.6076      1.00000
      9     -20.5266      1.00000
     10     -20.5266      1.00000
     11     -20.3651      1.00000
     12     -20.3651      1.00000
     13     -19.4050      1.00000
     14     -19.4050      1.00000
     15     -19.1679      1.00000
     16     -19.1679      1.00000
     17     -19.0888      1.00000
     18     -19.0888      1.00000
     19     -18.6982      1.00000
     20     -18.6982      1.00000
     21     -18.3878      1.00000
     22     -18.1563      1.00000
     23     -18.1563      1.00000
     24     -18.0045      1.00000
     25     -18.0045      1.00000
     26     -17.7794      1.00000
     27     -17.7794      1.00000
     28     -17.0345      1.00000
     29     -16.6767      1.00000
     30     -16.6766      1.00000
     31     -16.6427      1.00000
     32     -16.6427      1.00000
     33     -16.5233      1.00000
     34     -16.1013      1.00000
     35     -16.0089      1.00000
     36     -16.0088      1.00000
     37     -15.5234      1.00000
     38     -15.5234      1.00000
     39     -15.5042      1.00000
     40     -15.1343      1.00000
     41     -14.9850      1.00000
     42     -14.9850      1.00000
     43     -14.4157      1.00000
     44     -14.4157      1.00000
     45     -14.1982      1.00000
     46     -14.1982      1.00000
     47     -13.9205      1.00000
     48     -13.9205      1.00000
     49     -13.8979      1.00000
     50     -13.8979      1.00000
     51     -13.5976      1.00000
     52     -12.3734      1.00000
     53     -12.2958      1.00000
     54     -12.2958      1.00000
     55     -12.2381      1.00000
     56     -12.2381      1.00000
     57     -12.0611      1.00000
     58     -12.0610      1.00000
     59     -12.0066      1.00000
     60     -12.0057      1.00000
     61     -12.0057      1.00000
     62     -11.8635      1.00000
     63     -11.8635      1.00000
     64     -11.7695      1.00000
     65     -11.7695      1.00000
     66     -11.4851      1.00000
     67     -10.8447      1.00000
     68     -10.5104      1.00000
     69     -10.5104      1.00000
     70     -10.1804      1.00000
     71     -10.1804      1.00000
     72     -10.0097      1.00000
     73      -9.9058      1.00000
     74      -9.9058      1.00000
     75      -9.8807      1.00000
     76      -9.8807      1.00000
     77      -9.7827      1.00000
     78      -9.6951      1.00000
     79      -9.6951      1.00000
     80      -9.6446      1.00000
     81      -9.6446      1.00000
     82      -9.3251      1.00000
     83      -9.3250      1.00000
     84      -9.1995      1.00000
     85      -9.1114      1.00000
     86      -9.1114      1.00000
     87      -9.0761      1.00000
     88      -9.0761      1.00000
     89      -9.0070      1.00000
     90      -9.0070      1.00000
     91      -8.9944      1.00000
     92      -8.9944      1.00000
     93      -8.9475      1.00000
     94      -8.9475      1.00000
     95      -8.8722      1.00000
     96      -8.8722      1.00000
     97      -8.4367      1.00000
     98      -8.4367      1.00000
     99      -8.3432      1.00000
    100      -8.3432      1.00000
    101      -8.3225      1.00000
    102      -8.3225      1.00000
    103      -8.1557      1.00000
    104      -8.1557      1.00000
    105      -7.9263      1.00000
    106      -7.9084      1.00000
    107      -7.9084      1.00000
    108      -7.6921      1.00000
    109      -7.6921      1.00000
    110      -7.6509      1.00000
    111      -7.6509      1.00000
    112      -7.3179      1.00000
    113      -7.3178      1.00000
    114      -7.0623      1.00000
    115      -7.0623      1.00000
    116      -7.0404      1.00000
    117      -6.7955      1.00000
    118      -6.7955      1.00000
    119      -6.7142      1.00000
    120      -6.7142      1.00000
    121      -6.5301      1.00000
    122      -6.2612      1.00000
    123      -6.2612      1.00000
    124      -6.2527      1.00000
    125      -6.2527      1.00000
    126      -6.0959      1.00000
    127      -5.9226      1.00000
    128      -5.9226      1.00000
    129      -5.9199      1.00000
    130      -5.7728      1.00000
    131      -5.7728      1.00000
    132      -5.6431      1.00000
    133      -5.6431      1.00000
    134      -5.4322      1.00000
    135      -5.4322      1.00000
    136      -4.6127      1.00000
    137      -4.6127      1.00000
    138      -4.4918      1.00000
    139      -4.4869      1.00000
    140      -4.1267      1.00000
    141      -4.1267      1.00000
    142      -3.8943      1.00000
    143      -3.7214      1.00000
    144      -3.7214      1.00000
    145      -1.3177      0.00000
    146      -1.3177      0.00000
    147      -1.2038      0.00000
    148      -0.8836      0.00000
    149      -0.8242      0.00000
    150      -0.8242      0.00000
    151      -0.8038      0.00000
    152      -0.8038      0.00000
    153      -0.4249      0.00000
    154       0.0757      0.00000
    155       0.0757      0.00000
    156       0.3139      0.00000
    157       0.3140      0.00000
    158       0.5369      0.00000
    159       0.5369      0.00000
    160       1.0485      0.00000
    161       1.0485      0.00000
    162       1.1603      0.00000
    163       1.2139      0.00000
    164       1.6453      0.00000
    165       1.6453      0.00000
    166       1.8313      0.00000
    167       1.8931      0.00000
    168       1.8931      0.00000
    169       2.0060      0.00000
    170       2.0361      0.00000
    171       2.0361      0.00000
    172       2.0548      0.00000
    173       2.0548      0.00000
    174       2.2270      0.00000
    175       2.2270      0.00000
    176       2.3348      0.00000
    177       2.3348      0.00000
    178       2.4491      0.00000
    179       2.5837      0.00000
    180       2.5837      0.00000
    181       2.6824      0.00000
    182       2.7240      0.00000
    183       2.7240      0.00000
    184       2.8349      0.00000
    185       2.8349      0.00000
    186       2.9073      0.00000
    187       2.9073      0.00000
    188       3.0581      0.00000
    189       3.0581      0.00000
    190       3.1349      0.00000
    191       3.3636      0.00000
    192       3.3636      0.00000
    193       3.5743      0.00000
    194       3.5743      0.00000
    195       3.6797      0.00000
    196       3.6797      0.00000
    197       3.7007      0.00000
    198       3.7007      0.00000
    199       3.8135      0.00000
    200       3.8865      0.00000
    201       3.8865      0.00000
    202       4.0489      0.00000
    203       4.0489      0.00000
    204       4.1629      0.00000
    205       4.1629      0.00000
    206       4.3394      0.00000
    207       4.3394      0.00000
    208       4.3915      0.00000
    209       4.3915      0.00000
    210       4.3919      0.00000
    211       4.3919      0.00000
    212       4.4514      0.00000
    213       4.4588      0.00000
    214       4.4588      0.00000
    215       4.4889      0.00000
    216       4.7134      0.00000
    217       4.7135      0.00000
    218       4.7250      0.00000
    219       4.7250      0.00000
    220       4.7754      0.00000
    221       4.7754      0.00000
    222       4.8334      0.00000
    223       4.8334      0.00000
    224       4.9745      0.00000

 k-point     6 :      -0.3750    0.3750    0.0000
  band No.  band energies     occupation 
      1     -21.9344      1.00000
      2     -21.7700      1.00000
      3     -21.5239      1.00000
      4     -21.5239      1.00000
      5     -21.0339      1.00000
      6     -21.0339      1.00000
      7     -20.7899      1.00000
      8     -20.7090      1.00000
      9     -20.7090      1.00000
     10     -20.3045      1.00000
     11     -19.9833      1.00000
     12     -19.9833      1.00000
     13     -19.8228      1.00000
     14     -19.8228      1.00000
     15     -19.2671      1.00000
     16     -19.2671      1.00000
     17     -18.8723      1.00000
     18     -18.8723      1.00000
     19     -18.6394      1.00000
     20     -18.6394      1.00000
     21     -18.4060      1.00000
     22     -18.4060      1.00000
     23     -18.4054      1.00000
     24     -17.7198      1.00000
     25     -17.7198      1.00000
     26     -17.6514      1.00000
     27     -17.2872      1.00000
     28     -17.2871      1.00000
     29     -17.0304      1.00000
     30     -17.0304      1.00000
     31     -16.6328      1.00000
     32     -16.6328      1.00000
     33     -16.5022      1.00000
     34     -16.5022      1.00000
     35     -15.9686      1.00000
     36     -15.9685      1.00000
     37     -15.3142      1.00000
     38     -15.3141      1.00000
     39     -15.1574      1.00000
     40     -15.1574      1.00000
     41     -14.7920      1.00000
     42     -14.7920      1.00000
     43     -14.7082      1.00000
     44     -14.5579      1.00000
     45     -14.5579      1.00000
     46     -14.3147      1.00000
     47     -14.3146      1.00000
     48     -13.7129      1.00000
     49     -13.3330      1.00000
     50     -13.3330      1.00000
     51     -13.0943      1.00000
     52     -13.0943      1.00000
     53     -12.8847      1.00000
     54     -12.8847      1.00000
     55     -12.5073      1.00000
     56     -12.5073      1.00000
     57     -12.4503      1.00000
     58     -12.4503      1.00000
     59     -11.7706      1.00000
     60     -11.7706      1.00000
     61     -11.5048      1.00000
     62     -11.5048      1.00000
     63     -11.3591      1.00000
     64     -11.3591      1.00000
     65     -11.2674      1.00000
     66     -11.2674      1.00000
     67     -10.7187      1.00000
     68     -10.7187      1.00000
     69     -10.7073      1.00000
     70     -10.7073      1.00000
     71     -10.4555      1.00000
     72     -10.1413      1.00000
     73     -10.1413      1.00000
     74     -10.0034      1.00000
     75      -9.8072      1.00000
     76      -9.7417      1.00000
     77      -9.7417      1.00000
     78      -9.6318      1.00000
     79      -9.6318      1.00000
     80      -9.5144      1.00000
     81      -9.5144      1.00000
     82      -9.3805      1.00000
     83      -9.3805      1.00000
     84      -9.3564      1.00000
     85      -9.2138      1.00000
     86      -9.2137      1.00000
     87      -9.1790      1.00000
     88      -9.1790      1.00000
     89      -8.9353      1.00000
     90      -8.9353      1.00000
     91      -8.8062      1.00000
     92      -8.7722      1.00000
     93      -8.7722      1.00000
     94      -8.6499      1.00000
     95      -8.6445      1.00000
     96      -8.6107      1.00000
     97      -8.6107      1.00000
     98      -8.5634      1.00000
     99      -8.5634      1.00000
    100      -8.5539      1.00000
    101      -8.5539      1.00000
    102      -8.3018      1.00000
    103      -8.3018      1.00000
    104      -8.0873      1.00000
    105      -7.8573      1.00000
    106      -7.8573      1.00000
    107      -7.7280      1.00000
    108      -7.7148      1.00000
    109      -7.7148      1.00000
    110      -7.5361      1.00000
    111      -7.5361      1.00000
    112      -7.3104      1.00000
    113      -7.2422      1.00000
    114      -7.2422      1.00000
    115      -7.2315      1.00000
    116      -7.2315      1.00000
    117      -6.8979      1.00000
    118      -6.8979      1.00000
    119      -6.5207      1.00000
    120      -6.5207      1.00000
    121      -6.4957      1.00000
    122      -6.4936      1.00000
    123      -6.4936      1.00000
    124      -6.2065      1.00000
    125      -6.2065      1.00000
    126      -6.0290      1.00000
    127      -6.0158      1.00000
    128      -5.9932      1.00000
    129      -5.9932      1.00000
    130      -5.8787      1.00000
    131      -5.7008      1.00000
    132      -5.3548      1.00000
    133      -5.2054      1.00000
    134      -5.2054      1.00000
    135      -4.9858      1.00000
    136      -4.9858      1.00000
    137      -4.8941      1.00000
    138      -4.8941      1.00000
    139      -4.3040      1.00000
    140      -4.3040      1.00000
    141      -4.1569      1.00000
    142      -4.1569      1.00000
    143      -3.4794      1.00000
    144      -3.4793      1.00000
    145      -1.4736      0.00000
    146      -1.4736      0.00000
    147      -0.9183      0.00000
    148      -0.9183      0.00000
    149      -0.8447      0.00000
    150      -0.8447      0.00000
    151      -0.6157      0.00000
    152      -0.6157      0.00000
    153      -0.3652      0.00000
    154      -0.3652      0.00000
    155      -0.1095      0.00000
    156       0.3490      0.00000
    157       0.3490      0.00000
    158       0.8155      0.00000
    159       0.9087      0.00000
    160       0.9745      0.00000
    161       0.9745      0.00000
    162       1.1323      0.00000
    163       1.4678      0.00000
    164       1.4678      0.00000
    165       1.4922      0.00000
    166       1.4922      0.00000
    167       1.5794      0.00000
    168       1.5794      0.00000
    169       1.7518      0.00000
    170       1.9777      0.00000
    171       2.1383      0.00000
    172       2.1383      0.00000
    173       2.1919      0.00000
    174       2.3162      0.00000
    175       2.3162      0.00000
    176       2.4205      0.00000
    177       2.4724      0.00000
    178       2.4902      0.00000
    179       2.4902      0.00000
    180       2.5853      0.00000
    181       2.5853      0.00000
    182       2.7634      0.00000
    183       2.7634      0.00000
    184       2.9910      0.00000
    185       2.9910      0.00000
    186       3.1403      0.00000
    187       3.2669      0.00000
    188       3.2669      0.00000
    189       3.3242      0.00000
    190       3.4395      0.00000
    191       3.4395      0.00000
    192       3.4492      0.00000
    193       3.4492      0.00000
    194       3.5597      0.00000
    195       3.5878      0.00000
    196       3.5878      0.00000
    197       3.6740      0.00000
    198       3.6740      0.00000
    199       3.7853      0.00000
    200       3.7916      0.00000
    201       3.8079      0.00000
    202       3.8079      0.00000
    203       3.9065      0.00000
    204       3.9065      0.00000
    205       3.9186      0.00000
    206       4.1233      0.00000
    207       4.1233      0.00000
    208       4.1995      0.00000
    209       4.3271      0.00000
    210       4.4232      0.00000
    211       4.4677      0.00000
    212       4.4677      0.00000
    213       4.4760      0.00000
    214       4.5882      0.00000
    215       4.5882      0.00000
    216       4.7010      0.00000
    217       4.7010      0.00000
    218       4.7593      0.00000
    219       4.7593      0.00000
    220       4.7954      0.00000
    221       4.7954      0.00000
    222       4.9345      0.00000
    223       4.9346      0.00000
    224       5.0070      0.00000

 spin component 2

 k-point     1 :       0.1250    0.1250    0.0000
  band No.  band energies     occupation 
      1     -21.9962      1.00000
      2     -21.5854      1.00000
      3     -21.5854      1.00000
      4     -21.3398      1.00000
      5     -21.3398      1.00000
      6     -21.0950      1.00000
      7     -21.0950      1.00000
      8     -20.5269      1.00000
      9     -20.2848      1.00000
     10     -20.2848      1.00000
     11     -19.8826      1.00000
     12     -19.8826      1.00000
     13     -19.8034      1.00000
     14     -19.8034      1.00000
     15     -19.5644      1.00000
     16     -19.4044      1.00000
     17     -19.4044      1.00000
     18     -18.9308      1.00000
     19     -18.9308      1.00000
     20     -18.2333      1.00000
     21     -18.2333      1.00000
     22     -18.0040      1.00000
     23     -18.0040      1.00000
     24     -17.7779      1.00000
     25     -17.7779      1.00000
     26     -17.3293      1.00000
     27     -17.3293      1.00000
     28     -17.1219      1.00000
     29     -17.1219      1.00000
     30     -17.0847      1.00000
     31     -17.0846      1.00000
     32     -16.9031      1.00000
     33     -16.9031      1.00000
     34     -16.7346      1.00000
     35     -15.7095      1.00000
     36     -15.6319      1.00000
     37     -15.4705      1.00000
     38     -15.3646      1.00000
     39     -15.3646      1.00000
     40     -14.8543      1.00000
     41     -14.6550      1.00000
     42     -14.6550      1.00000
     43     -14.6339      1.00000
     44     -14.4865      1.00000
     45     -14.4865      1.00000
     46     -14.0264      1.00000
     47     -14.0263      1.00000
     48     -13.7501      1.00000
     49     -13.7501      1.00000
     50     -13.2300      1.00000
     51     -13.2300      1.00000
     52     -13.1246      1.00000
     53     -13.1246      1.00000
     54     -12.9201      1.00000
     55     -12.9201      1.00000
     56     -12.8881      1.00000
     57     -12.8318      1.00000
     58     -12.0990      1.00000
     59     -12.0990      1.00000
     60     -11.2848      1.00000
     61     -11.2848      1.00000
     62     -11.2661      1.00000
     63     -11.2661      1.00000
     64     -11.0225      1.00000
     65     -11.0225      1.00000
     66     -10.9836      1.00000
     67     -10.7647      1.00000
     68     -10.7646      1.00000
     69     -10.7188      1.00000
     70     -10.7188      1.00000
     71     -10.2839      1.00000
     72     -10.2839      1.00000
     73     -10.0772      1.00000
     74     -10.0175      1.00000
     75     -10.0175      1.00000
     76      -9.9974      1.00000
     77      -9.9974      1.00000
     78      -9.8379      1.00000
     79      -9.8379      1.00000
     80      -9.5874      1.00000
     81      -9.5874      1.00000
     82      -9.5564      1.00000
     83      -9.4719      1.00000
     84      -9.2963      1.00000
     85      -9.2963      1.00000
     86      -9.1055      1.00000
     87      -9.1055      1.00000
     88      -9.0358      1.00000
     89      -9.0074      1.00000
     90      -9.0074      1.00000
     91      -8.9098      1.00000
     92      -8.9098      1.00000
     93      -8.5623      1.00000
     94      -8.5623      1.00000
     95      -8.5072      1.00000
     96      -8.5072      1.00000
     97      -8.4721      1.00000
     98      -8.4721      1.00000
     99      -8.3948      1.00000
    100      -8.3948      1.00000
    101      -8.3411      1.00000
    102      -8.2461      1.00000
    103      -8.0603      1.00000
    104      -8.0603      1.00000
    105      -8.0443      1.00000
    106      -8.0443      1.00000
    107      -7.8363      1.00000
    108      -7.8363      1.00000
    109      -7.6062      1.00000
    110      -7.6062      1.00000
    111      -7.5063      1.00000
    112      -7.5063      1.00000
    113      -7.2325      1.00000
    114      -7.1163      1.00000
    115      -7.1163      1.00000
    116      -7.0714      1.00000
    117      -7.0714      1.00000
    118      -7.0075      1.00000
    119      -7.0075      1.00000
    120      -6.7494      1.00000
    121      -6.7494      1.00000
    122      -6.5629      1.00000
    123      -6.5629      1.00000
    124      -6.3393      1.00000
    125      -6.3393      1.00000
    126      -5.7895      1.00000
    127      -5.7895      1.00000
    128      -5.6305      1.00000
    129      -5.5717      1.00000
    130      -5.5242      1.00000
    131      -5.5242      1.00000
    132      -5.3647      1.00000
    133      -5.3647      1.00000
    134      -4.9679      1.00000
    135      -4.9679      1.00000
    136      -4.8296      1.00000
    137      -4.8296      1.00000
    138      -4.7923      1.00000
    139      -4.7727      1.00000
    140      -4.7727      1.00000
    141      -4.4938      1.00000
    142      -4.4938      1.00000
    143      -3.0825      1.00000
    144      -3.0072      1.00000
    145      -1.9270      0.00000
    146      -1.8436      0.00000
    147      -0.7875      0.00000
    148      -0.6087      0.00000
    149      -0.6087      0.00000
    150      -0.5972      0.00000
    151      -0.5972      0.00000
    152      -0.4550      0.00000
    153      -0.4550      0.00000
    154      -0.1408      0.00000
    155      -0.1408      0.00000
    156       0.2023      0.00000
    157       0.2024      0.00000
    158       0.6461      0.00000
    159       0.6461      0.00000
    160       0.8260      0.00000
    161       0.8493      0.00000
    162       0.8493      0.00000
    163       1.3849      0.00000
    164       1.3849      0.00000
    165       1.6154      0.00000
    166       1.6154      0.00000
    167       1.6698      0.00000
    168       1.7202      0.00000
    169       1.7202      0.00000
    170       2.0551      0.00000
    171       2.0551      0.00000
    172       2.1252      0.00000
    173       2.2343      0.00000
    174       2.2343      0.00000
    175       2.4470      0.00000
    176       2.4470      0.00000
    177       2.5723      0.00000
    178       2.5723      0.00000
    179       2.6967      0.00000
    180       2.6967      0.00000
    181       2.8376      0.00000
    182       2.9090      0.00000
    183       2.9090      0.00000
    184       3.0149      0.00000
    185       3.0396      0.00000
    186       3.0396      0.00000
    187       3.1719      0.00000
    188       3.1719      0.00000
    189       3.3258      0.00000
    190       3.3258      0.00000
    191       3.3823      0.00000
    192       3.3823      0.00000
    193       3.4120      0.00000
    194       3.4120      0.00000
    195       3.4856      0.00000
    196       3.6946      0.00000
    197       3.7237      0.00000
    198       3.7237      0.00000
    199       3.8399      0.00000
    200       3.8399      0.00000
    201       4.0194      0.00000
    202       4.0194      0.00000
    203       4.0495      0.00000
    204       4.0495      0.00000
    205       4.1262      0.00000
    206       4.1735      0.00000
    207       4.1828      0.00000
    208       4.3596      0.00000
    209       4.3859      0.00000
    210       4.3859      0.00000
    211       4.3867      0.00000
    212       4.3867      0.00000
    213       4.5256      0.00000
    214       4.5256      0.00000
    215       4.6307      0.00000
    216       4.6307      0.00000
    217       4.6851      0.00000
    218       4.6851      0.00000
    219       4.7003      0.00000
    220       4.7003      0.00000
    221       4.7211      0.00000
    222       4.7213      0.00000
    223       4.9950      0.00000
    224       4.9997      0.00000

 k-point     2 :       0.3750    0.1250    0.0000
  band No.  band energies     occupation 
      1     -21.8933      1.00000
      2     -21.8111      1.00000
      3     -21.6469      1.00000
      4     -21.4012      1.00000
      5     -21.0747      1.00000
      6     -20.9119      1.00000
      7     -20.8306      1.00000
      8     -20.6684      1.00000
      9     -20.6683      1.00000
     10     -20.4256      1.00000
     11     -20.1840      1.00000
     12     -20.1034      1.00000
     13     -19.7033      1.00000
     14     -19.6234      1.00000
     15     -19.2274      1.00000
     16     -18.9915      1.00000
     17     -18.9902      1.00000
     18     -18.9126      1.00000
     19     -18.7555      1.00000
     20     -18.6786      1.00000
     21     -18.5216      1.00000
     22     -18.2903      1.00000
     23     -18.2135      1.00000
     24     -18.0613      1.00000
     25     -17.8358      1.00000
     26     -17.5396      1.00000
     27     -17.3977      1.00000
     28     -17.3832      1.00000
     29     -16.9221      1.00000
     30     -16.8228      1.00000
     31     -16.6617      1.00000
     32     -16.4837      1.00000
     33     -16.3160      1.00000
     34     -16.2800      1.00000
     35     -16.2722      1.00000
     36     -15.9753      1.00000
     37     -15.4493      1.00000
     38     -15.3744      1.00000
     39     -15.2149      1.00000
     40     -15.1877      1.00000
     41     -14.8869      1.00000
     42     -14.7729      1.00000
     43     -14.6979      1.00000
     44     -14.6143      1.00000
     45     -14.4616      1.00000
     46     -14.2257      1.00000
     47     -14.0607      1.00000
     48     -13.9635      1.00000
     49     -13.6310      1.00000
     50     -13.4088      1.00000
     51     -13.3314      1.00000
     52     -12.8181      1.00000
     53     -12.7181      1.00000
     54     -12.5913      1.00000
     55     -12.4032      1.00000
     56     -12.2321      1.00000
     57     -12.2142      1.00000
     58     -12.2103      1.00000
     59     -12.0585      1.00000
     60     -11.8329      1.00000
     61     -11.7748      1.00000
     62     -11.7338      1.00000
     63     -11.7099      1.00000
     64     -11.5233      1.00000
     65     -11.2425      1.00000
     66     -11.1288      1.00000
     67     -11.0961      1.00000
     68     -10.7226      1.00000
     69     -10.4516      1.00000
     70     -10.3674      1.00000
     71     -10.3502      1.00000
     72     -10.1786      1.00000
     73     -10.1376      1.00000
     74      -9.9543      1.00000
     75      -9.8561      1.00000
     76      -9.7262      1.00000
     77      -9.6740      1.00000
     78      -9.6605      1.00000
     79      -9.6301      1.00000
     80      -9.5449      1.00000
     81      -9.4152      1.00000
     82      -9.4069      1.00000
     83      -9.3688      1.00000
     84      -9.3320      1.00000
     85      -9.2559      1.00000
     86      -9.1669      1.00000
     87      -9.1378      1.00000
     88      -9.1196      1.00000
     89      -8.9831      1.00000
     90      -8.9226      1.00000
     91      -8.8929      1.00000
     92      -8.8078      1.00000
     93      -8.7916      1.00000
     94      -8.7647      1.00000
     95      -8.7531      1.00000
     96      -8.7268      1.00000
     97      -8.6969      1.00000
     98      -8.6034      1.00000
     99      -8.5081      1.00000
    100      -8.5070      1.00000
    101      -8.4290      1.00000
    102      -8.2267      1.00000
    103      -8.2156      1.00000
    104      -8.1122      1.00000
    105      -7.9461      1.00000
    106      -7.8550      1.00000
    107      -7.7690      1.00000
    108      -7.6600      1.00000
    109      -7.5923      1.00000
    110      -7.5661      1.00000
    111      -7.4656      1.00000
    112      -7.4502      1.00000
    113      -7.3967      1.00000
    114      -7.3094      1.00000
    115      -7.2783      1.00000
    116      -6.8616      1.00000
    117      -6.8568      1.00000
    118      -6.7703      1.00000
    119      -6.6134      1.00000
    120      -6.5879      1.00000
    121      -6.5098      1.00000
    122      -6.3560      1.00000
    123      -6.3399      1.00000
    124      -6.2985      1.00000
    125      -6.2429      1.00000
    126      -6.1310      1.00000
    127      -6.0341      1.00000
    128      -5.9486      1.00000
    129      -5.8901      1.00000
    130      -5.8427      1.00000
    131      -5.7884      1.00000
    132      -5.5666      1.00000
    133      -5.5029      1.00000
    134      -5.2122      1.00000
    135      -5.1294      1.00000
    136      -4.8488      1.00000
    137      -4.7480      1.00000
    138      -4.7470      1.00000
    139      -4.3884      1.00000
    140      -4.1364      1.00000
    141      -4.0909      1.00000
    142      -3.8843      1.00000
    143      -3.7814      1.00000
    144      -3.5802      1.00000
    145      -1.4090      0.00000
    146      -1.1627      0.00000
    147      -1.1422      0.00000
    148      -1.0701      0.00000
    149      -0.9138      0.00000
    150      -0.8186      0.00000
    151      -0.7347      0.00000
    152      -0.6612      0.00000
    153      -0.3188      0.00000
    154      -0.1512      0.00000
    155      -0.0385      0.00000
    156       0.0967      0.00000
    157       0.5614      0.00000
    158       0.7595      0.00000
    159       0.7804      0.00000
    160       0.9657      0.00000
    161       1.0432      0.00000
    162       1.0775      0.00000
    163       1.3011      0.00000
    164       1.4970      0.00000
    165       1.5930      0.00000
    166       1.6366      0.00000
    167       1.8111      0.00000
    168       1.8175      0.00000
    169       1.8628      0.00000
    170       1.9240      0.00000
    171       2.0715      0.00000
    172       2.0836      0.00000
    173       2.1498      0.00000
    174       2.2681      0.00000
    175       2.3072      0.00000
    176       2.3812      0.00000
    177       2.3824      0.00000
    178       2.4183      0.00000
    179       2.4880      0.00000
    180       2.6110      0.00000
    181       2.6406      0.00000
    182       2.6417      0.00000
    183       2.9314      0.00000
    184       2.9378      0.00000
    185       2.9539      0.00000
    186       2.9746      0.00000
    187       3.1328      0.00000
    188       3.1625      0.00000
    189       3.2729      0.00000
    190       3.3100      0.00000
    191       3.4111      0.00000
    192       3.4204      0.00000
    193       3.4920      0.00000
    194       3.4962      0.00000
    195       3.6268      0.00000
    196       3.6398      0.00000
    197       3.7396      0.00000
    198       3.7538      0.00000
    199       3.8068      0.00000
    200       3.8089      0.00000
    201       3.9651      0.00000
    202       3.9774      0.00000
    203       3.9798      0.00000
    204       3.9819      0.00000
    205       3.9825      0.00000
    206       4.0870      0.00000
    207       4.2616      0.00000
    208       4.2660      0.00000
    209       4.3028      0.00000
    210       4.3242      0.00000
    211       4.3405      0.00000
    212       4.3779      0.00000
    213       4.5476      0.00000
    214       4.6020      0.00000
    215       4.6439      0.00000
    216       4.6677      0.00000
    217       4.7515      0.00000
    218       4.7811      0.00000
    219       4.8541      0.00000
    220       4.9381      0.00000
    221       4.9675      0.00000
    222       4.9734      0.00000
    223       4.9755      0.00000
    224       5.0556      0.00000

 k-point     3 :      -0.3750    0.1250    0.0000
  band No.  band energies     occupation 
      1     -21.9550      1.00000
      2     -21.7084      1.00000
      3     -21.6264      1.00000
      4     -21.3807      1.00000
      5     -21.2173      1.00000
      6     -20.9729      1.00000
      7     -20.8915      1.00000
      8     -20.7293      1.00000
      9     -20.4864      1.00000
     10     -20.2444      1.00000
     11     -20.1636      1.00000
     12     -20.0030      1.00000
     13     -19.7634      1.00000
     14     -19.5245      1.00000
     15     -19.5237      1.00000
     16     -19.2869      1.00000
     17     -19.2066      1.00000
     18     -18.7353      1.00000
     19     -18.5808      1.00000
     20     -18.5795      1.00000
     21     -18.5030      1.00000
     22     -18.3490      1.00000
     23     -18.0422      1.00000
     24     -18.0421      1.00000
     25     -17.6669      1.00000
     26     -17.4531      1.00000
     27     -17.3652      1.00000
     28     -17.2442      1.00000
     29     -17.0254      1.00000
     30     -17.0007      1.00000
     31     -16.7602      1.00000
     32     -16.7488      1.00000
     33     -16.5925      1.00000
     34     -16.5455      1.00000
     35     -15.9691      1.00000
     36     -15.6955      1.00000
     37     -15.6259      1.00000
     38     -15.1392      1.00000
     39     -15.0707      1.00000
     40     -14.9458      1.00000
     41     -14.9352      1.00000
     42     -14.8908      1.00000
     43     -14.8256      1.00000
     44     -14.6021      1.00000
     45     -14.4138      1.00000
     46     -14.3261      1.00000
     47     -13.9055      1.00000
     48     -13.8371      1.00000
     49     -13.4939      1.00000
     50     -13.4483      1.00000
     51     -13.1714      1.00000
     52     -13.0310      1.00000
     53     -12.8750      1.00000
     54     -12.7324      1.00000
     55     -12.6869      1.00000
     56     -12.6629      1.00000
     57     -12.5573      1.00000
     58     -12.3513      1.00000
     59     -11.8113      1.00000
     60     -11.6739      1.00000
     61     -11.5387      1.00000
     62     -11.4316      1.00000
     63     -11.3642      1.00000
     64     -11.2426      1.00000
     65     -11.0717      1.00000
     66     -11.0028      1.00000
     67     -10.9818      1.00000
     68     -10.9704      1.00000
     69     -10.7314      1.00000
     70     -10.5599      1.00000
     71     -10.3281      1.00000
     72     -10.2024      1.00000
     73     -10.0280      1.00000
     74      -9.9667      1.00000
     75      -9.8835      1.00000
     76      -9.8671      1.00000
     77      -9.7338      1.00000
     78      -9.6989      1.00000
     79      -9.6362      1.00000
     80      -9.6238      1.00000
     81      -9.5687      1.00000
     82      -9.4848      1.00000
     83      -9.3446      1.00000
     84      -9.3384      1.00000
     85      -9.1997      1.00000
     86      -9.1514      1.00000
     87      -9.0993      1.00000
     88      -9.0897      1.00000
     89      -8.9947      1.00000
     90      -8.9415      1.00000
     91      -8.8689      1.00000
     92      -8.8638      1.00000
     93      -8.8374      1.00000
     94      -8.7686      1.00000
     95      -8.6708      1.00000
     96      -8.6329      1.00000
     97      -8.6265      1.00000
     98      -8.5774      1.00000
     99      -8.4758      1.00000
    100      -8.3445      1.00000
    101      -8.2946      1.00000
    102      -8.1237      1.00000
    103      -8.1087      1.00000
    104      -8.0513      1.00000
    105      -8.0145      1.00000
    106      -7.9255      1.00000
    107      -7.9201      1.00000
    108      -7.8587      1.00000
    109      -7.7417      1.00000
    110      -7.6652      1.00000
    111      -7.4624      1.00000
    112      -7.2317      1.00000
    113      -7.2092      1.00000
    114      -7.2009      1.00000
    115      -7.1898      1.00000
    116      -6.9930      1.00000
    117      -6.9542      1.00000
    118      -6.9185      1.00000
    119      -6.8521      1.00000
    120      -6.7544      1.00000
    121      -6.7037      1.00000
    122      -6.3557      1.00000
    123      -6.3050      1.00000
    124      -6.2004      1.00000
    125      -6.1523      1.00000
    126      -6.1344      1.00000
    127      -6.0810      1.00000
    128      -5.8868      1.00000
    129      -5.7950      1.00000
    130      -5.6608      1.00000
    131      -5.6341      1.00000
    132      -5.5524      1.00000
    133      -5.2916      1.00000
    134      -5.2015      1.00000
    135      -5.0467      1.00000
    136      -4.8422      1.00000
    137      -4.7625      1.00000
    138      -4.7564      1.00000
    139      -4.5276      1.00000
    140      -4.4869      1.00000
    141      -4.2384      1.00000
    142      -4.1901      1.00000
    143      -3.4265      1.00000
    144      -3.2836      1.00000
    145      -1.6737      0.00000
    146      -1.5074      0.00000
    147      -0.9030      0.00000
    148      -0.8755      0.00000
    149      -0.7784      0.00000
    150      -0.7497      0.00000
    151      -0.5650      0.00000
    152      -0.4777      0.00000
    153      -0.4697      0.00000
    154      -0.2997      0.00000
    155      -0.0739      0.00000
    156       0.0252      0.00000
    157       0.4790      0.00000
    158       0.7344      0.00000
    159       0.8818      0.00000
    160       1.0727      0.00000
    161       1.1158      0.00000
    162       1.1742      0.00000
    163       1.2172      0.00000
    164       1.3290      0.00000
    165       1.3291      0.00000
    166       1.3498      0.00000
    167       1.6645      0.00000
    168       1.7263      0.00000
    169       1.8880      0.00000
    170       2.0651      0.00000
    171       2.1347      0.00000
    172       2.1780      0.00000
    173       2.1824      0.00000
    174       2.2227      0.00000
    175       2.3341      0.00000
    176       2.5161      0.00000
    177       2.5252      0.00000
    178       2.5467      0.00000
    179       2.5585      0.00000
    180       2.6395      0.00000
    181       2.7002      0.00000
    182       2.7411      0.00000
    183       2.8930      0.00000
    184       2.8993      0.00000
    185       2.9825      0.00000
    186       3.0771      0.00000
    187       3.1883      0.00000
    188       3.2110      0.00000
    189       3.2272      0.00000
    190       3.2960      0.00000
    191       3.3358      0.00000
    192       3.4148      0.00000
    193       3.5421      0.00000
    194       3.5538      0.00000
    195       3.5583      0.00000
    196       3.5832      0.00000
    197       3.6679      0.00000
    198       3.7465      0.00000
    199       3.8509      0.00000
    200       3.8805      0.00000
    201       3.8949      0.00000
    202       3.8970      0.00000
    203       3.9932      0.00000
    204       4.0389      0.00000
    205       4.1821      0.00000
    206       4.2234      0.00000
    207       4.2284      0.00000
    208       4.2398      0.00000
    209       4.2816      0.00000
    210       4.2950      0.00000
    211       4.3308      0.00000
    212       4.4689      0.00000
    213       4.5177      0.00000
    214       4.5552      0.00000
    215       4.5616      0.00000
    216       4.5825      0.00000
    217       4.6297      0.00000
    218       4.6627      0.00000
    219       4.6942      0.00000
    220       4.7630      0.00000
    221       4.7641      0.00000
    222       4.8871      0.00000
    223       4.9221      0.00000
    224       4.9654      0.00000

 k-point     4 :      -0.1250    0.1250    0.0000
  band No.  band energies     occupation 
      1     -22.0168      1.00000
      2     -21.5239      1.00000
      3     -21.4421      1.00000
      4     -21.4421      1.00000
      5     -21.2786      1.00000
      6     -21.2785      1.00000
      7     -21.1969      1.00000
      8     -20.3049      1.00000
      9     -20.3049      1.00000
     10     -20.0637      1.00000
     11     -20.0637      1.00000
     12     -19.8235      1.00000
     13     -19.8235      1.00000
     14     -19.7426      1.00000
     15     -19.5831      1.00000
     16     -19.5831      1.00000
     17     -19.2656      1.00000
     18     -19.2656      1.00000
     19     -19.1077      1.00000
     20     -17.9471      1.00000
     21     -17.9471      1.00000
     22     -17.8716      1.00000
     23     -17.8715      1.00000
     24     -17.6453      1.00000
     25     -17.6453      1.00000
     26     -17.4988      1.00000
     27     -17.4988      1.00000
     28     -17.2761      1.00000
     29     -17.2761      1.00000
     30     -17.2065      1.00000
     31     -17.2064      1.00000
     32     -16.9299      1.00000
     33     -16.8018      1.00000
     34     -16.8018      1.00000
     35     -15.6779      1.00000
     36     -15.6779      1.00000
     37     -15.5514      1.00000
     38     -15.3428      1.00000
     39     -15.3427      1.00000
     40     -14.8619      1.00000
     41     -14.8618      1.00000
     42     -14.3516      1.00000
     43     -14.3516      1.00000
     44     -14.1981      1.00000
     45     -14.1981      1.00000
     46     -14.0452      1.00000
     47     -14.0452      1.00000
     48     -13.7202      1.00000
     49     -13.7202      1.00000
     50     -13.5879      1.00000
     51     -13.5879      1.00000
     52     -13.4153      1.00000
     53     -13.4153      1.00000
     54     -12.9916      1.00000
     55     -12.9916      1.00000
     56     -12.6563      1.00000
     57     -12.3818      1.00000
     58     -12.3818      1.00000
     59     -11.8358      1.00000
     60     -11.8358      1.00000
     61     -11.5636      1.00000
     62     -10.9482      1.00000
     63     -10.9482      1.00000
     64     -10.8474      1.00000
     65     -10.8474      1.00000
     66     -10.6328      1.00000
     67     -10.6328      1.00000
     68     -10.6150      1.00000
     69     -10.6150      1.00000
     70     -10.4283      1.00000
     71     -10.4283      1.00000
     72     -10.3065      1.00000
     73     -10.3065      1.00000
     74     -10.2174      1.00000
     75     -10.2174      1.00000
     76     -10.1287      1.00000
     77     -10.1287      1.00000
     78     -10.1018      1.00000
     79      -9.8744      1.00000
     80      -9.8744      1.00000
     81      -9.5145      1.00000
     82      -9.4174      1.00000
     83      -9.4174      1.00000
     84      -9.2239      1.00000
     85      -9.2239      1.00000
     86      -9.2115      1.00000
     87      -9.2115      1.00000
     88      -9.1275      1.00000
     89      -8.9303      1.00000
     90      -8.9303      1.00000
     91      -8.8877      1.00000
     92      -8.8449      1.00000
     93      -8.8449      1.00000
     94      -8.5573      1.00000
     95      -8.5573      1.00000
     96      -8.4064      1.00000
     97      -8.3697      1.00000
     98      -8.3697      1.00000
     99      -8.2987      1.00000
    100      -8.2151      1.00000
    101      -8.2151      1.00000
    102      -8.0979      1.00000
    103      -8.0832      1.00000
    104      -8.0832      1.00000
    105      -8.0532      1.00000
    106      -8.0532      1.00000
    107      -7.8046      1.00000
    108      -7.8046      1.00000
    109      -7.5688      1.00000
    110      -7.5688      1.00000
    111      -7.5283      1.00000
    112      -7.5283      1.00000
    113      -7.4490      1.00000
    114      -7.3259      1.00000
    115      -7.2706      1.00000
    116      -7.2706      1.00000
    117      -6.9215      1.00000
    118      -6.9215      1.00000
    119      -6.8650      1.00000
    120      -6.7812      1.00000
    121      -6.7812      1.00000
    122      -6.7518      1.00000
    123      -6.5568      1.00000
    124      -6.5568      1.00000
    125      -6.4203      1.00000
    126      -5.5463      1.00000
    127      -5.5262      1.00000
    128      -5.4827      1.00000
    129      -5.4827      1.00000
    130      -5.4291      1.00000
    131      -5.4290      1.00000
    132      -5.1622      1.00000
    133      -5.1622      1.00000
    134      -5.0835      1.00000
    135      -5.0835      1.00000
    136      -4.8970      1.00000
    137      -4.8376      1.00000
    138      -4.8376      1.00000
    139      -4.8123      1.00000
    140      -4.8123      1.00000
    141      -4.7924      1.00000
    142      -4.7924      1.00000
    143      -2.7969      1.00000
    144      -2.7969      1.00000
    145      -2.1250      0.00000
    146      -2.1250      0.00000
    147      -0.7597      0.00000
    148      -0.7597      0.00000
    149      -0.6954      0.00000
    150      -0.3408      0.00000
    151      -0.3408      0.00000
    152      -0.2328      0.00000
    153      -0.2328      0.00000
    154      -0.0708      0.00000
    155      -0.0707      0.00000
    156       0.1923      0.00000
    157       0.1923      0.00000
    158       0.3711      0.00000
    159       0.3711      0.00000
    160       0.5222      0.00000
    161       0.5222      0.00000
    162       0.7980      0.00000
    163       1.4687      0.00000
    164       1.5805      0.00000
    165       1.5805      0.00000
    166       1.6415      0.00000
    167       1.8039      0.00000
    168       1.8039      0.00000
    169       1.8997      0.00000
    170       1.9155      0.00000
    171       2.0967      0.00000
    172       2.1783      0.00000
    173       2.1783      0.00000
    174       2.3188      0.00000
    175       2.4315      0.00000
    176       2.4315      0.00000
    177       2.6565      0.00000
    178       2.6565      0.00000
    179       2.7522      0.00000
    180       2.7522      0.00000
    181       2.7688      0.00000
    182       2.7824      0.00000
    183       2.8967      0.00000
    184       2.8967      0.00000
    185       3.0466      0.00000
    186       3.1252      0.00000
    187       3.1252      0.00000
    188       3.1443      0.00000
    189       3.1443      0.00000
    190       3.2395      0.00000
    191       3.4574      0.00000
    192       3.4726      0.00000
    193       3.4726      0.00000
    194       3.4784      0.00000
    195       3.4784      0.00000
    196       3.8123      0.00000
    197       3.8123      0.00000
    198       3.9142      0.00000
    199       3.9142      0.00000
    200       3.9167      0.00000
    201       4.0006      0.00000
    202       4.0006      0.00000
    203       4.0982      0.00000
    204       4.1338      0.00000
    205       4.1373      0.00000
    206       4.1373      0.00000
    207       4.2463      0.00000
    208       4.2463      0.00000
    209       4.3402      0.00000
    210       4.3402      0.00000
    211       4.4706      0.00000
    212       4.4706      0.00000
    213       4.4968      0.00000
    214       4.4971      0.00000
    215       4.4971      0.00000
    216       4.5729      0.00000
    217       4.5822      0.00000
    218       4.5942      0.00000
    219       4.6681      0.00000
    220       4.6709      0.00000
    221       4.7684      0.00000
    222       4.7807      0.00000
    223       4.8374      0.00000
    224       4.8399      0.00000

 k-point     5 :       0.3750    0.3750    0.0000
  band No.  band energies     occupation 
      1     -21.8316      1.00000
      2     -21.8316      1.00000
      3     -21.7495      1.00000
      4     -21.2582      1.00000
      5     -21.0950      1.00000
      6     -21.0950      1.00000
      7     -20.6076      1.00000
      8     -20.6076      1.00000
      9     -20.5266      1.00000
     10     -20.5266      1.00000
     11     -20.3651      1.00000
     12     -20.3651      1.00000
     13     -19.4050      1.00000
     14     -19.4050      1.00000
     15     -19.1679      1.00000
     16     -19.1679      1.00000
     17     -19.0888      1.00000
     18     -19.0888      1.00000
     19     -18.6982      1.00000
     20     -18.6982      1.00000
     21     -18.3878      1.00000
     22     -18.1563      1.00000
     23     -18.1563      1.00000
     24     -18.0045      1.00000
     25     -18.0045      1.00000
     26     -17.7794      1.00000
     27     -17.7794      1.00000
     28     -17.0345      1.00000
     29     -16.6767      1.00000
     30     -16.6766      1.00000
     31     -16.6427      1.00000
     32     -16.6427      1.00000
     33     -16.5233      1.00000
     34     -16.1013      1.00000
     35     -16.0089      1.00000
     36     -16.0088      1.00000
     37     -15.5234      1.00000
     38     -15.5234      1.00000
     39     -15.5042      1.00000
     40     -15.1343      1.00000
     41     -14.9850      1.00000
     42     -14.9850      1.00000
     43     -14.4157      1.00000
     44     -14.4157      1.00000
     45     -14.1982      1.00000
     46     -14.1982      1.00000
     47     -13.9205      1.00000
     48     -13.9205      1.00000
     49     -13.8979      1.00000
     50     -13.8979      1.00000
     51     -13.5976      1.00000
     52     -12.3734      1.00000
     53     -12.2958      1.00000
     54     -12.2958      1.00000
     55     -12.2381      1.00000
     56     -12.2381      1.00000
     57     -12.0611      1.00000
     58     -12.0610      1.00000
     59     -12.0066      1.00000
     60     -12.0057      1.00000
     61     -12.0057      1.00000
     62     -11.8635      1.00000
     63     -11.8635      1.00000
     64     -11.7695      1.00000
     65     -11.7695      1.00000
     66     -11.4851      1.00000
     67     -10.8447      1.00000
     68     -10.5104      1.00000
     69     -10.5104      1.00000
     70     -10.1804      1.00000
     71     -10.1804      1.00000
     72     -10.0097      1.00000
     73      -9.9058      1.00000
     74      -9.9058      1.00000
     75      -9.8807      1.00000
     76      -9.8807      1.00000
     77      -9.7827      1.00000
     78      -9.6951      1.00000
     79      -9.6951      1.00000
     80      -9.6446      1.00000
     81      -9.6446      1.00000
     82      -9.3251      1.00000
     83      -9.3250      1.00000
     84      -9.1995      1.00000
     85      -9.1114      1.00000
     86      -9.1114      1.00000
     87      -9.0761      1.00000
     88      -9.0761      1.00000
     89      -9.0070      1.00000
     90      -9.0070      1.00000
     91      -8.9944      1.00000
     92      -8.9944      1.00000
     93      -8.9475      1.00000
     94      -8.9475      1.00000
     95      -8.8722      1.00000
     96      -8.8722      1.00000
     97      -8.4367      1.00000
     98      -8.4367      1.00000
     99      -8.3432      1.00000
    100      -8.3432      1.00000
    101      -8.3225      1.00000
    102      -8.3225      1.00000
    103      -8.1557      1.00000
    104      -8.1557      1.00000
    105      -7.9263      1.00000
    106      -7.9084      1.00000
    107      -7.9084      1.00000
    108      -7.6921      1.00000
    109      -7.6921      1.00000
    110      -7.6509      1.00000
    111      -7.6509      1.00000
    112      -7.3179      1.00000
    113      -7.3178      1.00000
    114      -7.0623      1.00000
    115      -7.0623      1.00000
    116      -7.0404      1.00000
    117      -6.7955      1.00000
    118      -6.7955      1.00000
    119      -6.7142      1.00000
    120      -6.7142      1.00000
    121      -6.5301      1.00000
    122      -6.2612      1.00000
    123      -6.2612      1.00000
    124      -6.2527      1.00000
    125      -6.2527      1.00000
    126      -6.0959      1.00000
    127      -5.9226      1.00000
    128      -5.9226      1.00000
    129      -5.9199      1.00000
    130      -5.7728      1.00000
    131      -5.7728      1.00000
    132      -5.6431      1.00000
    133      -5.6431      1.00000
    134      -5.4322      1.00000
    135      -5.4322      1.00000
    136      -4.6127      1.00000
    137      -4.6127      1.00000
    138      -4.4918      1.00000
    139      -4.4869      1.00000
    140      -4.1267      1.00000
    141      -4.1267      1.00000
    142      -3.8943      1.00000
    143      -3.7214      1.00000
    144      -3.7214      1.00000
    145      -1.3177      0.00000
    146      -1.3177      0.00000
    147      -1.2038      0.00000
    148      -0.8836      0.00000
    149      -0.8242      0.00000
    150      -0.8242      0.00000
    151      -0.8038      0.00000
    152      -0.8038      0.00000
    153      -0.4249      0.00000
    154       0.0757      0.00000
    155       0.0757      0.00000
    156       0.3139      0.00000
    157       0.3140      0.00000
    158       0.5369      0.00000
    159       0.5369      0.00000
    160       1.0495      0.00000
    161       1.0495      0.00000
    162       1.1613      0.00000
    163       1.2139      0.00000
    164       1.6453      0.00000
    165       1.6453      0.00000
    166       1.8323      0.00000
    167       1.8958      0.00000
    168       1.8958      0.00000
    169       2.0087      0.00000
    170       2.0361      0.00000
    171       2.0361      0.00000
    172       2.0558      0.00000
    173       2.0558      0.00000
    174       2.2270      0.00000
    175       2.2270      0.00000
    176       2.3538      0.00000
    177       2.3538      0.00000
    178       2.4681      0.00000
    179       2.5837      0.00000
    180       2.5837      0.00000
    181       2.6850      0.00000
    182       2.7249      0.00000
    183       2.7249      0.00000
    184       2.8359      0.00000
    185       2.8359      0.00000
    186       2.9099      0.00000
    187       2.9099      0.00000
    188       3.0590      0.00000
    189       3.0590      0.00000
    190       3.1540      0.00000
    191       3.3826      0.00000
    192       3.3826      0.00000
    193       3.5768      0.00000
    194       3.5768      0.00000
    195       3.6822      0.00000
    196       3.6822      0.00000
    197       3.7114      0.00000
    198       3.7114      0.00000
    199       3.8242      0.00000
    200       3.8887      0.00000
    201       3.8887      0.00000
    202       4.0680      0.00000
    203       4.0680      0.00000
    204       4.1819      0.00000
    205       4.1819      0.00000
    206       4.3500      0.00000
    207       4.3500      0.00000
    208       4.3928      0.00000
    209       4.3928      0.00000
    210       4.4104      0.00000
    211       4.4105      0.00000
    212       4.4592      0.00000
    213       4.4592      0.00000
    214       4.4620      0.00000
    215       4.4996      0.00000
    216       4.7240      0.00000
    217       4.7240      0.00000
    218       4.7258      0.00000
    219       4.7258      0.00000
    220       4.7758      0.00000
    221       4.8343      0.00000
    222       4.8345      0.00000
    223       4.9752      0.00000
    224       4.9752      0.00000

 k-point     6 :      -0.3750    0.3750    0.0000
  band No.  band energies     occupation 
      1     -21.9344      1.00000
      2     -21.7700      1.00000
      3     -21.5239      1.00000
      4     -21.5239      1.00000
      5     -21.0339      1.00000
      6     -21.0339      1.00000
      7     -20.7899      1.00000
      8     -20.7090      1.00000
      9     -20.7090      1.00000
     10     -20.3045      1.00000
     11     -19.9833      1.00000
     12     -19.9833      1.00000
     13     -19.8228      1.00000
     14     -19.8228      1.00000
     15     -19.2671      1.00000
     16     -19.2671      1.00000
     17     -18.8723      1.00000
     18     -18.8723      1.00000
     19     -18.6394      1.00000
     20     -18.6394      1.00000
     21     -18.4060      1.00000
     22     -18.4060      1.00000
     23     -18.4054      1.00000
     24     -17.7198      1.00000
     25     -17.7198      1.00000
     26     -17.6514      1.00000
     27     -17.2872      1.00000
     28     -17.2871      1.00000
     29     -17.0304      1.00000
     30     -17.0304      1.00000
     31     -16.6328      1.00000
     32     -16.6328      1.00000
     33     -16.5022      1.00000
     34     -16.5022      1.00000
     35     -15.9686      1.00000
     36     -15.9685      1.00000
     37     -15.3142      1.00000
     38     -15.3141      1.00000
     39     -15.1574      1.00000
     40     -15.1574      1.00000
     41     -14.7920      1.00000
     42     -14.7920      1.00000
     43     -14.7082      1.00000
     44     -14.5579      1.00000
     45     -14.5579      1.00000
     46     -14.3147      1.00000
     47     -14.3146      1.00000
     48     -13.7129      1.00000
     49     -13.3330      1.00000
     50     -13.3330      1.00000
     51     -13.0943      1.00000
     52     -13.0943      1.00000
     53     -12.8847      1.00000
     54     -12.8847      1.00000
     55     -12.5073      1.00000
     56     -12.5073      1.00000
     57     -12.4503      1.00000
     58     -12.4503      1.00000
     59     -11.7706      1.00000
     60     -11.7706      1.00000
     61     -11.5048      1.00000
     62     -11.5048      1.00000
     63     -11.3591      1.00000
     64     -11.3591      1.00000
     65     -11.2674      1.00000
     66     -11.2674      1.00000
     67     -10.7187      1.00000
     68     -10.7187      1.00000
     69     -10.7073      1.00000
     70     -10.7073      1.00000
     71     -10.4555      1.00000
     72     -10.1413      1.00000
     73     -10.1413      1.00000
     74     -10.0034      1.00000
     75      -9.8072      1.00000
     76      -9.7417      1.00000
     77      -9.7417      1.00000
     78      -9.6318      1.00000
     79      -9.6318      1.00000
     80      -9.5144      1.00000
     81      -9.5144      1.00000
     82      -9.3805      1.00000
     83      -9.3805      1.00000
     84      -9.3564      1.00000
     85      -9.2138      1.00000
     86      -9.2137      1.00000
     87      -9.1790      1.00000
     88      -9.1790      1.00000
     89      -8.9353      1.00000
     90      -8.9353      1.00000
     91      -8.8062      1.00000
     92      -8.7722      1.00000
     93      -8.7722      1.00000
     94      -8.6499      1.00000
     95      -8.6445      1.00000
     96      -8.6107      1.00000
     97      -8.6107      1.00000
     98      -8.5634      1.00000
     99      -8.5634      1.00000
    100      -8.5539      1.00000
    101      -8.5539      1.00000
    102      -8.3018      1.00000
    103      -8.3018      1.00000
    104      -8.0873      1.00000
    105      -7.8573      1.00000
    106      -7.8573      1.00000
    107      -7.7280      1.00000
    108      -7.7148      1.00000
    109      -7.7148      1.00000
    110      -7.5361      1.00000
    111      -7.5361      1.00000
    112      -7.3104      1.00000
    113      -7.2422      1.00000
    114      -7.2422      1.00000
    115      -7.2315      1.00000
    116      -7.2315      1.00000
    117      -6.8979      1.00000
    118      -6.8979      1.00000
    119      -6.5207      1.00000
    120      -6.5207      1.00000
    121      -6.4957      1.00000
    122      -6.4936      1.00000
    123      -6.4936      1.00000
    124      -6.2065      1.00000
    125      -6.2065      1.00000
    126      -6.0290      1.00000
    127      -6.0158      1.00000
    128      -5.9932      1.00000
    129      -5.9932      1.00000
    130      -5.8787      1.00000
    131      -5.7008      1.00000
    132      -5.3548      1.00000
    133      -5.2054      1.00000
    134      -5.2054      1.00000
    135      -4.9858      1.00000
    136      -4.9858      1.00000
    137      -4.8941      1.00000
    138      -4.8941      1.00000
    139      -4.3040      1.00000
    140      -4.3040      1.00000
    141      -4.1569      1.00000
    142      -4.1569      1.00000
    143      -3.4794      1.00000
    144      -3.4793      1.00000
    145      -1.4736      0.00000
    146      -1.4736      0.00000
    147      -0.9183      0.00000
    148      -0.9183      0.00000
    149      -0.8447      0.00000
    150      -0.8447      0.00000
    151      -0.6157      0.00000
    152      -0.6157      0.00000
    153      -0.3652      0.00000
    154      -0.3652      0.00000
    155      -0.1095      0.00000
    156       0.3490      0.00000
    157       0.3490      0.00000
    158       0.8155      0.00000
    159       0.9098      0.00000
    160       0.9745      0.00000
    161       0.9745      0.00000
    162       1.1334      0.00000
    163       1.4688      0.00000
    164       1.4688      0.00000
    165       1.4922      0.00000
    166       1.4922      0.00000
    167       1.5794      0.00000
    168       1.5794      0.00000
    169       1.7546      0.00000
    170       1.9805      0.00000
    171       2.1392      0.00000
    172       2.1392      0.00000
    173       2.2109      0.00000
    174       2.3189      0.00000
    175       2.3189      0.00000
    176       2.4395      0.00000
    177       2.4734      0.00000
    178       2.4902      0.00000
    179       2.4902      0.00000
    180       2.5862      0.00000
    181       2.5863      0.00000
    182       2.7824      0.00000
    183       2.7824      0.00000
    184       2.9936      0.00000
    185       2.9936      0.00000
    186       3.1412      0.00000
    187       3.2669      0.00000
    188       3.2669      0.00000
    189       3.3267      0.00000
    190       3.4420      0.00000
    191       3.4420      0.00000
    192       3.4682      0.00000
    193       3.4682      0.00000
    194       3.5703      0.00000
    195       3.5887      0.00000
    196       3.5887      0.00000
    197       3.6740      0.00000
    198       3.6740      0.00000
    199       3.7960      0.00000
    200       3.8088      0.00000
    201       3.8088      0.00000
    202       3.8106      0.00000
    203       3.9203      0.00000
    204       3.9255      0.00000
    205       3.9255      0.00000
    206       4.1340      0.00000
    207       4.1340      0.00000
    208       4.2101      0.00000
    209       4.3280      0.00000
    210       4.4338      0.00000
    211       4.4702      0.00000
    212       4.4702      0.00000
    213       4.4950      0.00000
    214       4.5890      0.00000
    215       4.5890      0.00000
    216       4.7035      0.00000
    217       4.7035      0.00000
    218       4.7698      0.00000
    219       4.7699      0.00000
    220       4.8061      0.00000
    221       4.8061      0.00000
    222       4.9535      0.00000
    223       4.9535      0.00000
    224       5.0771      0.00000


--------------------------------------------------------------------------------------------------------


 soft charge-density along one line, spin component           1
         0         1         2         3         4         5         6         7         8         9
 total charge-density along one line
 
 soft charge-density along one line, spin component           2
         0         1         2         3         4         5         6         7         8         9
 total charge-density along one line
 
 pseudopotential strength for first ion, spin component:           1
 10.202  13.566  -0.000  -0.000  -0.000   0.000   0.000   0.000
 13.566  18.039  -0.000  -0.000  -0.000   0.000   0.000   0.000
 -0.000  -0.000  -4.336  -0.000  -0.000   8.481   0.000   0.000
 -0.000  -0.000  -0.000  -4.316   0.000   0.000   8.448  -0.000
 -0.000  -0.000  -0.000   0.000  -4.336   0.000  -0.000   8.481
  0.000   0.000   8.481   0.000   0.000 -18.723  -0.000  -0.000
  0.000   0.000   0.000   8.448  -0.000  -0.000 -18.671   0.000
  0.000   0.000   0.000  -0.000   8.481  -0.000   0.000 -18.723
 pseudopotential strength for first ion, spin component:           2
 10.202  13.566  -0.000  -0.000  -0.000   0.000   0.000   0.000
 13.566  18.039  -0.000  -0.000  -0.000   0.000   0.000   0.000
 -0.000  -0.000  -4.336  -0.000  -0.000   8.481   0.000   0.000
 -0.000  -0.000  -0.000  -4.316   0.000   0.000   8.448  -0.000
 -0.000  -0.000  -0.000   0.000  -4.336   0.000  -0.000   8.481
  0.000   0.000   8.481   0.000   0.000 -18.723  -0.000  -0.000
  0.000   0.000   0.000   8.448  -0.000  -0.000 -18.671   0.000
  0.000   0.000   0.000  -0.000   8.481  -0.000   0.000 -18.723
 total augmentation occupancy for first ion, spin component:           1
  8.001  -3.534  -0.000   0.000   0.000  -0.000   0.000  -0.000
 -3.534   1.620   0.000  -0.000  -0.000   0.000   0.000   0.000
 -0.000   0.000   1.827   0.000   0.000   0.170   0.000   0.000
  0.000  -0.000   0.000   1.195  -0.000   0.000   0.072  -0.000
  0.000  -0.000   0.000  -0.000   1.827   0.000   0.000   0.170
 -0.000   0.000   0.170   0.000   0.000   0.017   0.000   0.000
  0.000   0.000   0.000   0.072   0.000   0.000   0.005   0.000
 -0.000   0.000   0.000  -0.000   0.170   0.000   0.000   0.017
 total augmentation occupancy for first ion, spin component:           2
  0.000  -0.000  -0.000  -0.000   0.000   0.000  -0.000   0.000
 -0.000   0.000   0.000  -0.000   0.000  -0.000  -0.000  -0.000
 -0.000   0.000   0.000   0.000   0.000   0.000   0.000   0.000
 -0.000  -0.000   0.000  -0.000  -0.000  -0.000  -0.000  -0.000
  0.000   0.000   0.000  -0.000   0.000   0.000   0.000   0.000
  0.000  -0.000   0.000  -0.000   0.000  -0.000  -0.000  -0.000
 -0.000  -0.000   0.000  -0.000   0.000  -0.000  -0.000   0.000
  0.000  -0.000   0.000  -0.000   0.000  -0.000   0.000  -0.000


------------------------ aborting loop because EDIFF is reached ----------------------------------------


 


 total charge     
 
# of ion       s       p       d       tot
------------------------------------------
    1        0.863   1.793   0.000   2.656
    2        0.863   1.793   0.000   2.656
    3        0.863   1.793   0.000   2.656
    4        0.863   1.793   0.000   2.656
    5        0.863   1.793   0.000   2.656
    6        0.863   1.793   0.000   2.656
    7        0.863   1.793   0.000   2.656
    8        0.863   1.793   0.000   2.656
    9        0.863   1.793   0.000   2.656
   10        0.863   1.793   0.000   2.656
   11        0.863   1.793   0.000   2.656
   12        0.863   1.793   0.000   2.656
   13        0.863   1.793   0.000   2.656
   14        0.863   1.793   0.000   2.656
   15        0.863   1.793   0.000   2.656
   16        0.863   1.793   0.000   2.656
   17        0.863   1.793   0.000   2.656
   18        0.863   1.793   0.000   2.656
   19        0.863   1.793   0.000   2.656
   20        0.863   1.793   0.000   2.656
   21        0.863   1.793   0.000   2.656
   22        0.863   1.793   0.000   2.656
   23        0.863   1.793   0.000   2.656
   24        0.863   1.793   0.000   2.656
   25        0.863   1.793   0.000   2.656
   26        0.863   1.793   0.000   2.656
   27        0.863   1.793   0.000   2.656
   28        0.863   1.793   0.000   2.656
   29        0.863   1.793   0.000   2.656
   30        0.863   1.793   0.000   2.656
   31        0.863   1.793   0.000   2.656
   32        0.863   1.793   0.000   2.656
   33        0.863   1.793   0.000   2.656
   34        0.863   1.793   0.000   2.656
   35        0.863   1.793   0.000   2.656
   36        0.863   1.793   0.000   2.656
   37        0.863   1.793   0.000   2.656
   38        0.863   1.793   0.000   2.656
   39        0.863   1.793   0.000   2.656
   40        0.863   1.793   0.000   2.656
   41        0.863   1.793   0.000   2.656
   42        0.863   1.793   0.000   2.656
   43        0.863   1.793   0.000   2.656
   44        0.863   1.793   0.000   2.656
   45        0.863   1.793   0.000   2.656
   46        0.863   1.793   0.000   2.656
   47        0.863   1.793   0.000   2.656
   48        0.863   1.793   0.000   2.656
   49        0.863   1.793   0.000   2.656
   50        0.863   1.793   0.000   2.656
   51        0.863   1.793   0.000   2.656
   52        0.863   1.793   0.000   2.656
   53        0.863   1.793   0.000   2.656
   54        0.863   1.793   0.000   2.656
   55        0.863   1.793   0.000   2.656
   56        0.863   1.793   0.000   2.656
   57        0.863   1.793   0.000   2.656
   58        0.863   1.793   0.000   2.656
   59        0.863   1.793   0.000   2.656
   60        0.863   1.793   0.000   2.656
   61        0.863   1.793   0.000   2.656
   62        0.863   1.793   0.000   2.656
   63        0.863   1.793   0.000   2.656
   64        0.863   1.793   0.000   2.656
   65        0.863   1.793   0.000   2.656
   66        0.863   1.793   0.000   2.656
   67        0.863   1.793   0.000   2.656
   68        0.863   1.793   0.000   2.656
   69        0.863   1.793   0.000   2.656
   70        0.863   1.793   0.000   2.656
   71        0.863   1.793   0.000   2.656
   72        0.863   1.793   0.000   2.656
--------------------------------------------------
tot         62.110 129.103   0.000 191.212
 


 magnetization (x)
 
# of ion       s       p       d       tot
------------------------------------------
    1        0.000   0.000   0.000   0.000
    2        0.000   0.000   0.000   0.000
    3        0.000   0.000   0.000   0.000
    4        0.000   0.000   0.000   0.000
    5        0.000   0.000   0.000   0.000
    6        0.000   0.000   0.000   0.000
    7        0.000   0.000   0.000   0.000
    8        0.000   0.000   0.000   0.000
    9        0.000   0.000   0.000   0.000
   10        0.000   0.000   0.000   0.000
   11        0.000   0.000   0.000   0.000
   12        0.000   0.000   0.000   0.000
   13        0.000   0.000   0.000   0.000
   14        0.000   0.000   0.000   0.000
   15        0.000   0.000   0.000   0.000
   16        0.000   0.000   0.000   0.000
   17        0.000   0.000   0.000   0.000
   18        0.000   0.000   0.000   0.000
   19        0.000   0.000   0.000   0.000
   20        0.000   0.000   0.000   0.000
   21        0.000   0.000   0.000   0.000
   22        0.000   0.000   0.000   0.000
   23        0.000   0.000   0.000   0.000
   24        0.000   0.000   0.000   0.000
   25        0.000   0.000   0.000   0.000
   26        0.000   0.000   0.000   0.000
   27        0.000   0.000   0.000   0.000
   28        0.000   0.000   0.000   0.000
   29        0.000   0.000   0.000   0.000
   30        0.000   0.000   0.000   0.000
   31        0.000   0.000   0.000   0.000
   32        0.000   0.000   0.000   0.000
   33        0.000   0.000   0.000   0.000
   34        0.000   0.000   0.000   0.000
   35        0.000   0.000   0.000   0.000
   36        0.000   0.000   0.000   0.000
   37        0.000   0.000   0.000   0.000
   38        0.000   0.000   0.000   0.000
   39        0.000   0.000   0.000   0.000
   40        0.000   0.000   0.000   0.000
   41        0.000   0.000   0.000   0.000
   42        0.000   0.000   0.000   0.000
   43        0.000   0.000   0.000   0.000
   44        0.000   0.000   0.000   0.000
   45        0.000   0.000   0.000   0.000
   46        0.000   0.000   0.000   0.000
   47        0.000   0.000   0.000   0.000
   48        0.000   0.000   0.000   0.000
   49        0.000   0.000   0.000   0.000
   50        0.000   0.000   0.000   0.000
   51        0.000   0.000   0.000   0.000
   52        0.000   0.000   0.000   0.000
   53        0.000   0.000   0.000   0.000
   54        0.000   0.000   0.000   0.000
   55        0.000   0.000   0.000   0.000
   56        0.000   0.000   0.000   0.000
   57        0.000   0.000   0.000   0.000
   58        0.000   0.000   0.000   0.000
   59        0.000   0.000   0.000   0.000
   60        0.000   0.000   0.000   0.000
   61        0.000   0.000   0.000   0.000
   62        0.000   0.000   0.000   0.000
   63        0.000   0.000   0.000   0.000
   64        0.000   0.000   0.000   0.000
   65        0.000   0.000   0.000   0.000
   66        0.000   0.000   0.000   0.000
   67        0.000   0.000   0.000   0.000
   68        0.000   0.000   0.000   0.000
   69        0.000   0.000   0.000   0.000
   70        0.000   0.000   0.000   0.000
   71        0.000   0.000   0.000   0.000
   72        0.000   0.000   0.000   0.000
--------------------------------------------------
tot          0.000   0.000   0.000   0.000
 
    CHARGE:  cpu time    2.2815: real time    2.2869
    FORLOC:  cpu time    0.0446: real time    0.0446
    FORNL :  cpu time    8.6032: real time    8.6307
    FORCOR:  cpu time    1.0383: real time    1.0402
    FORHAR:  cpu time    0.0701: real time    0.0703
    MIXING:  cpu time    0.0256: real time    0.0256
    OFIELD:  cpu time    0.0000: real time    0.0000

 ---------------------------------------------------------------------------------------------

         DFTD3 V3.0 Rev 1        
 IVDW         = 11
 DF pbe       
 parameters
 VDW_S6       =    1.0000
 VDW_S8       =    0.7220
 VDW_SR       =    1.2170
 rs18     =    1.0000
 alpha6   =   14.0000
 alpha8   =   16.0000
 k1-k3    =   16.0000    1.3333   -4.0000
 VDW_RADIUS   =   50.2022 A
 VDW_CNRADIUS =   21.1671 A
 Edisp (eV)   -2.47984

 E6    (eV) :    -1.3971
 E8    (eV) :    -1.0827
 % E8        : 43.66
    FORVDW:  cpu time    0.2218: real time    0.2263

 VOLUME and BASIS-vectors are now :
 -----------------------------------------------------------------------------
  energy-cutoff  :      600.00
  volume of cell :     3210.93
      direct lattice vectors                 reciprocal lattice vectors
    14.768125534  0.000000000  0.000000000     0.067713401  0.039094350  0.000000000
    -7.384062767 12.789571879  0.000000000     0.000000000  0.078188700  0.000000000
     0.000000000  0.000000000 17.000000000     0.000000000  0.000000000  0.058823529

  length of vectors
    14.768125534 14.768125534 17.000000000     0.078188700  0.078188700  0.058823529


 FORCES acting on ions
    electron-ion (+dipol)            ewald-force                    non-local-force                 convergence-correction
 -----------------------------------------------------------------------------------------------
   0.130E-03 -.957E-05 -.407E-08   0.225E-03 0.838E-04 0.126E-17   -.351E-17 0.124E-17 0.929E-25   0.636E-10 0.336E-10 -.823E-13
   0.107E-03 0.485E-04 -.407E-08   0.203E-03 0.133E-03 0.333E-17   -.599E-17 0.149E-17 0.258E-25   0.115E-09 -.218E-09 -.813E-13
   0.846E-04 -.722E-04 -.407E-08   0.114E-03 -.250E-03 0.393E-17   -.532E-17 0.116E-17 0.194E-24   0.154E-09 -.170E-09 -.803E-13
   0.142E-04 0.448E-05 -.406E-08   0.202E-03 -.222E-04 0.725E-18   -.387E-17 0.551E-18 -.666E-24   0.183E-09 0.546E-10 -.871E-13
   0.177E-03 0.593E-04 -.408E-08   0.288E-03 0.161E-03 0.578E-18   -.487E-17 0.977E-18 -.355E-24   0.103E-09 0.314E-09 -.813E-13
   -.297E-04 0.117E-03 -.404E-08   0.194E-04 0.222E-03 0.115E-17   -.367E-17 0.120E-17 0.122E-24   0.855E-10 0.221E-09 -.760E-13
   -.763E-05 -.655E-05 -.404E-08   0.106E-03 -.406E-04 -.449E-18   -.385E-17 0.154E-17 0.530E-24   0.392E-10 -.244E-10 -.836E-13
   -.284E-04 0.498E-04 -.405E-08   -.344E-04 0.798E-04 0.588E-18   -.614E-17 0.168E-17 0.582E-25   -.187E-11 -.204E-09 -.840E-13
   -.524E-04 -.747E-04 -.405E-08   -.436E-04 -.147E-03 0.139E-17   -.571E-17 0.109E-17 -.679E-25   0.638E-10 -.207E-09 -.817E-13
   0.639E-04 0.498E-05 -.405E-08   0.150E-03 -.428E-04 0.871E-18   -.441E-17 0.462E-18 0.872E-25   0.907E-10 0.274E-10 -.883E-13
   0.420E-04 0.623E-04 -.406E-08   0.523E-04 0.371E-04 0.451E-18   -.501E-17 0.539E-18 -.116E-24   0.125E-09 0.273E-09 -.843E-13
   0.181E-04 0.121E-03 -.404E-08   0.423E-04 0.580E-04 0.103E-17   -.363E-17 0.136E-17 0.258E-24   0.122E-09 0.209E-09 -.779E-13
   -.143E-03 -.118E-04 -.404E-08   -.121E-03 0.175E-03 -.114E-17   -.388E-17 0.116E-17 0.187E-24   0.541E-10 -.140E-09 -.817E-13
   0.187E-04 0.494E-04 -.404E-08   0.165E-04 0.949E-04 0.232E-17   -.520E-17 0.132E-17 0.103E-24   -.469E-10 -.293E-09 -.816E-13
   -.553E-05 -.750E-04 -.405E-08   0.201E-04 -.133E-03 0.110E-17   -.498E-17 0.103E-17 0.187E-24   -.973E-10 -.249E-09 -.806E-13
   -.717E-04 0.511E-05 -.405E-08   -.676E-04 -.483E-04 -.587E-18   -.410E-17 0.241E-18 0.533E-25   -.568E-10 -.780E-11 -.870E-13
   -.981E-04 0.597E-04 -.403E-08   0.242E-04 0.142E-03 0.523E-18   -.531E-17 0.100E-17 0.289E-24   -.167E-10 0.224E-09 -.822E-13
   0.633E-04 0.117E-03 -.406E-08   0.173E-03 0.234E-03 0.150E-17   -.259E-17 0.107E-17 -.937E-25   0.113E-10 0.169E-09 -.766E-13
   -.117E-04 -.480E-05 -.407E-08   0.954E-04 -.113E-03 0.604E-18   -.486E-17 0.141E-17 0.347E-24   -.328E-10 -.151E-09 -.788E-13
   -.315E-04 0.505E-04 -.406E-08   -.842E-04 0.502E-04 0.435E-18   -.511E-17 0.147E-17 0.595E-24   -.351E-10 -.393E-09 -.787E-13
   -.554E-04 -.731E-04 -.407E-08   -.950E-04 -.214E-03 0.958E-18   -.584E-17 0.628E-18 0.879E-24   -.106E-09 -.274E-09 -.772E-13
   -.122E-03 0.628E-05 -.401E-08   -.154E-03 -.965E-04 -.116E-17   -.378E-17 0.629E-18 0.112E-24   -.111E-09 0.189E-11 -.831E-13
   0.360E-04 0.608E-04 -.406E-08   0.124E-03 0.986E-04 0.240E-17   -.462E-17 0.667E-18 -.129E-25   -.850E-10 0.242E-09 -.783E-13
   0.152E-04 0.122E-03 -.405E-08   -.149E-04 0.251E-04 0.221E-17   -.436E-17 0.921E-18 0.294E-24   -.302E-10 0.161E-09 -.733E-13
   -.147E-03 -.111E-04 -.398E-08   -.142E-03 0.146E-03 0.543E-18   -.332E-17 0.154E-17 0.288E-24   0.367E-10 -.111E-09 -.839E-13
   0.149E-04 0.499E-04 -.408E-08   -.263E-05 0.747E-04 0.852E-18   -.564E-17 0.147E-17 -.768E-25   0.419E-10 -.399E-09 -.834E-13
   -.950E-05 -.746E-04 -.408E-08   0.624E-05 -.148E-03 0.128E-17   -.503E-17 0.394E-18 0.604E-24   -.131E-10 -.304E-09 -.827E-13
   -.760E-04 0.531E-05 -.399E-08   -.678E-04 -.565E-04 -.672E-18   -.340E-17 0.365E-18 0.307E-24   -.573E-10 0.392E-10 -.889E-13
   -.102E-03 0.596E-04 -.401E-08   0.192E-04 0.146E-03 0.602E-18   -.518E-17 0.620E-18 0.439E-24   -.716E-10 0.259E-09 -.838E-13
   -.124E-03 0.117E-03 -.397E-08   -.942E-04 0.224E-03 0.433E-18   -.439E-17 0.122E-17 0.291E-24   -.646E-10 0.226E-09 -.787E-13
   0.848E-04 -.696E-05 -.407E-08   0.107E-03 -.237E-04 0.209E-17   -.467E-17 0.134E-17 -.226E-25   -.917E-11 -.308E-10 -.853E-13
   0.598E-04 0.510E-04 -.407E-08   0.142E-03 0.297E-04 0.116E-18   -.625E-17 0.133E-17 -.278E-24   0.753E-10 -.319E-09 -.849E-13
   0.399E-04 -.748E-04 -.407E-08   -.370E-04 -.143E-03 0.190E-17   -.506E-17 0.119E-17 0.194E-24   0.163E-09 -.247E-09 -.838E-13
   -.309E-04 0.816E-05 -.402E-08   0.675E-04 -.174E-03 -.156E-17   -.386E-17 0.566E-18 -.396E-24   0.113E-09 0.104E-09 -.902E-13
   -.524E-04 0.593E-04 -.403E-08   -.423E-04 0.161E-03 -.107E-17   -.528E-17 0.101E-17 0.285E-24   0.872E-10 0.326E-09 -.852E-13
   -.746E-04 0.121E-03 -.404E-08   -.125E-03 0.787E-04 0.978E-18   -.446E-17 0.812E-18 0.208E-24   0.403E-10 0.256E-09 -.806E-13
   -.555E-04 -.907E-04 -.468E-08   -.541E-04 -.622E-04 -.158E-18   0.574E-17 -.370E-18 0.840E-25   0.357E-10 -.942E-10 -.895E-13
   -.791E-04 -.318E-04 -.468E-08   -.805E-04 -.460E-04 -.887E-18   0.488E-17 -.447E-18 0.223E-24   0.801E-10 -.195E-09 -.874E-13
   -.103E-03 0.251E-04 -.469E-08   -.100E-03 0.499E-04 -.546E-18   0.482E-17 -.570E-18 0.517E-25   0.113E-09 -.169E-10 -.940E-13
   0.169E-04 0.102E-03 -.465E-08   -.482E-04 0.272E-03 -.101E-17   0.501E-17 -.140E-17 0.724E-24   0.996E-10 0.252E-09 -.917E-13
   -.113E-04 -.198E-04 -.466E-08   0.117E-03 -.700E-04 -.132E-18   0.652E-17 -.141E-17 -.129E-25   0.386E-10 0.314E-09 -.842E-13
   -.309E-04 0.364E-04 -.466E-08   -.724E-04 0.568E-04 -.272E-17   0.591E-17 -.389E-18 0.620E-24   0.880E-11 0.124E-09 -.887E-13
   -.839E-05 -.874E-04 -.467E-08   -.352E-05 -.199E-03 -.478E-18   0.568E-17 -.543E-18 -.194E-25   -.778E-10 -.131E-09 -.927E-13
   -.321E-04 -.293E-04 -.467E-08   -.213E-04 -.151E-03 0.142E-17   0.552E-17 -.916E-18 -.895E-24   -.678E-10 -.236E-09 -.903E-13
   -.550E-04 0.227E-04 -.467E-08   -.774E-04 0.148E-03 0.493E-18   0.473E-17 -.656E-18 0.549E-25   -.236E-10 -.454E-10 -.958E-13
   -.123E-03 0.103E-03 -.469E-08   -.906E-04 0.225E-03 -.196E-17   0.516E-17 -.117E-17 0.367E-24   0.327E-10 0.211E-09 -.943E-13
   -.143E-03 -.176E-04 -.470E-08   -.242E-03 -.159E-03 -.208E-17   0.653E-17 -.146E-17 0.194E-24   0.652E-10 0.307E-09 -.877E-13
   -.170E-03 0.371E-04 -.470E-08   -.149E-03 0.269E-04 -.410E-18   0.509E-17 -.344E-18 0.116E-24   0.554E-10 0.539E-10 -.904E-13
   0.397E-04 -.900E-04 -.464E-08   0.965E-05 -.878E-04 0.115E-17   0.649E-17 -.577E-18 0.257E-24   -.629E-10 -.269E-09 -.891E-13
   0.139E-04 -.308E-04 -.465E-08   0.762E-04 -.891E-04 -.354E-18   0.398E-17 -.294E-18 -.155E-24   -.165E-09 -.276E-09 -.874E-13
   -.116E-04 0.235E-04 -.466E-08   0.128E-03 0.115E-03 0.115E-18   0.542E-17 -.551E-18 0.563E-24   -.160E-09 -.781E-10 -.933E-13
   -.755E-04 0.106E-03 -.470E-08   -.497E-04 0.118E-03 -.269E-17   0.431E-17 -.632E-18 0.407E-24   -.112E-09 0.192E-09 -.913E-13
   0.860E-04 -.207E-04 -.464E-08   0.935E-04 -.310E-04 -.125E-17   0.659E-17 -.150E-17 0.410E-24   -.904E-10 0.255E-09 -.847E-13
   0.576E-04 0.401E-04 -.465E-08   0.266E-03 -.943E-04 -.216E-17   0.486E-17 -.350E-18 -.136E-24   -.680E-10 -.433E-11 -.882E-13
   -.127E-04 -.872E-04 -.468E-08   -.213E-05 -.204E-03 -.135E-17   0.597E-17 -.553E-18 0.363E-24   -.632E-10 -.304E-09 -.875E-13
   -.361E-04 -.289E-04 -.469E-08   -.362E-04 -.165E-03 0.601E-18   0.496E-17 -.411E-18 0.110E-24   -.121E-09 -.343E-09 -.858E-13
   -.614E-04 0.254E-04 -.470E-08   0.884E-05 0.347E-04 -.572E-18   0.495E-17 -.441E-18 -.493E-24   -.168E-09 -.635E-10 -.916E-13
   -.126E-03 0.103E-03 -.468E-08   -.158E-03 0.221E-03 -.194E-17   0.452E-17 -.107E-17 0.246E-24   -.157E-09 0.207E-09 -.886E-13
   -.150E-03 -.206E-04 -.469E-08   -.154E-03 -.341E-04 -.192E-17   0.583E-17 -.138E-17 0.452E-25   -.100E-09 0.280E-09 -.827E-13
   -.174E-03 0.380E-04 -.470E-08   -.159E-03 -.818E-05 -.179E-17   0.476E-17 -.601E-18 0.565E-25   -.530E-10 0.115E-10 -.866E-13
   0.365E-04 -.885E-04 -.466E-08   -.367E-04 -.151E-03 -.761E-18   0.649E-17 -.853E-18 0.607E-24   0.466E-11 -.270E-09 -.929E-13
   0.113E-04 -.296E-04 -.459E-08   0.584E-05 -.136E-03 0.118E-17   0.433E-17 -.123E-18 -.176E-24   0.114E-10 -.347E-09 -.918E-13
   -.147E-04 0.253E-04 -.461E-08   0.796E-04 0.421E-04 0.654E-18   0.510E-17 -.529E-18 0.775E-25   -.528E-10 -.221E-10 -.973E-13
   -.805E-04 0.104E-03 -.463E-08   -.232E-04 0.166E-03 -.201E-17   0.401E-17 -.118E-17 0.181E-24   -.572E-10 0.258E-09 -.954E-13
   0.784E-04 -.192E-04 -.463E-08   0.227E-03 -.951E-04 -.950E-18   0.643E-17 -.132E-17 0.258E-24   -.121E-09 0.335E-09 -.891E-13
   0.571E-04 0.413E-04 -.463E-08   0.112E-03 -.144E-03 -.816E-19   0.578E-17 -.425E-18 0.827E-24   -.743E-10 0.856E-10 -.922E-13
   -.101E-03 -.888E-04 -.469E-08   -.184E-03 -.139E-03 -.174E-17   0.561E-17 -.119E-17 -.108E-24   0.165E-10 -.178E-09 -.927E-13
   0.584E-04 -.291E-04 -.466E-08   0.587E-04 -.158E-03 0.703E-18   0.491E-17 -.384E-18 -.536E-24   0.102E-09 -.245E-09 -.911E-13
   -.150E-03 0.251E-04 -.466E-08   -.144E-03 0.507E-04 0.444E-18   0.379E-17 -.557E-18 -.158E-24   0.142E-09 0.358E-11 -.975E-13
   -.304E-04 0.108E-03 -.465E-08   -.933E-04 0.334E-04 -.289E-17   0.536E-17 -.916E-18 0.301E-24   0.604E-10 0.327E-09 -.945E-13
   -.559E-04 -.197E-04 -.471E-08   -.380E-04 -.727E-04 -.721E-18   0.644E-17 -.167E-17 -.136E-24   0.502E-10 0.332E-09 -.883E-13
   -.752E-04 0.394E-04 -.468E-08   -.238E-03 -.652E-04 -.270E-17   0.486E-17 -.272E-18 0.187E-24   -.128E-10 0.149E-09 -.925E-13
 -----------------------------------------------------------------------------------------------
   -.181E-02 0.109E-02 -.314E-06   0.933E-13 -.183E-12 0.000E+00   0.242E-16 0.922E-17 0.945E-23   0.407E-10 -.220E-10 -.622E-11
 
 
 POSITION                                       TOTAL-FORCE (eV/Angst)
 -----------------------------------------------------------------------------------
      0.61534      0.35527      0.00000        -0.000000      0.000000      0.000000
     -0.61534      2.48686      0.00000        -0.000000      0.000000     -0.000000
     -1.84602      4.61846      0.00000         0.000000      0.000000      0.000000
     -3.07669      6.75005      0.00000        -0.000000      0.000000      0.000000
     -4.30737      8.88165      0.00000         0.000000      0.000000     -0.000000
     -5.53805     11.01324      0.00000        -0.000000      0.000000     -0.000000
      3.07669      0.35527      0.00000        -0.000000      0.000000     -0.000000
      1.84602      2.48686      0.00000         0.000000      0.000000     -0.000000
      0.61534      4.61846      0.00000         0.000000      0.000000     -0.000000
     -0.61534      6.75005      0.00000        -0.000000      0.000000      0.000000
     -1.84602      8.88165      0.00000        -0.000000      0.000000      0.000000
     -3.07669     11.01324      0.00000        -0.000000      0.000000      0.000000
      5.53805      0.35527      0.00000        -0.000000      0.000000      0.000000
      4.30737      2.48686      0.00000         0.000000      0.000000     -0.000000
      3.07669      4.61846      0.00000         0.000000     -0.000000      0.000000
      1.84602      6.75005      0.00000        -0.000000      0.000000      0.000000
      0.61534      8.88165      0.00000        -0.000000      0.000000     -0.000000
     -0.61534     11.01324      0.00000        -0.000000      0.000000      0.000000
      7.99940      0.35527      0.00000        -0.000000      0.000000      0.000000
      6.76872      2.48686      0.00000        -0.000000      0.000000     -0.000000
      5.53805      4.61846      0.00000         0.000000      0.000000     -0.000000
      4.30737      6.75005      0.00000        -0.000000      0.000000     -0.000000
      3.07669      8.88165      0.00000         0.000000      0.000000     -0.000000
      1.84602     11.01324      0.00000        -0.000000      0.000000      0.000000
     10.46076      0.35527      0.00000        -0.000000      0.000000      0.000000
      9.23008      2.48686      0.00000         0.000000      0.000000     -0.000000
      7.99940      4.61846      0.00000        -0.000000      0.000000      0.000000
      6.76872      6.75005      0.00000        -0.000000      0.000000      0.000000
      5.53805      8.88165      0.00000        -0.000000      0.000000     -0.000000
      4.30737     11.01324      0.00000        -0.000000      0.000000      0.000000
     12.92211      0.35527      0.00000        -0.000000      0.000000     -0.000000
     11.69143      2.48686      0.00000        -0.000000      0.000000     -0.000000
     10.46076      4.61846      0.00000        -0.000000      0.000000     -0.000000
      9.23008      6.75005      0.00000        -0.000000      0.000000      0.000000
      7.99940      8.88165      0.00000         0.000000      0.000000     -0.000000
      6.76872     11.01324      0.00000        -0.000000      0.000000     -0.000000
      0.61534      1.77633      0.00000         0.000000     -0.000000      0.000000
     -0.61534      3.90793      0.00000         0.000000     -0.000000     -0.000000
     -1.84602      6.03952      0.00000         0.000000     -0.000000     -0.000000
     -3.07669      8.17111      0.00000         0.000000     -0.000000      0.000000
     -4.30737     10.30271      0.00000         0.000000     -0.000000     -0.000000
     -5.53805     12.43431      0.00000        -0.000000     -0.000000     -0.000000
      3.07669      1.77633      0.00000        -0.000000     -0.000000      0.000000
      1.84602      3.90793      0.00000         0.000000     -0.000000      0.000000
      0.61534      6.03952      0.00000         0.000000     -0.000000     -0.000000
     -0.61534      8.17111      0.00000         0.000000     -0.000000     -0.000000
     -1.84602     10.30271      0.00000        -0.000000     -0.000000     -0.000000
     -3.07669     12.43431      0.00000        -0.000000     -0.000000     -0.000000
      5.53805      1.77633      0.00000        -0.000000     -0.000000     -0.000000
      4.30737      3.90793      0.00000        -0.000000     -0.000000      0.000000
      3.07669      6.03952      0.00000         0.000000     -0.000000      0.000000
      1.84602      8.17111      0.00000         0.000000     -0.000000      0.000000
      0.61534     10.30271      0.00000        -0.000000     -0.000000      0.000000
     -0.61534     12.43431      0.00000         0.000000     -0.000000      0.000000
      7.99940      1.77633      0.00000        -0.000000     -0.000000      0.000000
      6.76872      3.90793      0.00000         0.000000     -0.000000      0.000000
      5.53805      6.03952      0.00000         0.000000     -0.000000      0.000000
      4.30737      8.17111      0.00000         0.000000     -0.000000     -0.000000
      3.07669     10.30271      0.00000        -0.000000     -0.000000      0.000000
      1.84602     12.43431      0.00000         0.000000     -0.000000     -0.000000
     10.46076      1.77633      0.00000        -0.000000     -0.000000      0.000000
      9.23008      3.90793      0.00000         0.000000     -0.000000      0.000000
      7.99940      6.03952      0.00000         0.000000     -0.000000     -0.000000
      6.76872      8.17111      0.00000         0.000000     -0.000000      0.000000
      5.53805     10.30271      0.00000         0.000000     -0.000000      0.000000
      4.30737     12.43431      0.00000         0.000000     -0.000000     -0.000000
     12.92211      1.77633      0.00000         0.000000     -0.000000      0.000000
     11.69143      3.90793      0.00000         0.000000     -0.000000      0.000000
     10.46076      6.03952      0.00000         0.000000     -0.000000      0.000000
      9.23008      8.17111      0.00000         0.000000     -0.000000      0.000000
      7.99940     10.30271      0.00000         0.000000     -0.000000     -0.000000
      6.76872     12.43431      0.00000         0.000000     -0.000000      0.000000
 -----------------------------------------------------------------------------------
    total drift:                               -0.001813      0.001088     -0.000000


--------------------------------------------------------------------------------------------------------



  FREE ENERGIE OF THE ION-ELECTRON SYSTEM (eV)
  ---------------------------------------------------
  free  energy   TOTEN  =      -666.90562467 eV

  energy  without entropy=     -666.90562467  energy(sigma->0) =     -666.90562467
 


--------------------------------------------------------------------------------------------------------


    POTLOK:  cpu time    1.0391: real time    1.0411


--------------------------------------------------------------------------------------------------------




--------------------------------------------------------------------------------------------------------


  
 reached required accuracy - stopping structural energy minimisation
     LOOP+:  cpu time 1952.2247: real time 1962.2700
    4ORBIT:  cpu time    0.0000: real time    0.0000
 


 total charge     
 
# of ion       s       p       d       tot
------------------------------------------
    1        0.863   1.793   0.000   2.656
    2        0.863   1.793   0.000   2.656
    3        0.863   1.793   0.000   2.656
    4        0.863   1.793   0.000   2.656
    5        0.863   1.793   0.000   2.656
    6        0.863   1.793   0.000   2.656
    7        0.863   1.793   0.000   2.656
    8        0.863   1.793   0.000   2.656
    9        0.863   1.793   0.000   2.656
   10        0.863   1.793   0.000   2.656
   11        0.863   1.793   0.000   2.656
   12        0.863   1.793   0.000   2.656
   13        0.863   1.793   0.000   2.656
   14        0.863   1.793   0.000   2.656
   15        0.863   1.793   0.000   2.656
   16        0.863   1.793   0.000   2.656
   17        0.863   1.793   0.000   2.656
   18        0.863   1.793   0.000   2.656
   19        0.863   1.793   0.000   2.656
   20        0.863   1.793   0.000   2.656
   21        0.863   1.793   0.000   2.656
   22        0.863   1.793   0.000   2.656
   23        0.863   1.793   0.000   2.656
   24        0.863   1.793   0.000   2.656
   25        0.863   1.793   0.000   2.656
   26        0.863   1.793   0.000   2.656
   27        0.863   1.793   0.000   2.656
   28        0.863   1.793   0.000   2.656
   29        0.863   1.793   0.000   2.656
   30        0.863   1.793   0.000   2.656
   31        0.863   1.793   0.000   2.656
   32        0.863   1.793   0.000   2.656
   33        0.863   1.793   0.000   2.656
   34        0.863   1.793   0.000   2.656
   35        0.863   1.793   0.000   2.656
   36        0.863   1.793   0.000   2.656
   37        0.863   1.793   0.000   2.656
   38        0.863   1.793   0.000   2.656
   39        0.863   1.793   0.000   2.656
   40        0.863   1.793   0.000   2.656
   41        0.863   1.793   0.000   2.656
   42        0.863   1.793   0.000   2.656
   43        0.863   1.793   0.000   2.656
   44        0.863   1.793   0.000   2.656
   45        0.863   1.793   0.000   2.656
   46        0.863   1.793   0.000   2.656
   47        0.863   1.793   0.000   2.656
   48        0.863   1.793   0.000   2.656
   49        0.863   1.793   0.000   2.656
   50        0.863   1.793   0.000   2.656
   51        0.863   1.793   0.000   2.656
   52        0.863   1.793   0.000   2.656
   53        0.863   1.793   0.000   2.656
   54        0.863   1.793   0.000   2.656
   55        0.863   1.793   0.000   2.656
   56        0.863   1.793   0.000   2.656
   57        0.863   1.793   0.000   2.656
   58        0.863   1.793   0.000   2.656
   59        0.863   1.793   0.000   2.656
   60        0.863   1.793   0.000   2.656
   61        0.863   1.793   0.000   2.656
   62        0.863   1.793   0.000   2.656
   63        0.863   1.793   0.000   2.656
   64        0.863   1.793   0.000   2.656
   65        0.863   1.793   0.000   2.656
   66        0.863   1.793   0.000   2.656
   67        0.863   1.793   0.000   2.656
   68        0.863   1.793   0.000   2.656
   69        0.863   1.793   0.000   2.656
   70        0.863   1.793   0.000   2.656
   71        0.863   1.793   0.000   2.656
   72        0.863   1.793   0.000   2.656
--------------------------------------------------
tot         62.110 129.103   0.000 191.212
 


 magnetization (x)
 
# of ion       s       p       d       tot
------------------------------------------
    1        0.000   0.000   0.000   0.000
    2        0.000   0.000   0.000   0.000
    3        0.000   0.000   0.000   0.000
    4        0.000   0.000   0.000   0.000
    5        0.000   0.000   0.000   0.000
    6        0.000   0.000   0.000   0.000
    7        0.000   0.000   0.000   0.000
    8        0.000   0.000   0.000   0.000
    9        0.000   0.000   0.000   0.000
   10        0.000   0.000   0.000   0.000
   11        0.000   0.000   0.000   0.000
   12        0.000   0.000   0.000   0.000
   13        0.000   0.000   0.000   0.000
   14        0.000   0.000   0.000   0.000
   15        0.000   0.000   0.000   0.000
   16        0.000   0.000   0.000   0.000
   17        0.000   0.000   0.000   0.000
   18        0.000   0.000   0.000   0.000
   19        0.000   0.000   0.000   0.000
   20        0.000   0.000   0.000   0.000
   21        0.000   0.000   0.000   0.000
   22        0.000   0.000   0.000   0.000
   23        0.000   0.000   0.000   0.000
   24        0.000   0.000   0.000   0.000
   25        0.000   0.000   0.000   0.000
   26        0.000   0.000   0.000   0.000
   27        0.000   0.000   0.000   0.000
   28        0.000   0.000   0.000   0.000
   29        0.000   0.000   0.000   0.000
   30        0.000   0.000   0.000   0.000
   31        0.000   0.000   0.000   0.000
   32        0.000   0.000   0.000   0.000
   33        0.000   0.000   0.000   0.000
   34        0.000   0.000   0.000   0.000
   35        0.000   0.000   0.000   0.000
   36        0.000   0.000   0.000   0.000
   37        0.000   0.000   0.000   0.000
   38        0.000   0.000   0.000   0.000
   39        0.000   0.000   0.000   0.000
   40        0.000   0.000   0.000   0.000
   41        0.000   0.000   0.000   0.000
   42        0.000   0.000   0.000   0.000
   43        0.000   0.000   0.000   0.000
   44        0.000   0.000   0.000   0.000
   45        0.000   0.000   0.000   0.000
   46        0.000   0.000   0.000   0.000
   47        0.000   0.000   0.000   0.000
   48        0.000   0.000   0.000   0.000
   49        0.000   0.000   0.000   0.000
   50        0.000   0.000   0.000   0.000
   51        0.000   0.000   0.000   0.000
   52        0.000   0.000   0.000   0.000
   53        0.000   0.000   0.000   0.000
   54        0.000   0.000   0.000   0.000
   55        0.000   0.000   0.000   0.000
   56        0.000   0.000   0.000   0.000
   57        0.000   0.000   0.000   0.000
   58        0.000   0.000   0.000   0.000
   59        0.000   0.000   0.000   0.000
   60        0.000   0.000   0.000   0.000
   61        0.000   0.000   0.000   0.000
   62        0.000   0.000   0.000   0.000
   63        0.000   0.000   0.000   0.000
   64        0.000   0.000   0.000   0.000
   65        0.000   0.000   0.000   0.000
   66        0.000   0.000   0.000   0.000
   67        0.000   0.000   0.000   0.000
   68        0.000   0.000   0.000   0.000
   69        0.000   0.000   0.000   0.000
   70        0.000   0.000   0.000   0.000
   71        0.000   0.000   0.000   0.000
   72        0.000   0.000   0.000   0.000
--------------------------------------------------
tot          0.000   0.000   0.000   0.000
 

 total amount of memory used by VASP MPI-rank0   253776. kBytes
=======================================================================

   base      :      30000. kBytes
   nonlr-proj:       3539. kBytes
   fftplans  :      40452. kBytes
   grid      :      34868. kBytes
   one-center:        110. kBytes
   wavefun   :     144807. kBytes
 
  
  
 General timing and accounting informations for this job:
 ========================================================
  
                  Total CPU time used (sec):     2026.384
                            User time (sec):     2024.953
                          System time (sec):        1.432
                         Elapsed time (sec):     2037.442
  
                   Maximum memory used (kb):      745404.
                   Average memory used (kb):           0.
  
                          Minor page faults:        82546
                          Major page faults:           14
                 Voluntary context switches:         1424
