Graphene                                
   1.00000000000000     
    14.7681255340999993    0.0000000000000000    0.0000000000000000
    -7.3840627669999996   12.7895718788000003    0.0000000000000000
     0.0000000000000000    0.0000000000000000   17.0000000000000000
   C 
    72
Direct
  0.0555555030366222  0.0277777867286488  0.0000000000000000
  0.0555554994509038  0.1944444289118223  0.0000000000000000
  0.0555555349595451  0.3611111492837011  0.0000000000000000
  0.0555555424128116  0.5277777819904088  0.0000000000000000
  0.0555554711136992  0.6944444241735894  0.0000000000000000
  0.0555555352413890  0.8611110663567700  0.0000000000000000
  0.2222222201034967  0.0277777867286488  0.0000000000000000
  0.2222222165177854  0.1944444289118223  0.0000000000000000
  0.2222222520264197  0.3611111492837011  0.0000000000000000
  0.2222221917662921  0.5277777819904088  0.0000000000000000
  0.2222221881805808  0.6944444241735894  0.0000000000000000
  0.2222221845948624  0.8611110663567700  0.0000000000000000
  0.3888889371703783  0.0277777867286488  0.0000000000000000
  0.3888888658712659  0.1944444289118223  0.0000000000000000
  0.3888889013799002  0.3611111492837011  0.0000000000000000
  0.3888889088331737  0.5277777819904088  0.0000000000000000
  0.3888889052474553  0.6944444241735894  0.0000000000000000
  0.3888888339483429  0.8611110663567700  0.0000000000000000
  0.5555555549761877  0.0277777867286488  0.0000000000000000
  0.5555555513904693  0.1944444289118223  0.0000000000000000
  0.5555555868991036  0.3611111492837011  0.0000000000000000
  0.5555555943523771  0.5277777819904088  0.0000000000000000
  0.5555555230532647  0.6944444241735894  0.0000000000000000
  0.5555555194675463  0.8611110663567700  0.0000000000000000
  0.7222222720430622  0.0277777867286488  0.0000000000000000
  0.7222222007439498  0.1944444289118223  0.0000000000000000
  0.7222222362525841  0.3611111492837011  0.0000000000000000
  0.7222222437058576  0.5277777819904088  0.0000000000000000
  0.7222222401201392  0.6944444241735894  0.0000000000000000
  0.7222222365344280  0.8611110663567700  0.0000000000000000
  0.8888888536831416  0.0277777867286488  0.0000000000000000
  0.8888888500974303  0.1944444289118223  0.0000000000000000
  0.8888888856060646  0.3611111492837011  0.0000000000000000
  0.8888888930593382  0.5277777819904088  0.0000000000000000
  0.8888888894736198  0.6944444241735894  0.0000000000000000
  0.8888888858879085  0.8611110663567700  0.0000000000000000
  0.1111111442069372  0.1388889336432300  0.0000000000000000
  0.1111111406212260  0.3055555758264106  0.0000000000000000
  0.1111111370355076  0.4722222180095912  0.0000000000000000
  0.1111110767753800  0.6388888507162989  0.0000000000000000
  0.1111111122840143  0.8055555710881777  0.0000000000000000
  0.1111111086983030  0.9722222132713512  0.0000000000000000
  0.2777777935604178  0.1388889336432300  0.0000000000000000
  0.2777777899746994  0.3055555758264106  0.0000000000000000
  0.2777777863889881  0.4722222180095912  0.0000000000000000
  0.2777777938422616  0.6388888507162989  0.0000000000000000
  0.2777778293508959  0.8055555710881777  0.0000000000000000
  0.2777778257651846  0.9722222132713512  0.0000000000000000
  0.4444444429138983  0.1388889336432300  0.0000000000000000
  0.4444444393281799  0.3055555758264106  0.0000000000000000
  0.4444444357424686  0.4722222180095912  0.0000000000000000
  0.4444444431957422  0.6388888507162989  0.0000000000000000
  0.4444444109909753  0.8055555710881777  0.0000000000000000
  0.4444444074052569  0.9722222132713512  0.0000000000000000
  0.6111111284331017  0.1388889336432300  0.0000000000000000
  0.6111111248473833  0.3055555758264106  0.0000000000000000
  0.6111111212616720  0.4722222180095912  0.0000000000000000
  0.6111111287149456  0.6388888507162989  0.0000000000000000
  0.6111111642235798  0.8055555710881777  0.0000000000000000
  0.6111111606378685  0.9722222132713512  0.0000000000000000
  0.7777777777865822  0.1388889336432300  0.0000000000000000
  0.7777777742008638  0.3055555758264106  0.0000000000000000
  0.7777777706151525  0.4722222180095912  0.0000000000000000
  0.7777777780684261  0.6388888507162989  0.0000000000000000
  0.7777777458636592  0.8055555710881777  0.0000000000000000
  0.7777777422779408  0.9722222132713512  0.0000000000000000
  0.9444444948534567  0.1388889336432300  0.0000000000000000
  0.9444444235543443  0.3055555758264106  0.0000000000000000
  0.9444444876820270  0.4722222180095912  0.0000000000000000
  0.9444444274218995  0.6388888507162989  0.0000000000000000
  0.9444444629305409  0.8055555710881777  0.0000000000000000
  0.9444444593448225  0.9722222132713512  0.0000000000000000
 
  0.00000000E+00  0.00000000E+00  0.00000000E+00
  0.00000000E+00  0.00000000E+00  0.00000000E+00
  0.00000000E+00  0.00000000E+00  0.00000000E+00
  0.00000000E+00  0.00000000E+00  0.00000000E+00
  0.00000000E+00  0.00000000E+00  0.00000000E+00
  0.00000000E+00  0.00000000E+00  0.00000000E+00
  0.00000000E+00  0.00000000E+00  0.00000000E+00
  0.00000000E+00  0.00000000E+00  0.00000000E+00
  0.00000000E+00  0.00000000E+00  0.00000000E+00
  0.00000000E+00  0.00000000E+00  0.00000000E+00
  0.00000000E+00  0.00000000E+00  0.00000000E+00
  0.00000000E+00  0.00000000E+00  0.00000000E+00
  0.00000000E+00  0.00000000E+00  0.00000000E+00
  0.00000000E+00  0.00000000E+00  0.00000000E+00
  0.00000000E+00  0.00000000E+00  0.00000000E+00
  0.00000000E+00  0.00000000E+00  0.00000000E+00
  0.00000000E+00  0.00000000E+00  0.00000000E+00
  0.00000000E+00  0.00000000E+00  0.00000000E+00
  0.00000000E+00  0.00000000E+00  0.00000000E+00
  0.00000000E+00  0.00000000E+00  0.00000000E+00
  0.00000000E+00  0.00000000E+00  0.00000000E+00
  0.00000000E+00  0.00000000E+00  0.00000000E+00
  0.00000000E+00  0.00000000E+00  0.00000000E+00
  0.00000000E+00  0.00000000E+00  0.00000000E+00
  0.00000000E+00  0.00000000E+00  0.00000000E+00
  0.00000000E+00  0.00000000E+00  0.00000000E+00
  0.00000000E+00  0.00000000E+00  0.00000000E+00
  0.00000000E+00  0.00000000E+00  0.00000000E+00
  0.00000000E+00  0.00000000E+00  0.00000000E+00
  0.00000000E+00  0.00000000E+00  0.00000000E+00
  0.00000000E+00  0.00000000E+00  0.00000000E+00
  0.00000000E+00  0.00000000E+00  0.00000000E+00
  0.00000000E+00  0.00000000E+00  0.00000000E+00
  0.00000000E+00  0.00000000E+00  0.00000000E+00
  0.00000000E+00  0.00000000E+00  0.00000000E+00
  0.00000000E+00  0.00000000E+00  0.00000000E+00
  0.00000000E+00  0.00000000E+00  0.00000000E+00
  0.00000000E+00  0.00000000E+00  0.00000000E+00
  0.00000000E+00  0.00000000E+00  0.00000000E+00
  0.00000000E+00  0.00000000E+00  0.00000000E+00
  0.00000000E+00  0.00000000E+00  0.00000000E+00
  0.00000000E+00  0.00000000E+00  0.00000000E+00
  0.00000000E+00  0.00000000E+00  0.00000000E+00
  0.00000000E+00  0.00000000E+00  0.00000000E+00
  0.00000000E+00  0.00000000E+00  0.00000000E+00
  0.00000000E+00  0.00000000E+00  0.00000000E+00
  0.00000000E+00  0.00000000E+00  0.00000000E+00
  0.00000000E+00  0.00000000E+00  0.00000000E+00
  0.00000000E+00  0.00000000E+00  0.00000000E+00
  0.00000000E+00  0.00000000E+00  0.00000000E+00
  0.00000000E+00  0.00000000E+00  0.00000000E+00
  0.00000000E+00  0.00000000E+00  0.00000000E+00
  0.00000000E+00  0.00000000E+00  0.00000000E+00
  0.00000000E+00  0.00000000E+00  0.00000000E+00
  0.00000000E+00  0.00000000E+00  0.00000000E+00
  0.00000000E+00  0.00000000E+00  0.00000000E+00
  0.00000000E+00  0.00000000E+00  0.00000000E+00
  0.00000000E+00  0.00000000E+00  0.00000000E+00
  0.00000000E+00  0.00000000E+00  0.00000000E+00
  0.00000000E+00  0.00000000E+00  0.00000000E+00
  0.00000000E+00  0.00000000E+00  0.00000000E+00
  0.00000000E+00  0.00000000E+00  0.00000000E+00
  0.00000000E+00  0.00000000E+00  0.00000000E+00
  0.00000000E+00  0.00000000E+00  0.00000000E+00
  0.00000000E+00  0.00000000E+00  0.00000000E+00
  0.00000000E+00  0.00000000E+00  0.00000000E+00
  0.00000000E+00  0.00000000E+00  0.00000000E+00
  0.00000000E+00  0.00000000E+00  0.00000000E+00
  0.00000000E+00  0.00000000E+00  0.00000000E+00
  0.00000000E+00  0.00000000E+00  0.00000000E+00
  0.00000000E+00  0.00000000E+00  0.00000000E+00
  0.00000000E+00  0.00000000E+00  0.00000000E+00
