molecule                                
           1
    14.768126    0.000000    0.000000
    -7.384063   12.789572    0.000000
     0.000000    0.000000   17.000000
   C 
  72
Direct configuration=     1
   0.05555550  0.02777779  0.00000000
   0.05555550  0.19444443  0.00000000
   0.05555553  0.36111115  0.00000000
   0.05555554  0.52777778  0.00000000
   0.05555547  0.69444442  0.00000000
   0.05555554  0.86111107  0.00000000
   0.22222222  0.02777779  0.00000000
   0.22222222  0.19444443  0.00000000
   0.22222225  0.36111115  0.00000000
   0.22222219  0.52777778  0.00000000
   0.22222219  0.69444442  0.00000000
   0.22222218  0.86111107  0.00000000
   0.38888894  0.02777779  0.00000000
   0.38888887  0.19444443  0.00000000
   0.38888890  0.36111115  0.00000000
   0.38888891  0.52777778  0.00000000
   0.38888891  0.69444442  0.00000000
   0.38888883  0.86111107  0.00000000
   0.55555555  0.02777779  0.00000000
   0.55555555  0.19444443  0.00000000
   0.55555559  0.36111115  0.00000000
   0.55555559  0.52777778  0.00000000
   0.55555552  0.69444442  0.00000000
   0.55555552  0.86111107  0.00000000
   0.72222227  0.02777779  0.00000000
   0.72222220  0.19444443  0.00000000
   0.72222224  0.36111115  0.00000000
   0.72222224  0.52777778  0.00000000
   0.72222224  0.69444442  0.00000000
   0.72222224  0.86111107  0.00000000
   0.88888885  0.02777779  0.00000000
   0.88888885  0.19444443  0.00000000
   0.88888889  0.36111115  0.00000000
   0.88888889  0.52777778  0.00000000
   0.88888889  0.69444442  0.00000000
   0.88888889  0.86111107  0.00000000
   0.11111114  0.13888893  0.00000000
   0.11111114  0.30555558  0.00000000
   0.11111114  0.47222222  0.00000000
   0.11111108  0.63888885  0.00000000
   0.11111111  0.80555557  0.00000000
   0.11111111  0.97222221  0.00000000
   0.27777779  0.13888893  0.00000000
   0.27777779  0.30555558  0.00000000
   0.27777779  0.47222222  0.00000000
   0.27777779  0.63888885  0.00000000
   0.27777783  0.80555557  0.00000000
   0.27777783  0.97222221  0.00000000
   0.44444444  0.13888893  0.00000000
   0.44444444  0.30555558  0.00000000
   0.44444444  0.47222222  0.00000000
   0.44444444  0.63888885  0.00000000
   0.44444441  0.80555557  0.00000000
   0.44444441  0.97222221  0.00000000
   0.61111113  0.13888893  0.00000000
   0.61111112  0.30555558  0.00000000
   0.61111112  0.47222222  0.00000000
   0.61111113  0.63888885  0.00000000
   0.61111116  0.80555557  0.00000000
   0.61111116  0.97222221  0.00000000
   0.77777778  0.13888893  0.00000000
   0.77777777  0.30555558  0.00000000
   0.77777777  0.47222222  0.00000000
   0.77777778  0.63888885  0.00000000
   0.77777775  0.80555557  0.00000000
   0.77777774  0.97222221  0.00000000
   0.94444449  0.13888893  0.00000000
   0.94444442  0.30555558  0.00000000
   0.94444449  0.47222222  0.00000000
   0.94444443  0.63888885  0.00000000
   0.94444446  0.80555557  0.00000000
   0.94444446  0.97222221  0.00000000
