    6    6  200    2
  0.8188333E+03  0.1700000E-08  0.1700000E-08  0.1700000E-08  0.5000000E-15
  1.000000000000000E-004
  CAR 
 CuRh                                    
     54      1     36
 
  0.0000000E+00  0.0000000E+00  0.0000000E+00  0.1000000E+01
    1       -8.384231     -8.190032
    2       -7.197384     -6.450036
    3       -7.197375     -6.450013
    4       -7.197348     -6.449968
    5       -7.057565     -6.387438
    6       -7.057553     -6.387428
    7       -7.057541     -6.387423
    8       -6.555291     -6.246112
    9       -6.360169     -6.203590
   10       -6.238008     -5.740463
   11       -6.237948     -5.740446
   12       -5.807104     -5.132526
   13       -5.807079     -5.132519
   14       -5.807047     -5.132504
   15       -4.964885     -4.674476
   16       -4.964799     -4.674456
   17       -4.964788     -4.674434
   18       -4.678396     -4.185240
   19       -4.678379     -4.185228
   20       -4.678362     -4.185222
   21       -4.042191     -3.447365
   22       -4.042174     -3.447315
   23       -4.042154     -3.360148
   24       -3.866393     -3.360138
   25       -3.866372     -3.125198
   26       -3.806222     -3.125184
   27       -3.806203     -3.125179
   28       -3.673661     -2.652852
   29       -3.673641     -2.652787
   30       -3.673634     -2.652739
   31       -3.133205     -2.577816
   32       -3.133128     -2.577814
   33       -3.132991     -2.577758
   34       -2.991519     -2.317829
   35       -1.083122     -0.780050
   36       -1.082962     -0.709514
