       N       E                     dE             d eps       ncg     rms          rms(c)
DAV:   1     0.413196847232E+03    0.41320E+03   -0.10226E+04   144   0.837E+02
DAV:   2     0.203758451682E+03   -0.20944E+03   -0.19705E+03   288   0.856E+01
DAV:   3     0.299933239905E+02   -0.17377E+03   -0.16671E+03   264   0.745E+01
DAV:   4    -0.199869502876E+02   -0.49980E+02   -0.46896E+02   232   0.565E+01
DAV:   5    -0.275502733033E+02   -0.75633E+01   -0.69974E+01   228   0.220E+01
DAV:   6    -0.298544955853E+02   -0.23042E+01   -0.15151E+01   220   0.669E+00
DAV:   7    -0.304481904621E+02   -0.59369E+00   -0.37912E+00   208   0.350E+00
DAV:   8    -0.305229579896E+02   -0.74768E-01   -0.70936E-01   188   0.108E+00    0.134E+01
DAV:   9    -0.301316774805E+02    0.39128E+00   -0.14017E-01   180   0.206E+00    0.127E+01
DAV:  10    -0.276787405203E+02    0.24529E+01   -0.13780E+01   144   0.137E+01    0.662E+00
DAV:  11    -0.276830400073E+02   -0.42995E-02   -0.11870E+00   216   0.389E+00    0.593E+00
DAV:  12    -0.276319003499E+02    0.51140E-01   -0.38880E-01   168   0.305E+00    0.443E+00
DAV:  13    -0.276029087998E+02    0.28992E-01   -0.10809E+00   152   0.429E+00    0.251E+00
DAV:  14    -0.276019622300E+02    0.94657E-03   -0.35639E-02   224   0.780E-01    0.246E+00
DAV:  15    -0.275576283510E+02    0.44334E-01   -0.82888E-02   144   0.986E-01    0.201E+00
DAV:  16    -0.275409741731E+02    0.16654E-01   -0.33007E-01   172   0.252E+00    0.136E+00
DAV:  17    -0.275374403838E+02    0.35338E-02   -0.26504E-02   144   0.689E-01    0.102E+00
DAV:  18    -0.275231805064E+02    0.14260E-01   -0.88760E-02   200   0.179E+00    0.283E-01
DAV:  19    -0.275234640146E+02   -0.28351E-03   -0.20481E-03   168   0.295E-01    0.238E-01
DAV:  20    -0.275234108500E+02    0.53165E-04   -0.20337E-03   196   0.291E-01    0.221E-01
DAV:  21    -0.275231176624E+02    0.29319E-03   -0.19185E-04   160   0.669E-02    0.196E-01
DAV:  22    -0.275222289689E+02    0.88869E-03   -0.17191E-03   160   0.127E-01    0.115E-01
DAV:  23    -0.275219817821E+02    0.24719E-03   -0.35217E-04   196   0.692E-02    0.851E-02
DAV:  24    -0.275219816830E+02    0.99143E-07   -0.64643E-04   172   0.103E-01    0.368E-02
DAV:  25    -0.275219999276E+02   -0.18245E-04   -0.39837E-05   176   0.289E-02    0.254E-02
DAV:  26    -0.275219927096E+02    0.72181E-05   -0.23919E-05   176   0.183E-02    0.197E-02
DAV:  27    -0.275219977082E+02   -0.49987E-05   -0.17844E-05   160   0.173E-02    0.143E-02
DAV:  28    -0.275219999184E+02   -0.22101E-05   -0.18083E-06   112   0.719E-03    0.127E-02
DAV:  29    -0.275219978141E+02    0.21042E-05   -0.89182E-06   176   0.134E-02    0.686E-03
DAV:  30    -0.275219987560E+02   -0.94188E-06   -0.46008E-06   164   0.839E-03
   1 F= -.27521999E+02 E0= -.27521999E+02  d E =-.275220E+02  mag=     6.0000
       N       E                     dE             d eps       ncg     rms          rms(c)
DAV:   1    -0.274498100070E+02    0.72188E-01   -0.48872E+02   144   0.118E+02    0.783E+00
DAV:   2    -0.280469627730E+02   -0.59715E+00   -0.58926E+00   144   0.177E+01    0.596E+00
DAV:   3    -0.280970127040E+02   -0.50050E-01   -0.20065E-01   168   0.232E+00    0.551E+00
DAV:   4    -0.281593851170E+02   -0.62372E-01   -0.12928E-01   144   0.192E+00    0.376E+00
DAV:   5    -0.281307696757E+02    0.28615E-01   -0.25591E-02   176   0.712E-01    0.331E+00
DAV:   6    -0.281598919684E+02   -0.29122E-01   -0.42133E-02   152   0.116E+00    0.453E-01
DAV:   7    -0.281607846691E+02   -0.89270E-03   -0.16174E-03   184   0.209E-01    0.381E-01
DAV:   8    -0.281626785585E+02   -0.18939E-02   -0.22666E-03   144   0.199E-01    0.207E-01
DAV:   9    -0.281631688800E+02   -0.49032E-03   -0.27324E-03   160   0.211E-01    0.141E-01
DAV:  10    -0.281632735016E+02   -0.10462E-03   -0.43135E-04   160   0.118E-01    0.134E-01
DAV:  11    -0.281631802021E+02    0.93300E-04   -0.34947E-04   152   0.966E-02    0.689E-02
DAV:  12    -0.281631757213E+02    0.44807E-05   -0.16239E-05   184   0.196E-02    0.626E-02
DAV:  13    -0.281631985698E+02   -0.22848E-04   -0.42479E-05   152   0.369E-02    0.417E-02
DAV:  14    -0.281632001868E+02   -0.16170E-05   -0.15084E-05   152   0.189E-02    0.356E-02
DAV:  15    -0.281631953566E+02    0.48302E-05   -0.56977E-06   164   0.189E-02    0.227E-02
DAV:  16    -0.281631998553E+02   -0.44987E-05   -0.11093E-06   112   0.766E-03    0.176E-02
DAV:  17    -0.281632027995E+02   -0.29442E-05   -0.17263E-05   168   0.279E-02    0.461E-03
DAV:  18    -0.281632027577E+02    0.41843E-07   -0.55901E-07    96   0.539E-03
   2 F= -.28163203E+02 E0= -.28163203E+02  d E =-.641204E+00  mag=     6.0000
       N       E                     dE             d eps       ncg     rms          rms(c)
DAV:   1    -0.281638038140E+02   -0.60101E-03   -0.10900E+00   144   0.533E+00    0.333E-01
DAV:   2    -0.281648856532E+02   -0.10818E-02   -0.11105E-02   156   0.660E-01    0.333E-01
DAV:   3    -0.281648329602E+02    0.52693E-04   -0.31858E-04   144   0.928E-02    0.334E-01
DAV:   4    -0.281648160872E+02    0.16873E-04   -0.26635E-05   192   0.223E-02    0.333E-01
DAV:   5    -0.281647728125E+02    0.43275E-04   -0.94808E-06   152   0.150E-02    0.345E-01
DAV:   6    -0.281653643514E+02   -0.59154E-03   -0.32626E-03   160   0.254E-01    0.203E-01
DAV:   7    -0.281662456459E+02   -0.88129E-03   -0.14790E-03   176   0.164E-01    0.199E-01
DAV:   8    -0.281683694716E+02   -0.21238E-02   -0.32561E-03   168   0.233E-01    0.298E-01
DAV:   9    -0.281664093685E+02    0.19601E-02   -0.27989E-03   168   0.237E-01    0.187E-01
DAV:  10    -0.281668087163E+02   -0.39935E-03   -0.17797E-04   152   0.580E-02    0.209E-01
DAV:  11    -0.281670706268E+02   -0.26191E-03   -0.72771E-05   172   0.365E-02    0.224E-01
DAV:  12    -0.281670575619E+02    0.13065E-04   -0.19092E-05   156   0.254E-02    0.228E-01
DAV:  13    -0.281672552001E+02   -0.19764E-03   -0.29075E-05   180   0.201E-02    0.240E-01
DAV:  14    -0.281676608298E+02   -0.40563E-03   -0.10320E-04   168   0.384E-02    0.262E-01
DAV:  15    -0.281680037411E+02   -0.34291E-03   -0.59815E-05   176   0.292E-02    0.278E-01
DAV:  16    -0.281701451748E+02   -0.21414E-02   -0.17504E-03   164   0.155E-01    0.370E-01
DAV:  17    -0.281705003237E+02   -0.35515E-03   -0.86469E-05   228   0.345E-02    0.384E-01
DAV:  18    -0.281710462819E+02   -0.54596E-03   -0.77047E-05   168   0.320E-02    0.403E-01
DAV:  19    -0.281727797566E+02   -0.17335E-02   -0.66684E-04   168   0.943E-02    0.459E-01
DAV:  20    -0.281730727373E+02   -0.29298E-03   -0.72117E-05   204   0.231E-02    0.469E-01
DAV:  21    -0.281730598819E+02    0.12855E-04   -0.34811E-07    88   0.247E-03    0.469E-01
DAV:  22    -0.281730518876E+02    0.79943E-05   -0.79292E-08    76   0.114E-03    0.469E-01
DAV:  23    -0.281730672995E+02   -0.15412E-04   -0.44009E-08    84   0.957E-04    0.469E-01
DAV:  24    -0.281725642345E+02    0.50307E-03   -0.50699E-05   172   0.253E-02    0.454E-01
DAV:  25    -0.281721405860E+02    0.42365E-03   -0.37632E-05   196   0.230E-02    0.441E-01
DAV:  26    -0.281718081308E+02    0.33246E-03   -0.24639E-05   188   0.180E-02    0.430E-01
DAV:  27    -0.281718005917E+02    0.75391E-05   -0.38278E-07    88   0.278E-03    0.430E-01
DAV:  28    -0.281716959080E+02    0.10468E-03   -0.27070E-06   136   0.588E-03    0.426E-01
DAV:  29    -0.281712712933E+02    0.42461E-03   -0.42327E-05   172   0.213E-02    0.413E-01
DAV:  30    -0.281714968370E+02   -0.22554E-03   -0.11590E-05   176   0.121E-02    0.419E-01
DAV:  31    -0.281716530353E+02   -0.15620E-03   -0.59561E-06   160   0.855E-03    0.424E-01
DAV:  32    -0.281711869429E+02    0.46609E-03   -0.49206E-05   168   0.251E-02    0.410E-01
DAV:  33    -0.281686771555E+02    0.25098E-02   -0.18303E-03   184   0.150E-01    0.320E-01
DAV:  34    -0.281672591897E+02    0.14180E-02   -0.11076E-03   192   0.118E-01    0.252E-01
DAV:  35    -0.281655494759E+02    0.17097E-02   -0.38233E-03   176   0.220E-01    0.122E-01
DAV:  36    -0.281651842518E+02    0.36522E-03   -0.11727E-03   192   0.122E-01    0.580E-02
DAV:  37    -0.281651444571E+02    0.39795E-04   -0.13556E-04   200   0.415E-02    0.402E-02
DAV:  38    -0.281651403721E+02    0.40850E-05   -0.10132E-04   188   0.362E-02    0.319E-02
DAV:  39    -0.281651584739E+02   -0.18102E-04   -0.61081E-05   180   0.313E-02    0.325E-02
DAV:  40    -0.281651520931E+02    0.63808E-05   -0.55078E-06   148   0.868E-03    0.277E-02
DAV:  41    -0.281651402144E+02    0.11879E-04   -0.36823E-05   172   0.207E-02    0.207E-02
DAV:  42    -0.281651396769E+02    0.53749E-06   -0.56764E-05   192   0.242E-02    0.160E-02
DAV:  43    -0.281651406388E+02   -0.96191E-06   -0.15706E-06    96   0.565E-03
   3 F= -.28165141E+02 E0= -.28165141E+02  d E =-.643142E+00  mag=     6.0000
