CuRh                                    
   1.00000000000000     
    17.0000000000000000    0.0000000000000000    0.0000000000000000
     0.0000000000000000   17.0000000000000000    0.0000000000000000
     0.0000000000000000    0.0000000000000000   17.0000000000000000
   Rh
     6
Direct
  0.0000061845878540  0.0000050450433530  0.1052803934071730
  0.9999967565886146  0.9999955431919422  0.8947196065928269
  0.8947210365140242  0.0000083656847950  0.0000045212024431
  0.9999936223856767  0.8947205481229382  0.0000044556032223
  0.1052813164271491  0.9999928107857953  0.9999954787975569
  0.0000093187907990  0.1052806283476449  0.9999949561614826
 
  0.00000000E+00  0.00000000E+00  0.00000000E+00
  0.00000000E+00  0.00000000E+00  0.00000000E+00
  0.00000000E+00  0.00000000E+00  0.00000000E+00
  0.00000000E+00  0.00000000E+00  0.00000000E+00
  0.00000000E+00  0.00000000E+00  0.00000000E+00
  0.00000000E+00  0.00000000E+00  0.00000000E+00
