PROCAR new format
# of k-points:    1         # of bands:  36         # of ions:   6

 k-point    1 :    0.00000000 0.00000000 0.00000000     weight = 1.00000000

band   1 # energy   -8.38423071 # occ.  1.00000000
 
ion      s      p      d      f    tot
  1  0.040  0.024  0.119  0.001  0.184
  2  0.040  0.024  0.119  0.001  0.184
  3  0.040  0.024  0.119  0.001  0.184
  4  0.040  0.024  0.119  0.001  0.184
  5  0.040  0.024  0.119  0.001  0.184
  6  0.040  0.024  0.119  0.001  0.184
tot  0.239  0.143  0.713  0.007  1.103
 
band   2 # energy   -7.19738418 # occ.  1.00000000
 
ion      s      p      d      f    tot
  1  0.000  0.009  0.216  0.001  0.225
  2  0.000  0.009  0.215  0.001  0.225
  3  0.000  0.001  0.064  0.002  0.066
  4  0.000  0.009  0.225  0.001  0.235
  5  0.000  0.001  0.064  0.002  0.066
  6  0.000  0.009  0.226  0.001  0.236
tot  0.000  0.037  1.010  0.007  1.054
 
band   3 # energy   -7.19737473 # occ.  1.00000000
 
ion      s      p      d      f    tot
  1  0.000  0.001  0.064  0.002  0.066
  2  0.000  0.001  0.064  0.002  0.067
  3  0.000  0.009  0.214  0.001  0.224
  4  0.000  0.009  0.225  0.001  0.235
  5  0.000  0.009  0.217  0.001  0.227
  6  0.000  0.009  0.226  0.001  0.236
tot  0.000  0.037  1.010  0.007  1.054
 
band   4 # energy   -7.19734846 # occ.  1.00000000
 
ion      s      p      d      f    tot
  1  0.000  0.009  0.225  0.001  0.235
  2  0.000  0.009  0.226  0.001  0.236
  3  0.000  0.009  0.224  0.001  0.234
  4  0.000  0.000  0.054  0.002  0.056
  5  0.000  0.009  0.227  0.001  0.237
  6  0.000  0.000  0.054  0.002  0.056
tot  0.000  0.037  1.010  0.007  1.054
 
band   5 # energy   -7.05756491 # occ.  1.00000000
 
ion      s      p      d      f    tot
  1  0.075  0.018  0.027  0.001  0.121
  2  0.075  0.018  0.028  0.001  0.121
  3  0.001  0.007  0.198  0.001  0.207
  4  0.000  0.007  0.198  0.001  0.207
  5  0.001  0.007  0.195  0.001  0.204
  6  0.000  0.007  0.197  0.001  0.206
tot  0.152  0.065  0.844  0.006  1.067
 
band   6 # energy   -7.05755349 # occ.  1.00000000
 
ion      s      p      d      f    tot
  1  0.000  0.007  0.197  0.001  0.206
  2  0.000  0.007  0.197  0.001  0.206
  3  0.075  0.018  0.029  0.001  0.122
  4  0.001  0.007  0.197  0.001  0.206
  5  0.075  0.018  0.029  0.001  0.122
  6  0.001  0.007  0.196  0.001  0.205
tot  0.152  0.065  0.844  0.006  1.067
 
band   7 # energy   -7.05754096 # occ.  1.00000000
 
ion      s      p      d      f    tot
  1  0.000  0.007  0.198  0.001  0.206
  2  0.000  0.007  0.198  0.001  0.206
  3  0.001  0.007  0.198  0.001  0.207
  4  0.075  0.018  0.028  0.001  0.121
  5  0.001  0.007  0.195  0.001  0.204
  6  0.075  0.018  0.028  0.001  0.122
tot  0.152  0.065  0.844  0.006  1.067
 
band   8 # energy   -6.55529071 # occ.  1.00000000
 
ion      s      p      d      f    tot
  1  0.000  0.000  0.153  0.001  0.154
  2  0.000  0.000  0.153  0.001  0.154
  3  0.000  0.000  0.153  0.001  0.154
  4  0.000  0.000  0.153  0.001  0.154
  5  0.000  0.000  0.153  0.001  0.154
  6  0.000  0.000  0.153  0.001  0.154
tot  0.000  0.000  0.917  0.008  0.925
 
band   9 # energy   -6.36016863 # occ.  1.00000000
 
ion      s      p      d      f    tot
  1  0.086  0.003  0.036  0.000  0.125
  2  0.086  0.003  0.036  0.000  0.125
  3  0.086  0.003  0.036  0.000  0.125
  4  0.086  0.003  0.036  0.000  0.125
  5  0.086  0.003  0.036  0.000  0.125
  6  0.086  0.003  0.036  0.000  0.125
tot  0.513  0.020  0.214  0.003  0.750
 
band  10 # energy   -6.23800848 # occ.  1.00000000
 
ion      s      p      d      f    tot
  1  0.016  0.001  0.033  0.000  0.050
  2  0.016  0.001  0.033  0.000  0.050
  3  0.009  0.000  0.145  0.001  0.155
  4  0.001  0.000  0.272  0.001  0.274
  5  0.009  0.000  0.146  0.001  0.156
  6  0.001  0.000  0.272  0.001  0.274
tot  0.051  0.002  0.901  0.003  0.958
 
band  11 # energy   -6.23794843 # occ.  1.00000000
 
ion      s      p      d      f    tot
  1  0.001  0.000  0.267  0.001  0.269
  2  0.001  0.000  0.267  0.001  0.269
  3  0.008  0.000  0.154  0.001  0.164
  4  0.016  0.001  0.028  0.000  0.045
  5  0.008  0.000  0.156  0.001  0.165
  6  0.016  0.001  0.028  0.000  0.045
tot  0.051  0.002  0.901  0.003  0.958
 
band  12 # energy   -5.80710393 # occ.  1.00000000
 
ion      s      p      d      f    tot
  1  0.000  0.003  0.095  0.001  0.099
  2  0.000  0.003  0.095  0.001  0.099
  3  0.000  0.003  0.095  0.001  0.098
  4  0.000  0.000  0.304  0.002  0.305
  5  0.000  0.003  0.095  0.001  0.098
  6  0.000  0.000  0.303  0.002  0.305
tot  0.000  0.010  0.988  0.007  1.004
 
band  13 # energy   -5.80707938 # occ.  1.00000000
 
ion      s      p      d      f    tot
  1  0.000  0.003  0.099  0.001  0.102
  2  0.000  0.003  0.099  0.001  0.102
  3  0.000  0.000  0.301  0.002  0.302
  4  0.000  0.003  0.095  0.001  0.098
  5  0.000  0.000  0.299  0.002  0.301
  6  0.000  0.003  0.095  0.001  0.098
tot  0.000  0.010  0.988  0.007  1.004
 
band  14 # energy   -5.80704657 # occ.  1.00000000
 
ion      s      p      d      f    tot
  1  0.000  0.000  0.300  0.002  0.301
  2  0.000  0.000  0.299  0.002  0.301
  3  0.000  0.003  0.099  0.001  0.102
  4  0.000  0.003  0.095  0.001  0.099
  5  0.000  0.003  0.099  0.001  0.102
  6  0.000  0.003  0.095  0.001  0.099
tot  0.000  0.010  0.988  0.007  1.004
 
band  15 # energy   -4.96488493 # occ.  1.00000000
 
ion      s      p      d      f    tot
  1  0.000  0.007  0.002  0.001  0.010
  2  0.000  0.007  0.002  0.001  0.010
  3  0.000  0.007  0.002  0.001  0.011
  4  0.022  0.001  0.407  0.000  0.429
  5  0.000  0.007  0.002  0.001  0.011
  6  0.022  0.001  0.407  0.000  0.429
tot  0.043  0.030  0.822  0.005  0.901
 
band  16 # energy   -4.96479899 # occ.  1.00000000
 
ion      s      p      d      f    tot
  1  0.005  0.006  0.095  0.001  0.106
  2  0.005  0.006  0.095  0.001  0.106
  3  0.017  0.002  0.314  0.000  0.333
  4  0.000  0.007  0.002  0.001  0.011
  5  0.017  0.002  0.314  0.000  0.334
  6  0.000  0.007  0.002  0.001  0.011
tot  0.043  0.030  0.822  0.005  0.901
 
band  17 # energy   -4.96478786 # occ.  1.00000000
 
ion      s      p      d      f    tot
  1  0.017  0.002  0.314  0.000  0.334
  2  0.017  0.002  0.314  0.000  0.334
  3  0.005  0.006  0.095  0.001  0.106
  4  0.000  0.007  0.002  0.001  0.010
  5  0.005  0.006  0.095  0.001  0.106
  6  0.000  0.007  0.002  0.001  0.010
tot  0.043  0.030  0.822  0.005  0.901
 
band  18 # energy   -4.67839616 # occ.  1.00000000
 
ion      s      p      d      f    tot
  1  0.000  0.004  0.029  0.001  0.034
  2  0.000  0.004  0.029  0.001  0.034
  3  0.000  0.004  0.031  0.001  0.035
  4  0.000  0.000  0.384  0.000  0.384
  5  0.000  0.004  0.031  0.001  0.036
  6  0.000  0.000  0.384  0.000  0.384
tot  0.000  0.015  0.887  0.004  0.907
 
band  19 # energy   -4.67837908 # occ.  1.00000000
 
ion      s      p      d      f    tot
  1  0.000  0.003  0.065  0.001  0.069
  2  0.000  0.003  0.065  0.001  0.069
  3  0.000  0.000  0.348  0.000  0.348
  4  0.000  0.004  0.031  0.001  0.036
  5  0.000  0.000  0.348  0.000  0.349
  6  0.000  0.004  0.031  0.001  0.036
tot  0.000  0.015  0.887  0.004  0.907
 
band  20 # energy   -4.67836224 # occ.  1.00000000
 
ion      s      p      d      f    tot
  1  0.000  0.000  0.350  0.000  0.351
  2  0.000  0.000  0.350  0.000  0.351
  3  0.000  0.003  0.065  0.001  0.069
  4  0.000  0.004  0.029  0.001  0.033
  5  0.000  0.003  0.065  0.001  0.069
  6  0.000  0.004  0.029  0.001  0.033
tot  0.000  0.015  0.887  0.004  0.907
 
band  21 # energy   -4.04219055 # occ.  1.00000000
 
ion      s      p      d      f    tot
  1  0.000  0.011  0.136  0.000  0.147
  2  0.000  0.011  0.136  0.000  0.148
  3  0.000  0.010  0.137  0.000  0.148
  4  0.000  0.001  0.148  0.002  0.151
  5  0.000  0.010  0.137  0.000  0.148
  6  0.000  0.001  0.147  0.002  0.151
tot  0.000  0.045  0.841  0.006  0.892
 
band  22 # energy   -4.04217379 # occ.  1.00000000
 
ion      s      p      d      f    tot
  1  0.000  0.011  0.137  0.000  0.148
  2  0.000  0.011  0.137  0.000  0.148
  3  0.000  0.002  0.147  0.002  0.150
  4  0.000  0.010  0.137  0.000  0.148
  5  0.000  0.002  0.147  0.002  0.151
  6  0.000  0.010  0.137  0.000  0.148
tot  0.000  0.045  0.841  0.006  0.892
 
band  23 # energy   -4.04215426 # occ.  1.00000000
 
ion      s      p      d      f    tot
  1  0.000  0.001  0.148  0.002  0.151
  2  0.000  0.001  0.148  0.002  0.151
  3  0.000  0.011  0.136  0.000  0.147
  4  0.000  0.011  0.136  0.000  0.147
  5  0.000  0.011  0.137  0.000  0.148
  6  0.000  0.011  0.136  0.000  0.148
tot  0.000  0.045  0.841  0.006  0.892
 
band  24 # energy   -3.86639267 # occ.  1.00000000
 
ion      s      p      d      f    tot
  1  0.003  0.007  0.274  0.001  0.284
  2  0.003  0.007  0.274  0.001  0.284
  3  0.000  0.001  0.036  0.000  0.037
  4  0.001  0.003  0.132  0.000  0.136
  5  0.000  0.001  0.036  0.000  0.037
  6  0.001  0.003  0.132  0.000  0.136
tot  0.009  0.021  0.883  0.003  0.916
 
band  25 # energy   -3.86637177 # occ.  1.00000000
 
ion      s      p      d      f    tot
  1  0.000  0.000  0.021  0.000  0.021
  2  0.000  0.000  0.021  0.000  0.021
  3  0.003  0.006  0.258  0.001  0.268
  4  0.002  0.004  0.163  0.001  0.169
  5  0.003  0.006  0.258  0.001  0.268
  6  0.002  0.004  0.163  0.001  0.169
tot  0.009  0.021  0.883  0.003  0.916
 
band  26 # energy   -3.80622150 # occ.  1.00000000
 
ion      s      p      d      f    tot
  1  0.000  0.000  0.040  0.000  0.040
  2  0.000  0.000  0.040  0.000  0.040
  3  0.000  0.000  0.128  0.000  0.128
  4  0.000  0.000  0.311  0.001  0.312
  5  0.000  0.000  0.128  0.000  0.128
  6  0.000  0.000  0.311  0.001  0.312
tot  0.000  0.000  0.958  0.003  0.961
 
band  27 # energy   -3.80620314 # occ.  1.00000000
 
ion      s      p      d      f    tot
  1  0.000  0.000  0.279  0.001  0.280
  2  0.000  0.000  0.279  0.001  0.280
  3  0.000  0.000  0.192  0.001  0.192
  4  0.000  0.000  0.008  0.000  0.008
  5  0.000  0.000  0.191  0.001  0.192
  6  0.000  0.000  0.008  0.000  0.008
tot  0.000  0.000  0.958  0.003  0.961
 
band  28 # energy   -3.67366062 # occ.  1.00000000
 
ion      s      p      d      f    tot
  1  0.000  0.010  0.221  0.002  0.232
  2  0.000  0.010  0.221  0.002  0.232
  3  0.000  0.001  0.020  0.000  0.021
  4  0.000  0.009  0.201  0.001  0.212
  5  0.000  0.001  0.020  0.000  0.021
  6  0.000  0.009  0.201  0.001  0.212
tot  0.000  0.040  0.883  0.006  0.929
 
band  29 # energy   -3.67364094 # occ.  1.00000000
 
ion      s      p      d      f    tot
  1  0.000  0.010  0.215  0.002  0.226
  2  0.000  0.010  0.215  0.002  0.226
  3  0.000  0.009  0.202  0.001  0.212
  4  0.000  0.001  0.025  0.000  0.027
  5  0.000  0.009  0.201  0.001  0.212
  6  0.000  0.001  0.025  0.000  0.026
tot  0.000  0.040  0.883  0.006  0.929
 
band  30 # energy   -3.67363363 # occ.  1.00000000
 
ion      s      p      d      f    tot
  1  0.000  0.000  0.006  0.000  0.006
  2  0.000  0.000  0.006  0.000  0.006
  3  0.000  0.010  0.221  0.002  0.232
  4  0.000  0.010  0.216  0.002  0.227
  5  0.000  0.010  0.220  0.002  0.231
  6  0.000  0.010  0.215  0.002  0.226
tot  0.000  0.040  0.883  0.006  0.929
 
band  31 # energy   -3.13320547 # occ.  0.00000000
 
ion      s      p      d      f    tot
  1  0.101  0.020  0.030  0.000  0.151
  2  0.101  0.020  0.030  0.000  0.151
  3  0.000  0.020  0.027  0.000  0.048
  4  0.000  0.020  0.027  0.000  0.047
  5  0.000  0.020  0.027  0.000  0.048
  6  0.000  0.020  0.027  0.000  0.047
tot  0.202  0.120  0.169  0.001  0.492
 
band  32 # energy   -3.13312825 # occ.  0.00000000
 
ion      s      p      d      f    tot
  1  0.000  0.020  0.027  0.000  0.048
  2  0.000  0.020  0.027  0.000  0.048
  3  0.101  0.020  0.030  0.000  0.151
  4  0.000  0.020  0.027  0.000  0.048
  5  0.101  0.020  0.030  0.000  0.151
  6  0.000  0.020  0.027  0.000  0.048
tot  0.202  0.120  0.169  0.001  0.492
 
band  33 # energy   -3.13299089 # occ.  0.00000000
 
ion      s      p      d      f    tot
  1  0.000  0.020  0.027  0.000  0.047
  2  0.000  0.020  0.027  0.000  0.047
  3  0.000  0.020  0.027  0.000  0.048
  4  0.101  0.020  0.030  0.000  0.151
  5  0.000  0.020  0.027  0.000  0.048
  6  0.101  0.020  0.030  0.000  0.151
tot  0.202  0.120  0.169  0.001  0.492
 
band  34 # energy   -2.99151939 # occ.  0.00000000
 
ion      s      p      d      f    tot
  1  0.000  0.000  0.160  0.002  0.162
  2  0.000  0.000  0.160  0.002  0.162
  3  0.000  0.000  0.160  0.002  0.162
  4  0.000  0.000  0.160  0.002  0.162
  5  0.000  0.000  0.160  0.002  0.161
  6  0.000  0.000  0.160  0.002  0.162
tot  0.000  0.000  0.959  0.011  0.970
 
band  35 # energy   -1.08312237 # occ.  0.00000000
 
ion      s      p      d      f    tot
  1  0.056  0.027  0.019  0.000  0.103
  2  0.056  0.027  0.019  0.000  0.103
  3  0.031  0.015  0.020  0.000  0.065
  4  0.004  0.002  0.021  0.000  0.026
  5  0.031  0.015  0.020  0.000  0.065
  6  0.004  0.002  0.021  0.000  0.026
tot  0.181  0.088  0.118  0.002  0.389
 
band  36 # energy   -1.08296168 # occ.  0.00000000
 
ion      s      p      d      f    tot
  1  0.004  0.002  0.020  0.000  0.027
  2  0.004  0.002  0.020  0.000  0.027
  3  0.030  0.015  0.020  0.000  0.064
  4  0.057  0.027  0.019  0.000  0.103
  5  0.030  0.015  0.020  0.000  0.064
  6  0.057  0.027  0.019  0.000  0.103
tot  0.181  0.088  0.118  0.002  0.389
 
# of k-points:    1         # of bands:  36         # of ions:   6

 k-point    1 :    0.00000000 0.00000000 0.00000000     weight = 1.00000000

band   1 # energy   -8.19003185 # occ.  1.00000000
 
ion      s      p      d      f    tot
  1  0.043  0.027  0.115  0.001  0.185
  2  0.043  0.027  0.115  0.001  0.185
  3  0.042  0.027  0.115  0.001  0.185
  4  0.043  0.027  0.115  0.001  0.185
  5  0.043  0.027  0.115  0.001  0.185
  6  0.043  0.027  0.115  0.001  0.185
tot  0.255  0.161  0.688  0.007  1.112
 
band   2 # energy   -6.45003578 # occ.  1.00000000
 
ion      s      p      d      f    tot
  1  0.000  0.000  0.087  0.002  0.089
  2  0.000  0.000  0.086  0.002  0.088
  3  0.000  0.013  0.201  0.001  0.215
  4  0.000  0.013  0.207  0.001  0.222
  5  0.000  0.013  0.207  0.001  0.221
  6  0.000  0.013  0.209  0.001  0.223
tot  0.000  0.053  0.997  0.008  1.059
 
band   3 # energy   -6.45001288 # occ.  1.00000000
 
ion      s      p      d      f    tot
  1  0.000  0.013  0.204  0.001  0.217
  2  0.000  0.013  0.205  0.001  0.219
  3  0.000  0.000  0.086  0.002  0.089
  4  0.000  0.013  0.206  0.001  0.221
  5  0.000  0.000  0.088  0.002  0.090
  6  0.000  0.013  0.209  0.001  0.223
tot  0.000  0.053  0.998  0.008  1.059
 
band   4 # energy   -6.44996839 # occ.  1.00000000
 
ion      s      p      d      f    tot
  1  0.000  0.013  0.208  0.001  0.222
  2  0.000  0.013  0.208  0.001  0.223
  3  0.000  0.013  0.205  0.001  0.219
  4  0.000  0.000  0.083  0.002  0.085
  5  0.000  0.013  0.210  0.001  0.225
  6  0.000  0.000  0.083  0.002  0.085
tot  0.000  0.053  0.997  0.008  1.059
 
band   5 # energy   -6.38743815 # occ.  1.00000000
 
ion      s      p      d      f    tot
  1  0.085  0.019  0.039  0.001  0.144
  2  0.085  0.019  0.040  0.001  0.145
  3  0.006  0.012  0.178  0.001  0.197
  4  0.001  0.011  0.184  0.001  0.198
  5  0.006  0.012  0.172  0.001  0.192
  6  0.001  0.011  0.183  0.001  0.197
tot  0.185  0.085  0.797  0.007  1.073
 
band   6 # energy   -6.38742792 # occ.  1.00000000
 
ion      s      p      d      f    tot
  1  0.005  0.012  0.178  0.001  0.196
  2  0.005  0.012  0.177  0.001  0.195
  3  0.022  0.013  0.149  0.001  0.186
  4  0.065  0.017  0.073  0.001  0.156
  5  0.022  0.013  0.146  0.001  0.182
  6  0.065  0.017  0.075  0.001  0.158
tot  0.185  0.085  0.797  0.007  1.073
 
band   7 # energy   -6.38742311 # occ.  1.00000000
 
ion      s      p      d      f    tot
  1  0.002  0.012  0.182  0.001  0.198
  2  0.002  0.011  0.181  0.001  0.196
  3  0.064  0.017  0.077  0.001  0.159
  4  0.026  0.014  0.143  0.001  0.184
  5  0.064  0.017  0.075  0.001  0.157
  6  0.026  0.014  0.139  0.001  0.180
tot  0.185  0.085  0.797  0.007  1.073
 
band   8 # energy   -6.24611212 # occ.  1.00000000
 
ion      s      p      d      f    tot
  1  0.000  0.000  0.152  0.002  0.154
  2  0.000  0.000  0.152  0.002  0.154
  3  0.000  0.000  0.152  0.002  0.154
  4  0.000  0.000  0.152  0.002  0.154
  5  0.000  0.000  0.152  0.002  0.153
  6  0.000  0.000  0.152  0.002  0.153
tot  0.000  0.000  0.912  0.010  0.921
 
band   9 # energy   -6.20359049 # occ.  1.00000000
 
ion      s      p      d      f    tot
  1  0.082  0.004  0.039  0.001  0.125
  2  0.082  0.004  0.039  0.001  0.125
  3  0.082  0.004  0.039  0.001  0.125
  4  0.082  0.004  0.039  0.001  0.125
  5  0.081  0.004  0.039  0.001  0.125
  6  0.082  0.004  0.039  0.001  0.125
tot  0.490  0.022  0.234  0.004  0.750
 
band  10 # energy   -5.74046269 # occ.  1.00000000
 
ion      s      p      d      f    tot
  1  0.015  0.001  0.058  0.000  0.074
  2  0.015  0.001  0.058  0.000  0.074
  3  0.012  0.001  0.110  0.001  0.123
  4  0.000  0.000  0.279  0.001  0.281
  5  0.012  0.001  0.111  0.001  0.123
  6  0.000  0.000  0.280  0.001  0.281
tot  0.054  0.003  0.895  0.004  0.956
 
band  11 # energy   -5.74044585 # occ.  1.00000000
 
ion      s      p      d      f    tot
  1  0.003  0.000  0.241  0.001  0.245
  2  0.003  0.000  0.241  0.001  0.245
  3  0.006  0.000  0.187  0.001  0.195
  4  0.018  0.001  0.019  0.000  0.038
  5  0.006  0.000  0.188  0.001  0.196
  6  0.018  0.001  0.019  0.000  0.038
tot  0.054  0.003  0.895  0.004  0.956
 
band  12 # energy   -5.13252623 # occ.  1.00000000
 
ion      s      p      d      f    tot
  1  0.000  0.004  0.073  0.001  0.078
  2  0.000  0.004  0.073  0.001  0.078
  3  0.000  0.004  0.079  0.001  0.084
  4  0.000  0.000  0.337  0.002  0.339
  5  0.000  0.004  0.079  0.001  0.084
  6  0.000  0.000  0.337  0.002  0.338
tot  0.000  0.018  0.978  0.007  1.003
 
band  13 # energy   -5.13251912 # occ.  1.00000000
 
ion      s      p      d      f    tot
  1  0.000  0.003  0.148  0.001  0.152
  2  0.000  0.003  0.148  0.001  0.153
  3  0.000  0.001  0.260  0.001  0.263
  4  0.000  0.004  0.081  0.001  0.087
  5  0.000  0.001  0.259  0.001  0.262
  6  0.000  0.004  0.082  0.001  0.087
tot  0.000  0.018  0.978  0.007  1.003
 
band  14 # energy   -5.13250426 # occ.  1.00000000
 
ion      s      p      d      f    tot
  1  0.000  0.001  0.268  0.001  0.271
  2  0.000  0.001  0.268  0.001  0.270
  3  0.000  0.003  0.151  0.001  0.155
  4  0.000  0.004  0.071  0.001  0.076
  5  0.000  0.003  0.150  0.001  0.155
  6  0.000  0.004  0.071  0.001  0.076
tot  0.000  0.018  0.978  0.007  1.003
 
band  15 # energy   -4.67447646 # occ.  1.00000000
 
ion      s      p      d      f    tot
  1  0.000  0.008  0.001  0.001  0.010
  2  0.000  0.008  0.001  0.001  0.010
  3  0.000  0.008  0.002  0.001  0.012
  4  0.024  0.001  0.396  0.000  0.420
  5  0.000  0.008  0.002  0.001  0.012
  6  0.024  0.001  0.396  0.000  0.421
tot  0.048  0.035  0.797  0.005  0.885
 
band  16 # energy   -4.67445599 # occ.  1.00000000
 
ion      s      p      d      f    tot
  1  0.002  0.008  0.031  0.001  0.042
  2  0.002  0.008  0.032  0.001  0.042
  3  0.022  0.001  0.365  0.000  0.388
  4  0.000  0.008  0.002  0.001  0.012
  5  0.022  0.001  0.365  0.000  0.389
  6  0.000  0.008  0.002  0.001  0.012
tot  0.048  0.035  0.797  0.005  0.885
 
band  17 # energy   -4.67443413 # occ.  1.00000000
 
ion      s      p      d      f    tot
  1  0.022  0.001  0.366  0.000  0.390
  2  0.022  0.001  0.366  0.000  0.390
  3  0.002  0.008  0.031  0.001  0.042
  4  0.000  0.008  0.001  0.001  0.011
  5  0.002  0.008  0.031  0.001  0.042
  6  0.000  0.008  0.001  0.001  0.011
tot  0.048  0.035  0.797  0.005  0.885
 
band  18 # energy   -4.18523958 # occ.  1.00000000
 
ion      s      p      d      f    tot
  1  0.000  0.001  0.236  0.001  0.237
  2  0.000  0.001  0.236  0.001  0.238
  3  0.000  0.002  0.159  0.001  0.161
  4  0.000  0.003  0.049  0.001  0.053
  5  0.000  0.002  0.159  0.001  0.161
  6  0.000  0.003  0.049  0.001  0.053
tot  0.000  0.011  0.887  0.005  0.902
 
band  19 # energy   -4.18522838 # occ.  1.00000000
 
ion      s      p      d      f    tot
  1  0.000  0.002  0.161  0.001  0.163
  2  0.000  0.002  0.160  0.001  0.163
  3  0.000  0.001  0.237  0.001  0.238
  4  0.000  0.003  0.046  0.001  0.050
  5  0.000  0.001  0.237  0.001  0.239
  6  0.000  0.003  0.046  0.001  0.050
tot  0.000  0.011  0.887  0.005  0.902
 
band  20 # energy   -4.18522157 # occ.  1.00000000
 
ion      s      p      d      f    tot
  1  0.000  0.003  0.047  0.001  0.051
  2  0.000  0.003  0.047  0.001  0.051
  3  0.000  0.003  0.048  0.001  0.051
  4  0.000  0.000  0.348  0.000  0.349
  5  0.000  0.003  0.048  0.001  0.052
  6  0.000  0.000  0.349  0.000  0.349
tot  0.000  0.011  0.887  0.005  0.902
 
band  21 # energy   -3.44736484 # occ.  1.00000000
 
ion      s      p      d      f    tot
  1  0.000  0.001  0.055  0.000  0.056
  2  0.000  0.001  0.055  0.000  0.056
  3  0.001  0.002  0.108  0.000  0.112
  4  0.003  0.006  0.279  0.001  0.289
  5  0.001  0.002  0.108  0.000  0.112
  6  0.003  0.006  0.279  0.001  0.289
tot  0.009  0.018  0.884  0.003  0.914
 
band  22 # energy   -3.44731482 # occ.  1.00000000
 
ion      s      p      d      f    tot
  1  0.002  0.005  0.240  0.001  0.248
  2  0.002  0.005  0.240  0.001  0.248
  3  0.002  0.004  0.187  0.001  0.193
  4  0.000  0.000  0.015  0.000  0.016
  5  0.002  0.004  0.187  0.001  0.193
  6  0.000  0.000  0.015  0.000  0.016
tot  0.009  0.018  0.884  0.003  0.914
 
band  23 # energy   -3.36014776 # occ.  1.00000000
 
ion      s      p      d      f    tot
  1  0.000  0.000  0.311  0.001  0.312
  2  0.000  0.000  0.311  0.001  0.312
  3  0.000  0.000  0.041  0.000  0.041
  4  0.000  0.000  0.127  0.000  0.127
  5  0.000  0.000  0.041  0.000  0.041
  6  0.000  0.000  0.127  0.000  0.127
tot  0.000  0.000  0.958  0.002  0.961
 
band  24 # energy   -3.36013847 # occ.  1.00000000
 
ion      s      p      d      f    tot
  1  0.000  0.000  0.008  0.000  0.008
  2  0.000  0.000  0.008  0.000  0.008
  3  0.000  0.000  0.279  0.001  0.280
  4  0.000  0.000  0.192  0.000  0.193
  5  0.000  0.000  0.278  0.001  0.279
  6  0.000  0.000  0.192  0.000  0.193
tot  0.000  0.000  0.958  0.002  0.961
 
band  25 # energy   -3.12519827 # occ.  0.00000000
 
ion      s      p      d      f    tot
  1  0.000  0.001  0.103  0.003  0.106
  2  0.000  0.001  0.104  0.003  0.107
  3  0.000  0.010  0.155  0.000  0.165
  4  0.000  0.010  0.158  0.000  0.169
  5  0.000  0.010  0.155  0.000  0.165
  6  0.000  0.010  0.158  0.000  0.169
tot  0.000  0.041  0.834  0.006  0.881
 
band  26 # energy   -3.12518409 # occ.  0.00000000
 
ion      s      p      d      f    tot
  1  0.000  0.010  0.158  0.000  0.168
  2  0.000  0.010  0.158  0.000  0.168
  3  0.000  0.008  0.147  0.001  0.156
  4  0.000  0.002  0.112  0.002  0.117
  5  0.000  0.008  0.147  0.001  0.156
  6  0.000  0.002  0.112  0.002  0.116
tot  0.000  0.041  0.834  0.006  0.881
 
band  27 # energy   -3.12517891 # occ.  0.00000000
 
ion      s      p      d      f    tot
  1  0.000  0.010  0.156  0.000  0.166
  2  0.000  0.010  0.156  0.000  0.166
  3  0.000  0.003  0.115  0.002  0.119
  4  0.000  0.008  0.146  0.001  0.155
  5  0.000  0.003  0.115  0.002  0.119
  6  0.000  0.008  0.147  0.001  0.155
tot  0.000  0.041  0.834  0.006  0.881
 
band  28 # energy   -2.65285246 # occ.  0.00000000
 
ion      s      p      d      f    tot
  1  0.000  0.016  0.036  0.000  0.053
  2  0.000  0.016  0.036  0.000  0.053
  3  0.000  0.016  0.036  0.000  0.052
  4  0.076  0.021  0.037  0.000  0.135
  5  0.000  0.016  0.037  0.000  0.053
  6  0.076  0.021  0.037  0.000  0.135
tot  0.152  0.108  0.219  0.000  0.480
 
band  29 # energy   -2.65278740 # occ.  0.00000000
 
ion      s      p      d      f    tot
  1  0.000  0.016  0.036  0.000  0.053
  2  0.000  0.016  0.036  0.000  0.053
  3  0.076  0.021  0.037  0.000  0.134
  4  0.000  0.016  0.036  0.000  0.052
  5  0.076  0.021  0.037  0.000  0.134
  6  0.000  0.016  0.036  0.000  0.053
tot  0.152  0.108  0.219  0.000  0.480
 
band  30 # energy   -2.65273893 # occ.  0.00000000
 
ion      s      p      d      f    tot
  1  0.076  0.021  0.037  0.000  0.134
  2  0.076  0.021  0.037  0.000  0.134
  3  0.000  0.016  0.036  0.000  0.052
  4  0.000  0.016  0.036  0.000  0.052
  5  0.000  0.016  0.037  0.000  0.053
  6  0.000  0.016  0.036  0.000  0.053
tot  0.152  0.108  0.219  0.000  0.480
 
band  31 # energy   -2.57781638 # occ.  0.00000000
 
ion      s      p      d      f    tot
  1  0.000  0.003  0.062  0.000  0.065
  2  0.000  0.003  0.062  0.000  0.065
  3  0.000  0.007  0.157  0.001  0.166
  4  0.000  0.010  0.219  0.001  0.230
  5  0.000  0.007  0.156  0.001  0.165
  6  0.000  0.010  0.218  0.001  0.230
tot  0.000  0.040  0.874  0.006  0.920
 
band  32 # energy   -2.57781415 # occ.  0.00000000
 
ion      s      p      d      f    tot
  1  0.000  0.007  0.157  0.001  0.165
  2  0.000  0.007  0.157  0.001  0.165
  3  0.000  0.003  0.062  0.000  0.065
  4  0.000  0.010  0.218  0.001  0.230
  5  0.000  0.003  0.062  0.000  0.065
  6  0.000  0.010  0.218  0.001  0.229
tot  0.000  0.040  0.874  0.006  0.920
 
band  33 # energy   -2.57775830 # occ.  0.00000000
 
ion      s      p      d      f    tot
  1  0.000  0.010  0.218  0.001  0.230
  2  0.000  0.010  0.218  0.001  0.230
  3  0.000  0.010  0.219  0.001  0.230
  4  0.000  0.000  0.000  0.000  0.000
  5  0.000  0.010  0.217  0.001  0.229
  6  0.000  0.000  0.000  0.000  0.000
tot  0.000  0.040  0.874  0.006  0.920
 
band  34 # energy   -2.31782924 # occ.  0.00000000
 
ion      s      p      d      f    tot
  1  0.000  0.000  0.160  0.002  0.162
  2  0.000  0.000  0.160  0.002  0.162
  3  0.000  0.000  0.160  0.002  0.162
  4  0.000  0.000  0.160  0.002  0.162
  5  0.000  0.000  0.160  0.002  0.161
  6  0.000  0.000  0.160  0.002  0.161
tot  0.000  0.000  0.959  0.010  0.969
 
band  35 # energy   -0.78004968 # occ.  0.00000000
 
ion      s      p      d      f    tot
  1  0.004  0.037  0.004  0.000  0.046
  2  0.004  0.037  0.004  0.000  0.046
  3  0.004  0.037  0.004  0.000  0.046
  4  0.004  0.038  0.004  0.000  0.046
  5  0.004  0.037  0.004  0.000  0.046
  6  0.004  0.038  0.004  0.000  0.046
tot  0.026  0.224  0.024  0.000  0.274
 
band  36 # energy   -0.70951356 # occ.  0.00000000
 
ion      s      p      d      f    tot
  1  0.005  0.003  0.021  0.000  0.028
  2  0.005  0.003  0.021  0.000  0.028
  3  0.023  0.012  0.019  0.000  0.054
  4  0.049  0.025  0.017  0.000  0.091
  5  0.023  0.012  0.019  0.000  0.054
  6  0.049  0.025  0.017  0.000  0.091
tot  0.153  0.077  0.115  0.001  0.346
 
