CuRh                                    
           1
    17.000000    0.000000    0.000000
     0.000000   17.000000    0.000000
     0.000000    0.000000   17.000000
   Rh
   6
Direct configuration=     1
   0.00000647  0.00000529  0.11080765
   0.99999647  0.99999529  0.88919235
   0.88919353  0.00000882  0.00000471
   0.99999353  0.88919294  0.00000471
   0.11080882  0.99999235  0.99999529
   0.00000941  0.11080824  0.99999471
Direct configuration=     2
   0.00000617  0.00000503  0.10500431
   0.99999677  0.99999556  0.89499569
   0.89499713  0.00000834  0.00000451
   0.99999363  0.89499665  0.00000444
   0.10500522  0.99999283  0.99999549
   0.00000931  0.10500453  0.99999497
Direct configuration=     3
   0.00000618  0.00000505  0.10528039
   0.99999676  0.99999554  0.89471961
   0.89472104  0.00000837  0.00000452
   0.99999362  0.89472055  0.00000446
   0.10528132  0.99999281  0.99999548
   0.00000932  0.10528063  0.99999496
