    4    4  200    2
  0.1228250E+04  0.1700000E-08  0.1700000E-08  0.1700000E-08  0.5000000E-15
  1.000000000000000E-004
  CAR 
 CuRh                                    
     44      1     28
 
  0.0000000E+00  0.0000000E+00  0.0000000E+00  0.1000000E+01
    1       -7.972443     -7.972443
    2       -6.998368     -6.998368
    3       -6.508250     -6.508250
    4       -6.457608     -6.457608
    5       -6.332156     -6.332156
    6       -6.071335     -6.071335
    7       -5.759201     -5.759201
    8       -5.736399     -5.736399
    9       -5.734478     -5.734478
   10       -5.332089     -5.332089
   11       -5.330884     -5.330884
   12       -5.298094     -5.298094
   13       -5.276046     -5.276046
   14       -5.218445     -5.218445
   15       -5.195130     -5.195130
   16       -5.140326     -5.140326
   17       -5.054940     -5.054940
   18       -5.010640     -5.010640
   19       -4.952135     -4.952135
   20       -4.951390     -4.951390
   21       -4.772907     -4.772907
   22       -4.480745     -4.480745
   23       -3.529016     -3.529016
   24       -2.289919     -2.289919
   25       -1.904841     -1.904840
   26       -1.022901     -1.022901
   27       -0.886486     -0.886486
   28       -0.379152     -0.379152
