       N       E                     dE             d eps       ncg     rms          rms(c)
DAV:   1     0.296963290948E+03    0.29696E+03   -0.76822E+03   112   0.854E+02
DAV:   2     0.193615438561E+03   -0.10335E+03   -0.10116E+03   224   0.102E+02
DAV:   3     0.994831796875E+02   -0.94132E+02   -0.91649E+02   208   0.653E+01
DAV:   4     0.389822414750E+02   -0.60501E+02   -0.57365E+02   200   0.100E+02
DAV:   5     0.574334328603E+01   -0.33239E+02   -0.29594E+02   208   0.644E+01
DAV:   6    -0.426344926884E+01   -0.10007E+02   -0.89595E+01   184   0.484E+01
DAV:   7    -0.661527633342E+01   -0.23518E+01   -0.19392E+01   168   0.221E+01
DAV:   8    -0.682351293405E+01   -0.20824E+00   -0.20631E+00   156   0.750E+00    0.132E+01
DAV:   9    -0.682629230659E+01   -0.27794E-02   -0.20589E-01   200   0.302E+00    0.120E+01
DAV:  10    -0.674587928133E+01    0.80413E-01   -0.23771E+00   180   0.181E+01    0.409E+00
DAV:  11    -0.674442161556E+01    0.14577E-02   -0.55613E-02   132   0.236E+00    0.398E+00
DAV:  12    -0.671344304272E+01    0.30979E-01   -0.14918E-02   156   0.977E-01    0.365E+00
DAV:  13    -0.660443574790E+01    0.10901E+00   -0.84220E-01   112   0.643E+00    0.170E+00
DAV:  14    -0.661435588228E+01   -0.99201E-02   -0.87966E-02   180   0.269E+00    0.176E+00
DAV:  15    -0.662296851621E+01   -0.86126E-02   -0.18263E-02   136   0.126E+00    0.161E+00
DAV:  16    -0.660196836124E+01    0.21000E-01   -0.97110E-02   192   0.454E+00    0.907E-01
DAV:  17    -0.660278880264E+01   -0.82044E-03   -0.62116E-03   120   0.150E+00    0.787E-01
DAV:  18    -0.659593718485E+01    0.68516E-02   -0.36461E-02   192   0.237E+00    0.349E-01
DAV:  19    -0.659335187890E+01    0.25853E-02   -0.84313E-03   148   0.170E+00    0.392E-01
DAV:  20    -0.659341093148E+01   -0.59053E-04   -0.88149E-04   168   0.293E-01    0.313E-01
DAV:  21    -0.659159108624E+01    0.18198E-02   -0.51458E-03   136   0.771E-01    0.204E-01
DAV:  22    -0.659146704528E+01    0.12404E-03   -0.91989E-04   152   0.344E-01    0.160E-01
DAV:  23    -0.659145729315E+01    0.97521E-05   -0.16059E-04   152   0.136E-01    0.883E-02
DAV:  24    -0.659147747048E+01   -0.20177E-04   -0.83655E-05   224   0.212E-01    0.706E-02
DAV:  25    -0.659145587795E+01    0.21593E-04   -0.72855E-05   120   0.792E-02    0.542E-02
DAV:  26    -0.659143550766E+01    0.20370E-04   -0.14160E-04   172   0.163E-01    0.308E-02
DAV:  27    -0.659144135715E+01   -0.58495E-05   -0.38472E-05   148   0.788E-02    0.260E-02
DAV:  28    -0.659144248588E+01   -0.11287E-05   -0.11814E-05   132   0.435E-02    0.279E-02
DAV:  29    -0.659144075365E+01    0.17322E-05   -0.29563E-06    96   0.408E-02    0.237E-02
DAV:  30    -0.659143935827E+01    0.13954E-05   -0.88154E-06   116   0.267E-02    0.172E-02
DAV:  31    -0.659143896682E+01    0.39145E-06   -0.31009E-06    80   0.460E-02
   1 F= -.65914390E+01 E0= -.65914390E+01  d E =-.659144E+01  mag=     0.0006
       N       E                     dE             d eps       ncg     rms          rms(c)
DAV:   1    -0.538360451881E+01    0.12078E+01   -0.41624E+02   120   0.189E+02    0.763E+00
DAV:   2    -0.696022213856E+01   -0.15766E+01   -0.15945E+01   160   0.455E+01    0.749E-01
DAV:   3    -0.697659533229E+01   -0.16373E-01   -0.82023E-02   128   0.203E+00    0.731E-01
DAV:   4    -0.697491098503E+01    0.16843E-02   -0.86972E-03   216   0.856E-01    0.603E-01
DAV:   5    -0.697330227236E+01    0.16087E-02   -0.29532E-02   148   0.229E+00    0.533E-01
DAV:   6    -0.697356693562E+01   -0.26466E-03   -0.14890E-03   156   0.384E-01    0.523E-01
DAV:   7    -0.697362708571E+01   -0.60150E-04   -0.88981E-04   160   0.369E-01    0.414E-01
DAV:   8    -0.697611036765E+01   -0.24833E-02   -0.60609E-03   128   0.759E-01    0.184E-01
DAV:   9    -0.697638727224E+01   -0.27690E-03   -0.68905E-04   168   0.317E-01    0.123E-01
DAV:  10    -0.697628872139E+01    0.98551E-04   -0.32501E-04   176   0.260E-01    0.762E-02
DAV:  11    -0.697626486110E+01    0.23860E-04   -0.13448E-04   172   0.158E-01    0.615E-02
DAV:  12    -0.697634393451E+01   -0.79073E-04   -0.32411E-04   128   0.176E-01    0.303E-02
DAV:  13    -0.697635049114E+01   -0.65566E-05   -0.12748E-04   208   0.993E-02    0.181E-02
DAV:  14    -0.697635004548E+01    0.44566E-06   -0.36498E-06    88   0.279E-02
   2 F= -.69763500E+01 E0= -.69763500E+01  d E =-.384911E+00  mag=    -0.0000
       N       E                     dE             d eps       ncg     rms          rms(c)
DAV:   1    -0.237322949453E+01    0.46031E+01   -0.92734E+02   112   0.310E+02    0.213E+01
DAV:   2    -0.695098407708E+01   -0.45778E+01   -0.46338E+01   136   0.834E+01    0.214E+00
DAV:   3    -0.720421040069E+01   -0.25323E+00   -0.23693E+00   160   0.128E+01    0.129E+00
DAV:   4    -0.720608236195E+01   -0.18720E-02   -0.27163E-02   176   0.118E+00    0.114E+00
DAV:   5    -0.720012248357E+01    0.59599E-02   -0.78982E-02   144   0.367E+00    0.933E-01
DAV:   6    -0.720075361043E+01   -0.63113E-03   -0.37610E-03   160   0.484E-01    0.930E-01
DAV:   7    -0.720071684999E+01    0.36760E-04   -0.15632E-04   200   0.942E-02    0.923E-01
DAV:   8    -0.719993155862E+01    0.78529E-03   -0.64868E-03   184   0.983E-01    0.747E-01
DAV:   9    -0.720481246692E+01   -0.48809E-02   -0.14347E-02   128   0.112E+00    0.418E-01
DAV:  10    -0.720547674002E+01   -0.66427E-03   -0.12910E-03   152   0.475E-01    0.341E-01
DAV:  11    -0.720531042083E+01    0.16632E-03   -0.17311E-03   192   0.885E-01    0.208E-01
DAV:  12    -0.720534644739E+01   -0.36027E-04   -0.42309E-04   144   0.252E-01    0.204E-01
DAV:  13    -0.720483176326E+01    0.51468E-03   -0.29569E-03   184   0.898E-01    0.149E-01
DAV:  14    -0.720477594369E+01    0.55820E-04   -0.53091E-04   144   0.435E-01    0.896E-02
DAV:  15    -0.720477681859E+01   -0.87490E-06   -0.33552E-05   184   0.486E-02    0.870E-02
DAV:  16    -0.720478433228E+01   -0.75137E-05   -0.46208E-06   104   0.431E-02    0.858E-02
DAV:  17    -0.720474447557E+01    0.39857E-04   -0.14901E-04   160   0.105E-01    0.411E-02
DAV:  18    -0.720474471241E+01   -0.23684E-06   -0.57490E-06   152   0.216E-02
   3 F= -.72047447E+01 E0= -.72047447E+01  d E =-.613306E+00  mag=     0.0000
       N       E                     dE             d eps       ncg     rms          rms(c)
DAV:   1    -0.716923347184E+01    0.35511E-01   -0.25293E+01   112   0.422E+01    0.375E-01
DAV:   2    -0.720883038735E+01   -0.39597E-01   -0.40243E-01   168   0.583E+00    0.245E-01
DAV:   3    -0.720905010550E+01   -0.21972E-03   -0.21423E-03   128   0.450E-01    0.261E-01
DAV:   4    -0.720903518910E+01    0.14916E-04   -0.17341E-04   208   0.910E-02    0.264E-01
DAV:   5    -0.720898919542E+01    0.45994E-04   -0.56960E-05   156   0.115E-01    0.243E-01
DAV:   6    -0.720934133015E+01   -0.35213E-03   -0.28926E-03   144   0.774E-01    0.150E-01
DAV:   7    -0.720928346378E+01    0.57866E-04   -0.66714E-04   160   0.582E-01    0.598E-02
DAV:   8    -0.720933789110E+01   -0.54427E-04   -0.23948E-04   168   0.227E-01    0.482E-02
DAV:   9    -0.720933338334E+01    0.45078E-05   -0.18768E-05   136   0.889E-02    0.401E-02
DAV:  10    -0.720936263794E+01   -0.29255E-04   -0.72533E-05   144   0.142E-01    0.670E-02
DAV:  11    -0.720931382384E+01    0.48814E-04   -0.98926E-05   176   0.239E-01    0.393E-02
DAV:  12    -0.720930846051E+01    0.53633E-05   -0.27061E-05   176   0.619E-02    0.307E-02
DAV:  13    -0.720930380424E+01    0.46563E-05   -0.10001E-05   160   0.410E-02    0.218E-02
DAV:  14    -0.720930209804E+01    0.17062E-05   -0.47846E-06   128   0.268E-02    0.162E-02
DAV:  15    -0.720930166613E+01    0.43191E-06   -0.13093E-06    64   0.143E-02
   4 F= -.72093017E+01 E0= -.72093017E+01  d E =-.617863E+00  mag=    -0.0000
       N       E                     dE             d eps       ncg     rms          rms(c)
DAV:   1    -0.720873360199E+01    0.56850E-03   -0.21187E+00   112   0.121E+01    0.812E-02
DAV:   2    -0.721031921138E+01   -0.15856E-02   -0.16284E-02   164   0.111E+00    0.762E-02
DAV:   3    -0.721029992586E+01    0.19286E-04   -0.74506E-05   160   0.660E-02    0.768E-02
DAV:   4    -0.721030109152E+01   -0.11657E-05   -0.40371E-05   176   0.881E-02    0.886E-02
DAV:   5    -0.721030316917E+01   -0.20776E-05   -0.22436E-04   152   0.225E-01    0.648E-02
DAV:   6    -0.721034860103E+01   -0.45432E-04   -0.79027E-05   160   0.100E-01    0.469E-02
DAV:   7    -0.721035517007E+01   -0.65690E-05   -0.35477E-05   168   0.108E-01    0.110E-02
DAV:   8    -0.721035511437E+01    0.55696E-07   -0.59975E-06   124   0.340E-02
   5 F= -.72103551E+01 E0= -.72103551E+01  d E =-.618916E+00  mag=    -0.0000
       N       E                     dE             d eps       ncg     rms          rms(c)
DAV:   1    -0.718381062028E+01    0.26545E-01   -0.28676E+01   120   0.450E+01    0.512E-01
DAV:   2    -0.723105307981E+01   -0.47242E-01   -0.48244E-01   176   0.606E+00    0.168E-01
DAV:   3    -0.723147906432E+01   -0.42598E-03   -0.29808E-03   128   0.480E-01    0.162E-01
DAV:   4    -0.723145277131E+01    0.26293E-04   -0.16685E-04   192   0.968E-02    0.163E-01
DAV:   5    -0.723142768570E+01    0.25086E-04   -0.40373E-06   136   0.195E-02    0.162E-01
DAV:   6    -0.723131610443E+01    0.11158E-03   -0.22041E-03   200   0.714E-01    0.724E-02
DAV:   7    -0.723133988498E+01   -0.23781E-04   -0.14576E-04   112   0.177E-01    0.716E-02
DAV:   8    -0.723134405794E+01   -0.41730E-05   -0.35536E-05   216   0.995E-02    0.663E-02
DAV:   9    -0.723151215730E+01   -0.16810E-03   -0.36020E-04   112   0.193E-01    0.711E-02
DAV:  10    -0.723151122520E+01    0.93209E-06   -0.26579E-05   200   0.679E-02    0.654E-02
DAV:  11    -0.723150639579E+01    0.48294E-05   -0.51176E-06   104   0.521E-02    0.554E-02
DAV:  12    -0.723153671741E+01   -0.30322E-04   -0.77326E-05   144   0.120E-01    0.347E-02
DAV:  13    -0.723153542609E+01    0.12913E-05   -0.23704E-06    96   0.275E-02    0.346E-02
DAV:  14    -0.723153382606E+01    0.16000E-05   -0.70829E-06   112   0.384E-02    0.249E-02
DAV:  15    -0.723153344893E+01    0.37713E-06   -0.32396E-05   168   0.954E-02    0.193E-02
DAV:  16    -0.723153382760E+01   -0.37867E-06   -0.31485E-06    88   0.364E-02
   6 F= -.72315338E+01 E0= -.72315338E+01  d E =-.211787E-01  mag=     0.0000
       N       E                     dE             d eps       ncg     rms          rms(c)
DAV:   1    -0.637434764254E+01    0.85719E+00   -0.26019E+02   120   0.144E+02    0.508E+00
DAV:   2    -0.725917227059E+01   -0.88482E+00   -0.89760E+00   176   0.307E+01    0.540E-01
DAV:   3    -0.726846364702E+01   -0.92914E-02   -0.48548E-02   120   0.151E+00    0.533E-01
DAV:   4    -0.726752056968E+01    0.94308E-03   -0.50228E-03   224   0.814E-01    0.468E-01
DAV:   5    -0.726611873955E+01    0.14018E-02   -0.45030E-03   216   0.121E+00    0.386E-01
DAV:   6    -0.726588372046E+01    0.23502E-03   -0.74734E-04   128   0.361E-01    0.324E-01
DAV:   7    -0.726615627892E+01   -0.27256E-03   -0.68638E-03   112   0.625E-01    0.158E-01
DAV:   8    -0.726662827208E+01   -0.47199E-03   -0.97162E-04   192   0.240E-01    0.149E-01
DAV:   9    -0.726655386630E+01    0.74406E-04   -0.11514E-04   128   0.134E-01    0.116E-01
DAV:  10    -0.726689123374E+01   -0.33737E-03   -0.89891E-04   160   0.466E-01    0.588E-02
DAV:  11    -0.726687362786E+01    0.17606E-04   -0.78058E-05   128   0.134E-01    0.585E-02
DAV:  12    -0.726683344693E+01    0.40181E-04   -0.34945E-05   176   0.644E-02    0.497E-02
DAV:  13    -0.726682193012E+01    0.11517E-04   -0.30719E-04   176   0.319E-01    0.202E-02
DAV:  14    -0.726682210340E+01   -0.17328E-06   -0.25689E-05   128   0.562E-02    0.170E-02
DAV:  15    -0.726682118000E+01    0.92341E-06   -0.19669E-06    72   0.359E-02
   7 F= -.72668212E+01 E0= -.72668212E+01  d E =-.564661E-01  mag=     0.0000
       N       E                     dE             d eps       ncg     rms          rms(c)
DAV:   1    -0.718007645136E+01    0.86746E-01   -0.46535E+01   120   0.575E+01    0.821E-01
DAV:   2    -0.726992335516E+01   -0.89847E-01   -0.91563E-01   176   0.854E+00    0.216E-01
DAV:   3    -0.727085441169E+01   -0.93106E-03   -0.58936E-03   120   0.658E-01    0.210E-01
DAV:   4    -0.727087397763E+01   -0.19566E-04   -0.49306E-04   192   0.190E-01    0.216E-01
DAV:   5    -0.727068061171E+01    0.19337E-03   -0.13190E-04   208   0.232E-01    0.195E-01
DAV:   6    -0.727040794979E+01    0.27266E-03   -0.22696E-03   216   0.922E-01    0.143E-01
DAV:   7    -0.727056095783E+01   -0.15301E-03   -0.15996E-03   144   0.686E-01    0.586E-02
DAV:   8    -0.727065208291E+01   -0.91125E-04   -0.19484E-04   208   0.190E-01    0.492E-02
DAV:   9    -0.727066370381E+01   -0.11621E-04   -0.33918E-05   216   0.122E-01    0.422E-02
DAV:  10    -0.727072304545E+01   -0.59342E-04   -0.28191E-04   168   0.265E-01    0.422E-02
DAV:  11    -0.727073067965E+01   -0.76342E-05   -0.35808E-05   144   0.116E-01    0.324E-02
DAV:  12    -0.727072832309E+01    0.23566E-05   -0.72328E-06   128   0.286E-02    0.288E-02
DAV:  13    -0.727073443825E+01   -0.61152E-05   -0.73776E-05   176   0.195E-01    0.668E-03
DAV:  14    -0.727073529269E+01   -0.85445E-06   -0.67281E-06   120   0.299E-02
   8 F= -.72707353E+01 E0= -.72707353E+01  d E =-.603802E-01  mag=    -0.0000
       N       E                     dE             d eps       ncg     rms          rms(c)
DAV:   1    -0.717323763279E+01    0.97497E-01   -0.64850E+01   120   0.677E+01    0.100E+00
DAV:   2    -0.729248000113E+01   -0.11924E+00   -0.12202E+00   176   0.964E+00    0.255E-01
DAV:   3    -0.729462325877E+01   -0.21433E-02   -0.85034E-03   128   0.766E-01    0.241E-01
DAV:   4    -0.729468877239E+01   -0.65514E-04   -0.54339E-04   208   0.154E-01    0.241E-01
DAV:   5    -0.729467038566E+01    0.18387E-04   -0.62876E-06   128   0.168E-02    0.241E-01
DAV:   6    -0.729472105705E+01   -0.50671E-04   -0.22592E-03   160   0.596E-01    0.331E-01
DAV:   7    -0.729493999349E+01   -0.21894E-03   -0.27391E-04   144   0.142E-01    0.373E-01
DAV:   8    -0.729421771469E+01    0.72228E-03   -0.98305E-04   168   0.491E-01    0.235E-01
DAV:   9    -0.729389563671E+01    0.32208E-03   -0.26230E-03   144   0.437E-01    0.298E-01
DAV:  10    -0.729374406945E+01    0.15157E-03   -0.83232E-04   168   0.695E-01    0.241E-01
DAV:  11    -0.729403647392E+01   -0.29240E-03   -0.29304E-03   128   0.346E-01    0.341E-01
DAV:  12    -0.729411354016E+01   -0.77066E-04   -0.20116E-04   168   0.118E-01    0.337E-01
DAV:  13    -0.729400304066E+01    0.11050E-03   -0.12819E-04   144   0.125E-01    0.214E-01
DAV:  14    -0.729394925845E+01    0.53782E-04   -0.10584E-03   136   0.295E-01    0.140E-01
DAV:  15    -0.729395714437E+01   -0.78859E-05   -0.13265E-04   144   0.117E-01    0.104E-01
DAV:  16    -0.729396452696E+01   -0.73826E-05   -0.97968E-05   200   0.122E-01    0.111E-01
DAV:  17    -0.729396564208E+01   -0.11151E-05   -0.14700E-05   144   0.498E-02    0.760E-02
DAV:  18    -0.729396756677E+01   -0.19247E-05   -0.95589E-06   136   0.260E-02    0.100E-01
DAV:  19    -0.729397157380E+01   -0.40070E-05   -0.11269E-05   168   0.822E-02    0.787E-02
DAV:  20    -0.729397146684E+01    0.10696E-06   -0.82763E-06   128   0.310E-02
   9 F= -.72939715E+01 E0= -.72939715E+01  d E =-.232362E-01  mag=    -0.0000
       N       E                     dE             d eps       ncg     rms          rms(c)
DAV:   1    -0.496580205933E+01    0.23282E+01   -0.60648E+02   120   0.235E+02    0.125E+01
DAV:   2    -0.725518048161E+01   -0.22894E+01   -0.23250E+01   144   0.572E+01    0.134E+00
DAV:   3    -0.735339734378E+01   -0.98217E-01   -0.81443E-01   160   0.714E+00    0.854E-01
DAV:   4    -0.735512781611E+01   -0.17305E-02   -0.12103E-02   176   0.656E-01    0.801E-01
DAV:   5    -0.734774669356E+01    0.73811E-02   -0.17583E-02   208   0.225E+00    0.563E-01
DAV:   6    -0.734675089135E+01    0.99580E-03   -0.26499E-03   128   0.545E-01    0.494E-01
DAV:   7    -0.734539525294E+01    0.13556E-02   -0.10568E-02   208   0.212E+00    0.270E-01
DAV:   8    -0.734619352120E+01   -0.79827E-03   -0.65877E-03   160   0.104E+00    0.166E-01
DAV:   9    -0.734630295611E+01   -0.10943E-03   -0.65669E-04   192   0.306E-01    0.149E-01
DAV:  10    -0.734645234071E+01   -0.14938E-03   -0.27551E-03   192   0.606E-01    0.133E-01
DAV:  11    -0.734658244063E+01   -0.13010E-03   -0.20580E-04   176   0.259E-01    0.111E-01
DAV:  12    -0.734659093121E+01   -0.84906E-05   -0.10612E-03   192   0.452E-01    0.636E-02
DAV:  13    -0.734653205420E+01    0.58877E-04   -0.43656E-04   160   0.456E-01    0.311E-02
DAV:  14    -0.734653090101E+01    0.11532E-05   -0.43446E-05   128   0.715E-02    0.300E-02
DAV:  15    -0.734653056598E+01    0.33503E-06   -0.53529E-05   112   0.422E-02    0.148E-02
DAV:  16    -0.734653072382E+01   -0.15784E-06   -0.14246E-05   176   0.421E-02    0.126E-02
DAV:  17    -0.734653051158E+01    0.21223E-06   -0.40367E-07    64   0.681E-03
  10 F= -.73465305E+01 E0= -.73465305E+01  d E =-.757952E-01  mag=     0.0000
       N       E                     dE             d eps       ncg     rms          rms(c)
DAV:   1     0.153002551249E+02    0.22647E+02   -0.27807E+03   120   0.650E+02    0.903E+01
DAV:   2    -0.656747905838E+01   -0.21868E+02   -0.22264E+02   128   0.188E+02    0.457E+00
DAV:   3    -0.733429717893E+01   -0.76682E+00   -0.71487E+00   144   0.234E+01    0.273E+00
DAV:   4    -0.737641503649E+01   -0.42118E-01   -0.36694E-01   192   0.468E+00    0.284E+00
DAV:   5    -0.736321763594E+01    0.13197E-01   -0.13861E-02   176   0.143E+00    0.252E+00
DAV:   6    -0.734129414576E+01    0.21923E-01   -0.51482E-02   192   0.317E+00    0.179E+00
DAV:   7    -0.733524646209E+01    0.60477E-02   -0.92879E-03   128   0.171E+00    0.146E+00
DAV:   8    -0.733187769437E+01    0.33688E-02   -0.74304E-02   128   0.217E+00    0.451E-01
DAV:   9    -0.733268161232E+01   -0.80392E-03   -0.49714E-03   160   0.694E-01    0.397E-01
DAV:  10    -0.733099148841E+01    0.16901E-02   -0.13554E-02   168   0.151E+00    0.421E-01
DAV:  11    -0.733140283418E+01   -0.41135E-03   -0.81824E-04   160   0.304E-01    0.428E-01
DAV:  12    -0.733121927409E+01    0.18356E-03   -0.11078E-03   176   0.420E-01    0.307E-01
DAV:  13    -0.733194623848E+01   -0.72696E-03   -0.15832E-03   128   0.328E-01    0.516E-02
DAV:  14    -0.733191846334E+01    0.27775E-04   -0.31872E-04   192   0.302E-01    0.589E-02
DAV:  15    -0.733192058622E+01   -0.21229E-05   -0.22347E-04   168   0.191E-01    0.792E-02
DAV:  16    -0.733189560889E+01    0.24977E-04   -0.24847E-04   144   0.278E-01    0.190E-02
DAV:  17    -0.733189761935E+01   -0.20105E-05   -0.13094E-05   144   0.485E-02    0.195E-02
DAV:  18    -0.733189736066E+01    0.25869E-06   -0.14058E-06    72   0.217E-02
  11 F= -.73318974E+01 E0= -.73318974E+01  d E =-.611621E-01  mag=    -0.0000
       N       E                     dE             d eps       ncg     rms          rms(c)
DAV:   1    -0.216742035092E+01    0.51645E+01   -0.95649E+02   120   0.316E+02    0.239E+01
DAV:   2    -0.716055863265E+01   -0.49931E+01   -0.50635E+01   144   0.898E+01    0.214E+00
DAV:   3    -0.737385240660E+01   -0.21329E+00   -0.19540E+00   144   0.119E+01    0.123E+00
DAV:   4    -0.737580068226E+01   -0.19483E-02   -0.40724E-02   192   0.141E+00    0.109E+00
DAV:   5    -0.736814566047E+01    0.76550E-02   -0.18327E-02   208   0.212E+00    0.827E-01
DAV:   6    -0.736604295773E+01    0.21027E-02   -0.54805E-03   208   0.953E-01    0.706E-01
DAV:   7    -0.736222794864E+01    0.38150E-02   -0.30109E-02   176   0.268E+00    0.332E-01
DAV:   8    -0.736356796674E+01   -0.13400E-02   -0.77989E-03   160   0.123E+00    0.329E-01
DAV:   9    -0.736398242218E+01   -0.41446E-03   -0.14169E-03   224   0.441E-01    0.312E-01
DAV:  10    -0.736345515143E+01    0.52727E-03   -0.14239E-02   184   0.163E+00    0.200E-01
DAV:  11    -0.736335903191E+01    0.96120E-04   -0.19010E-03   176   0.106E+00    0.140E-01
DAV:  12    -0.736334954329E+01    0.94886E-05   -0.73449E-04   192   0.312E-01    0.105E-01
DAV:  13    -0.736345447070E+01   -0.10493E-03   -0.72546E-04   112   0.252E-01    0.263E-02
DAV:  14    -0.736345754866E+01   -0.30780E-05   -0.11307E-04   208   0.195E-01    0.280E-02
DAV:  15    -0.736345423593E+01    0.33127E-05   -0.19786E-05   120   0.370E-02    0.306E-02
DAV:  16    -0.736345220869E+01    0.20272E-05   -0.37244E-05   144   0.576E-02    0.141E-02
DAV:  17    -0.736345317292E+01   -0.96423E-06   -0.31513E-06   128   0.224E-02
  12 F= -.73634532E+01 E0= -.73634532E+01  d E =-.927179E-01  mag=    -0.0000
       N       E                     dE             d eps       ncg     rms          rms(c)
DAV:   1    -0.734942903436E+01    0.14023E-01   -0.10844E+01   120   0.273E+01    0.242E-01
DAV:   2    -0.736385930778E+01   -0.14430E-01   -0.14789E-01   176   0.329E+00    0.104E-01
DAV:   3    -0.736393867915E+01   -0.79371E-04   -0.81462E-04   144   0.241E-01    0.985E-02
DAV:   4    -0.736390526869E+01    0.33410E-04   -0.32536E-05   192   0.560E-02    0.950E-02
DAV:   5    -0.736383351814E+01    0.71751E-04   -0.19994E-04   224   0.256E-01    0.796E-02
DAV:   6    -0.736382377877E+01    0.97394E-05   -0.63818E-05   160   0.745E-02    0.694E-02
DAV:   7    -0.736388624247E+01   -0.62464E-04   -0.49546E-04   152   0.284E-01    0.280E-02
DAV:   8    -0.736388423001E+01    0.20125E-05   -0.29422E-05   160   0.124E-01    0.226E-02
DAV:   9    -0.736389039057E+01   -0.61606E-05   -0.22062E-05   200   0.903E-02    0.212E-02
DAV:  10    -0.736390047621E+01   -0.10086E-04   -0.36770E-05   160   0.610E-02    0.133E-02
DAV:  11    -0.736390185374E+01   -0.13775E-05   -0.22822E-06    96   0.151E-02    0.113E-02
DAV:  12    -0.736390251756E+01   -0.66382E-06   -0.83948E-06   136   0.355E-02
  13 F= -.73639025E+01 E0= -.73639025E+01  d E =-.931672E-01  mag=     0.0000
       N       E                     dE             d eps       ncg     rms          rms(c)
DAV:   1    -0.726645969710E+01    0.97442E-01   -0.53735E+01   120   0.617E+01    0.848E-01
DAV:   2    -0.736515111187E+01   -0.98691E-01   -0.10073E+00   176   0.887E+00    0.227E-01
DAV:   3    -0.736660151144E+01   -0.14504E-02   -0.71900E-03   128   0.735E-01    0.229E-01
DAV:   4    -0.736670460704E+01   -0.10310E-03   -0.51204E-04   224   0.165E-01    0.237E-01
DAV:   5    -0.736630030509E+01    0.40430E-03   -0.50819E-04   208   0.376E-01    0.196E-01
DAV:   6    -0.736610506381E+01    0.19524E-03   -0.25237E-03   176   0.737E-01    0.143E-01
DAV:   7    -0.736620114368E+01   -0.96080E-04   -0.10677E-03   192   0.670E-01    0.592E-02
DAV:   8    -0.736631827255E+01   -0.11713E-03   -0.16226E-04   120   0.993E-02    0.524E-02
DAV:   9    -0.736629606879E+01    0.22204E-04   -0.28349E-05   176   0.116E-01    0.502E-02
DAV:  10    -0.736633595491E+01   -0.39886E-04   -0.12406E-04   128   0.133E-01    0.199E-02
DAV:  11    -0.736634424600E+01   -0.82911E-05   -0.13620E-05   192   0.398E-02    0.195E-02
DAV:  12    -0.736634432029E+01   -0.74296E-07   -0.19521E-06    64   0.172E-02
  14 F= -.73663443E+01 E0= -.73663443E+01  d E =-.244180E-02  mag=     0.0000
       N       E                     dE             d eps       ncg     rms          rms(c)
DAV:   1    -0.736510460195E+01    0.12396E-02   -0.19486E+00   120   0.115E+01    0.761E-02
DAV:   2    -0.736647490362E+01   -0.13703E-02   -0.14191E-02   176   0.115E+00    0.472E-02
DAV:   3    -0.736645912808E+01    0.15776E-04   -0.78454E-05   160   0.632E-02    0.458E-02
DAV:   4    -0.736644444685E+01    0.14681E-04   -0.78457E-06   144   0.412E-02    0.414E-02
DAV:   5    -0.736643289385E+01    0.11553E-04   -0.62227E-05   192   0.109E-01    0.321E-02
DAV:   6    -0.736643384725E+01   -0.95340E-06   -0.20295E-05   176   0.105E-01    0.220E-02
DAV:   7    -0.736644733489E+01   -0.13488E-04   -0.55744E-05   112   0.502E-02    0.130E-02
DAV:   8    -0.736644762238E+01   -0.28749E-06   -0.28121E-06   112   0.260E-02
  15 F= -.73664476E+01 E0= -.73664476E+01  d E =-.254510E-02  mag=    -0.0000
       N       E                     dE             d eps       ncg     rms          rms(c)
DAV:   1    -0.728470384522E+01    0.81743E-01   -0.39688E+01   120   0.530E+01    0.812E-01
DAV:   2    -0.736814882244E+01   -0.83445E-01   -0.85063E-01   176   0.831E+00    0.220E-01
DAV:   3    -0.736904838451E+01   -0.89956E-03   -0.53026E-03   128   0.645E-01    0.202E-01
DAV:   4    -0.736906545967E+01   -0.17075E-04   -0.28435E-04   176   0.124E-01    0.206E-01
DAV:   5    -0.736886137684E+01    0.20408E-03   -0.15546E-04   208   0.204E-01    0.182E-01
DAV:   6    -0.736861032000E+01    0.25106E-03   -0.24698E-03   176   0.765E-01    0.132E-01
DAV:   7    -0.736867884631E+01   -0.68526E-04   -0.87439E-04   160   0.567E-01    0.744E-02
DAV:   8    -0.736878948602E+01   -0.11064E-03   -0.25664E-04   168   0.155E-01    0.695E-02
DAV:   9    -0.736878688101E+01    0.26050E-05   -0.47570E-05   176   0.177E-01    0.549E-02
DAV:  10    -0.736885942924E+01   -0.72548E-04   -0.29834E-04   176   0.263E-01    0.334E-02
DAV:  11    -0.736885778802E+01    0.16412E-05   -0.16673E-05   128   0.676E-02    0.319E-02
DAV:  12    -0.736885833661E+01   -0.54859E-06   -0.44467E-07    80   0.986E-03
  16 F= -.73688583E+01 E0= -.73688583E+01  d E =-.241071E-02  mag=     0.0000
       N       E                     dE             d eps       ncg     rms          rms(c)
DAV:   1    -0.736873188699E+01    0.12590E-03   -0.17214E-01   120   0.343E+00    0.442E-02
DAV:   2    -0.736886926092E+01   -0.13737E-03   -0.13632E-03   176   0.373E-01    0.366E-02
DAV:   3    -0.736886272799E+01    0.65329E-05   -0.19502E-05   176   0.825E-02    0.267E-02
DAV:   4    -0.736885192874E+01    0.10799E-04   -0.59276E-05   224   0.174E-01    0.136E-02
DAV:   5    -0.736885167323E+01    0.25551E-06   -0.60065E-06   128   0.383E-02    0.120E-02
DAV:   6    -0.736884788242E+01    0.37908E-05   -0.78567E-06   144   0.327E-02    0.744E-03
DAV:   7    -0.736884641575E+01    0.14667E-05   -0.47253E-06   112   0.443E-02    0.570E-03
DAV:   8    -0.736884656830E+01   -0.15256E-06   -0.64427E-07    56   0.105E-02
  17 F= -.73688466E+01 E0= -.73688466E+01  d E =-.239895E-02  mag=    -0.0000
