CuRh                                    
   1.00000000000000     
    17.0000000000000000    0.0000000000000000    0.0000000000000000
     0.0000000000000000   17.0000000000000000    0.0000000000000000
     0.0000000000000000    0.0000000000000000   17.0000000000000000
   Cu
     4
Direct
  0.9821365599399091  0.0578335296042129  0.0276387576944055
  0.0178391473656399  0.9419208436441103  0.9728221874817581
  0.1179848997190613  0.0280667909989774  0.0175626648475890
  0.8820393929753896  0.9721782475174040  0.9819763899762475
 
  0.00000000E+00  0.00000000E+00  0.00000000E+00
  0.00000000E+00  0.00000000E+00  0.00000000E+00
  0.00000000E+00  0.00000000E+00  0.00000000E+00
  0.00000000E+00  0.00000000E+00  0.00000000E+00
