PROCAR new format
# of k-points:    1         # of bands:  28         # of ions:   4

 k-point    1 :    0.00000000 0.00000000 0.00000000     weight = 1.00000000

band   1 # energy   -7.97244322 # occ.  1.00000000
 
ion      s      p      d      f    tot
  1  0.144  0.019  0.065  0.000  0.228
  2  0.144  0.019  0.065  0.000  0.228
  3  0.058  0.011  0.037  0.000  0.106
  4  0.058  0.011  0.037  0.000  0.106
tot  0.404  0.060  0.204  0.000  0.668
 
band   2 # energy   -6.99836817 # occ.  1.00000000
 
ion      s      p      d      f    tot
  1  0.000  0.011  0.318  0.000  0.329
  2  0.000  0.011  0.318  0.000  0.329
  3  0.030  0.006  0.084  0.000  0.120
  4  0.030  0.006  0.084  0.000  0.120
tot  0.059  0.035  0.804  0.001  0.898
 
band   3 # energy   -6.50824964 # occ.  1.00000000
 
ion      s      p      d      f    tot
  1  0.001  0.002  0.398  0.000  0.401
  2  0.001  0.002  0.393  0.000  0.396
  3  0.020  0.001  0.027  0.000  0.048
  4  0.020  0.001  0.027  0.000  0.048
tot  0.043  0.005  0.845  0.000  0.893
 
band   4 # energy   -6.45760822 # occ.  1.00000000
 
ion      s      p      d      f    tot
  1  0.023  0.000  0.202  0.000  0.225
  2  0.023  0.000  0.208  0.000  0.231
  3  0.000  0.005  0.215  0.000  0.220
  4  0.000  0.005  0.215  0.000  0.221
tot  0.046  0.011  0.840  0.000  0.897
 
band   5 # energy   -6.33215561 # occ.  1.00000000
 
ion      s      p      d      f    tot
  1  0.000  0.004  0.381  0.000  0.385
  2  0.000  0.004  0.381  0.000  0.385
  3  0.000  0.001  0.064  0.000  0.065
  4  0.000  0.001  0.064  0.000  0.065
tot  0.000  0.009  0.890  0.000  0.899
 
band   6 # energy   -6.07133479 # occ.  1.00000000
 
ion      s      p      d      f    tot
  1  0.000  0.000  0.323  0.000  0.323
  2  0.000  0.000  0.322  0.000  0.322
  3  0.000  0.002  0.129  0.000  0.131
  4  0.000  0.002  0.129  0.000  0.131
tot  0.000  0.004  0.903  0.000  0.907
 
band   7 # energy   -5.75920067 # occ.  1.00000000
 
ion      s      p      d      f    tot
  1  0.000  0.003  0.173  0.000  0.176
  2  0.000  0.003  0.173  0.000  0.176
  3  0.000  0.000  0.301  0.000  0.301
  4  0.000  0.000  0.301  0.000  0.301
tot  0.000  0.006  0.947  0.001  0.954
 
band   8 # energy   -5.73639887 # occ.  1.00000000
 
ion      s      p      d      f    tot
  1  0.018  0.000  0.345  0.000  0.362
  2  0.018  0.000  0.345  0.000  0.362
  3  0.004  0.000  0.056  0.000  0.059
  4  0.004  0.000  0.056  0.000  0.060
tot  0.042  0.000  0.801  0.000  0.844
 
band   9 # energy   -5.73447846 # occ.  1.00000000
 
ion      s      p      d      f    tot
  1  0.000  0.000  0.319  0.000  0.319
  2  0.000  0.000  0.320  0.000  0.320
  3  0.000  0.000  0.143  0.000  0.143
  4  0.000  0.000  0.143  0.000  0.143
tot  0.000  0.000  0.925  0.000  0.926
 
band  10 # energy   -5.33208879 # occ.  1.00000000
 
ion      s      p      d      f    tot
  1  0.008  0.001  0.450  0.000  0.459
  2  0.008  0.001  0.455  0.000  0.463
  3  0.000  0.000  0.006  0.000  0.006
  4  0.000  0.000  0.006  0.000  0.006
tot  0.016  0.001  0.916  0.000  0.934
 
band  11 # energy   -5.33088405 # occ.  1.00000000
 
ion      s      p      d      f    tot
  1  0.002  0.002  0.040  0.000  0.044
  2  0.002  0.001  0.036  0.000  0.040
  3  0.002  0.000  0.411  0.000  0.413
  4  0.002  0.000  0.418  0.000  0.421
tot  0.008  0.003  0.906  0.000  0.917
 
band  12 # energy   -5.29809355 # occ.  1.00000000
 
ion      s      p      d      f    tot
  1  0.000  0.007  0.001  0.000  0.008
  2  0.000  0.007  0.001  0.000  0.008
  3  0.022  0.000  0.408  0.000  0.430
  4  0.021  0.000  0.401  0.000  0.423
tot  0.043  0.015  0.811  0.000  0.869
 
band  13 # energy   -5.27604633 # occ.  1.00000000
 
ion      s      p      d      f    tot
  1  0.000  0.001  0.439  0.000  0.440
  2  0.000  0.001  0.439  0.000  0.440
  3  0.000  0.000  0.038  0.000  0.038
  4  0.000  0.000  0.038  0.000  0.038
tot  0.000  0.001  0.954  0.000  0.956
 
band  14 # energy   -5.21844475 # occ.  1.00000000
 
ion      s      p      d      f    tot
  1  0.000  0.002  0.036  0.000  0.037
  2  0.000  0.002  0.035  0.000  0.037
  3  0.000  0.000  0.427  0.000  0.427
  4  0.000  0.000  0.427  0.000  0.427
tot  0.000  0.003  0.925  0.000  0.928
 
band  15 # energy   -5.19512966 # occ.  1.00000000
 
ion      s      p      d      f    tot
  1  0.000  0.002  0.076  0.000  0.078
  2  0.000  0.002  0.076  0.000  0.078
  3  0.000  0.000  0.392  0.000  0.392
  4  0.000  0.000  0.392  0.000  0.392
tot  0.000  0.004  0.936  0.000  0.940
 
band  16 # energy   -5.14032564 # occ.  1.00000000
 
ion      s      p      d      f    tot
  1  0.000  0.007  0.303  0.000  0.310
  2  0.000  0.007  0.303  0.000  0.311
  3  0.000  0.000  0.156  0.000  0.156
  4  0.000  0.000  0.156  0.000  0.156
tot  0.000  0.015  0.918  0.000  0.933
 
band  17 # energy   -5.05493987 # occ.  1.00000000
 
ion      s      p      d      f    tot
  1  0.000  0.000  0.033  0.000  0.033
  2  0.000  0.000  0.033  0.000  0.033
  3  0.020  0.001  0.388  0.000  0.408
  4  0.020  0.001  0.391  0.000  0.412
tot  0.040  0.003  0.844  0.000  0.887
 
band  18 # energy   -5.01063957 # occ.  1.00000000
 
ion      s      p      d      f    tot
  1  0.001  0.000  0.076  0.000  0.077
  2  0.001  0.000  0.076  0.000  0.077
  3  0.006  0.000  0.387  0.000  0.393
  4  0.005  0.000  0.383  0.000  0.389
tot  0.012  0.000  0.923  0.000  0.936
 
band  19 # energy   -4.95213452 # occ.  1.00000000
 
ion      s      p      d      f    tot
  1  0.000  0.000  0.102  0.000  0.102
  2  0.000  0.000  0.167  0.000  0.167
  3  0.000  0.001  0.341  0.000  0.342
  4  0.000  0.001  0.341  0.000  0.342
tot  0.000  0.002  0.951  0.000  0.953
 
band  20 # energy   -4.95138996 # occ.  1.00000000
 
ion      s      p      d      f    tot
  1  0.000  0.000  0.183  0.000  0.183
  2  0.000  0.000  0.119  0.000  0.119
  3  0.000  0.000  0.330  0.000  0.330
  4  0.000  0.000  0.329  0.000  0.329
tot  0.000  0.000  0.961  0.000  0.961
 
band  21 # energy   -4.77290694 # occ.  1.00000000
 
ion      s      p      d      f    tot
  1  0.003  0.002  0.262  0.000  0.267
  2  0.003  0.002  0.262  0.000  0.266
  3  0.000  0.002  0.204  0.000  0.206
  4  0.000  0.002  0.204  0.000  0.206
tot  0.005  0.008  0.932  0.001  0.945
 
band  22 # energy   -4.48074549 # occ.  1.00000000
 
ion      s      p      d      f    tot
  1  0.000  0.023  0.104  0.000  0.127
  2  0.000  0.023  0.104  0.000  0.127
  3  0.101  0.001  0.060  0.000  0.162
  4  0.101  0.001  0.060  0.000  0.162
tot  0.202  0.047  0.329  0.000  0.578
 
band  23 # energy   -3.52901571 # occ.  0.00000000
 
ion      s      p      d      f    tot
  1  0.101  0.020  0.014  0.000  0.135
  2  0.101  0.020  0.014  0.000  0.135
  3  0.000  0.017  0.043  0.000  0.060
  4  0.000  0.017  0.043  0.000  0.060
tot  0.202  0.074  0.115  0.000  0.391
 
band  24 # energy   -2.28991887 # occ.  0.00000000
 
ion      s      p      d      f    tot
  1  0.039  0.001  0.017  0.000  0.057
  2  0.039  0.001  0.017  0.000  0.057
  3  0.064  0.040  0.005  0.000  0.110
  4  0.064  0.040  0.005  0.000  0.110
tot  0.207  0.082  0.044  0.000  0.333
 
band  25 # energy   -1.90484051 # occ.  0.00000000
 
ion      s      p      d      f    tot
  1  0.000  0.047  0.007  0.000  0.054
  2  0.000  0.047  0.007  0.000  0.054
  3  0.000  0.030  0.011  0.000  0.041
  4  0.000  0.030  0.011  0.000  0.041
tot  0.000  0.155  0.034  0.000  0.189
 
band  26 # energy   -1.02290137 # occ.  0.00000000
 
ion      s      p      d      f    tot
  1  0.000  0.033  0.008  0.000  0.041
  2  0.000  0.033  0.008  0.000  0.041
  3  0.000  0.059  0.003  0.000  0.063
  4  0.000  0.059  0.003  0.000  0.063
tot  0.000  0.185  0.023  0.000  0.208
 
band  27 # energy   -0.88648643 # occ.  0.00000000
 
ion      s      p      d      f    tot
  1  0.000  0.073  0.001  0.000  0.075
  2  0.000  0.073  0.001  0.000  0.075
  3  0.014  0.005  0.011  0.000  0.030
  4  0.014  0.005  0.011  0.000  0.030
tot  0.029  0.156  0.025  0.000  0.210
 
band  28 # energy   -0.37915174 # occ.  0.00000000
 
ion      s      p      d      f    tot
  1  0.000  0.042  0.009  0.000  0.051
  2  0.000  0.042  0.009  0.000  0.051
  3  0.001  0.052  0.002  0.000  0.055
  4  0.001  0.052  0.002  0.000  0.055
tot  0.002  0.188  0.021  0.000  0.211
 
# of k-points:    1         # of bands:  28         # of ions:   4

 k-point    1 :    0.00000000 0.00000000 0.00000000     weight = 1.00000000

band   1 # energy   -7.97244322 # occ.  1.00000000
 
ion      s      p      d      f    tot
  1  0.144  0.019  0.065  0.000  0.228
  2  0.144  0.019  0.065  0.000  0.228
  3  0.058  0.011  0.037  0.000  0.106
  4  0.058  0.011  0.037  0.000  0.106
tot  0.404  0.060  0.204  0.000  0.668
 
band   2 # energy   -6.99836817 # occ.  1.00000000
 
ion      s      p      d      f    tot
  1  0.000  0.011  0.318  0.000  0.329
  2  0.000  0.011  0.318  0.000  0.329
  3  0.030  0.006  0.084  0.000  0.120
  4  0.030  0.006  0.084  0.000  0.120
tot  0.059  0.035  0.804  0.001  0.898
 
band   3 # energy   -6.50824963 # occ.  1.00000000
 
ion      s      p      d      f    tot
  1  0.001  0.002  0.398  0.000  0.401
  2  0.001  0.002  0.393  0.000  0.396
  3  0.020  0.001  0.027  0.000  0.048
  4  0.020  0.001  0.027  0.000  0.048
tot  0.043  0.005  0.845  0.000  0.893
 
band   4 # energy   -6.45760822 # occ.  1.00000000
 
ion      s      p      d      f    tot
  1  0.023  0.000  0.202  0.000  0.225
  2  0.023  0.000  0.208  0.000  0.231
  3  0.000  0.005  0.215  0.000  0.220
  4  0.000  0.005  0.215  0.000  0.221
tot  0.046  0.011  0.840  0.000  0.897
 
band   5 # energy   -6.33215561 # occ.  1.00000000
 
ion      s      p      d      f    tot
  1  0.000  0.004  0.381  0.000  0.385
  2  0.000  0.004  0.381  0.000  0.385
  3  0.000  0.001  0.064  0.000  0.065
  4  0.000  0.001  0.064  0.000  0.065
tot  0.000  0.009  0.890  0.000  0.899
 
band   6 # energy   -6.07133479 # occ.  1.00000000
 
ion      s      p      d      f    tot
  1  0.000  0.000  0.323  0.000  0.323
  2  0.000  0.000  0.322  0.000  0.322
  3  0.000  0.002  0.129  0.000  0.131
  4  0.000  0.002  0.129  0.000  0.131
tot  0.000  0.004  0.903  0.000  0.907
 
band   7 # energy   -5.75920067 # occ.  1.00000000
 
ion      s      p      d      f    tot
  1  0.000  0.003  0.173  0.000  0.176
  2  0.000  0.003  0.173  0.000  0.176
  3  0.000  0.000  0.301  0.000  0.301
  4  0.000  0.000  0.301  0.000  0.301
tot  0.000  0.006  0.947  0.001  0.954
 
band   8 # energy   -5.73639887 # occ.  1.00000000
 
ion      s      p      d      f    tot
  1  0.018  0.000  0.345  0.000  0.362
  2  0.018  0.000  0.345  0.000  0.362
  3  0.004  0.000  0.056  0.000  0.059
  4  0.004  0.000  0.056  0.000  0.060
tot  0.042  0.000  0.801  0.000  0.844
 
band   9 # energy   -5.73447846 # occ.  1.00000000
 
ion      s      p      d      f    tot
  1  0.000  0.000  0.319  0.000  0.319
  2  0.000  0.000  0.320  0.000  0.320
  3  0.000  0.000  0.143  0.000  0.143
  4  0.000  0.000  0.143  0.000  0.143
tot  0.000  0.000  0.925  0.000  0.926
 
band  10 # energy   -5.33208879 # occ.  1.00000000
 
ion      s      p      d      f    tot
  1  0.008  0.001  0.450  0.000  0.459
  2  0.008  0.001  0.455  0.000  0.463
  3  0.000  0.000  0.006  0.000  0.006
  4  0.000  0.000  0.006  0.000  0.006
tot  0.016  0.001  0.916  0.000  0.934
 
band  11 # energy   -5.33088406 # occ.  1.00000000
 
ion      s      p      d      f    tot
  1  0.002  0.002  0.040  0.000  0.044
  2  0.002  0.001  0.036  0.000  0.040
  3  0.002  0.000  0.411  0.000  0.413
  4  0.002  0.000  0.418  0.000  0.421
tot  0.008  0.003  0.906  0.000  0.917
 
band  12 # energy   -5.29809356 # occ.  1.00000000
 
ion      s      p      d      f    tot
  1  0.000  0.007  0.001  0.000  0.008
  2  0.000  0.007  0.001  0.000  0.008
  3  0.022  0.000  0.408  0.000  0.430
  4  0.021  0.000  0.401  0.000  0.423
tot  0.043  0.015  0.811  0.000  0.869
 
band  13 # energy   -5.27604633 # occ.  1.00000000
 
ion      s      p      d      f    tot
  1  0.000  0.001  0.439  0.000  0.440
  2  0.000  0.001  0.439  0.000  0.440
  3  0.000  0.000  0.038  0.000  0.038
  4  0.000  0.000  0.038  0.000  0.038
tot  0.000  0.001  0.954  0.000  0.956
 
band  14 # energy   -5.21844475 # occ.  1.00000000
 
ion      s      p      d      f    tot
  1  0.000  0.002  0.036  0.000  0.037
  2  0.000  0.002  0.035  0.000  0.037
  3  0.000  0.000  0.427  0.000  0.427
  4  0.000  0.000  0.427  0.000  0.427
tot  0.000  0.003  0.925  0.000  0.928
 
band  15 # energy   -5.19512966 # occ.  1.00000000
 
ion      s      p      d      f    tot
  1  0.000  0.002  0.076  0.000  0.078
  2  0.000  0.002  0.076  0.000  0.078
  3  0.000  0.000  0.392  0.000  0.392
  4  0.000  0.000  0.392  0.000  0.392
tot  0.000  0.004  0.936  0.000  0.940
 
band  16 # energy   -5.14032564 # occ.  1.00000000
 
ion      s      p      d      f    tot
  1  0.000  0.007  0.303  0.000  0.310
  2  0.000  0.007  0.303  0.000  0.311
  3  0.000  0.000  0.156  0.000  0.156
  4  0.000  0.000  0.156  0.000  0.156
tot  0.000  0.015  0.918  0.000  0.933
 
band  17 # energy   -5.05493988 # occ.  1.00000000
 
ion      s      p      d      f    tot
  1  0.000  0.000  0.033  0.000  0.033
  2  0.000  0.000  0.033  0.000  0.033
  3  0.020  0.001  0.388  0.000  0.408
  4  0.020  0.001  0.391  0.000  0.412
tot  0.040  0.003  0.844  0.000  0.887
 
band  18 # energy   -5.01063957 # occ.  1.00000000
 
ion      s      p      d      f    tot
  1  0.001  0.000  0.076  0.000  0.077
  2  0.001  0.000  0.076  0.000  0.077
  3  0.006  0.000  0.387  0.000  0.393
  4  0.005  0.000  0.383  0.000  0.389
tot  0.012  0.000  0.923  0.000  0.936
 
band  19 # energy   -4.95213452 # occ.  1.00000000
 
ion      s      p      d      f    tot
  1  0.000  0.000  0.102  0.000  0.102
  2  0.000  0.000  0.167  0.000  0.167
  3  0.000  0.001  0.341  0.000  0.342
  4  0.000  0.001  0.341  0.000  0.342
tot  0.000  0.002  0.951  0.000  0.953
 
band  20 # energy   -4.95138997 # occ.  1.00000000
 
ion      s      p      d      f    tot
  1  0.000  0.000  0.183  0.000  0.183
  2  0.000  0.000  0.119  0.000  0.119
  3  0.000  0.000  0.330  0.000  0.330
  4  0.000  0.000  0.329  0.000  0.329
tot  0.000  0.000  0.961  0.000  0.961
 
band  21 # energy   -4.77290693 # occ.  1.00000000
 
ion      s      p      d      f    tot
  1  0.003  0.002  0.262  0.000  0.267
  2  0.003  0.002  0.262  0.000  0.266
  3  0.000  0.002  0.204  0.000  0.206
  4  0.000  0.002  0.204  0.000  0.206
tot  0.005  0.008  0.932  0.001  0.945
 
band  22 # energy   -4.48074549 # occ.  1.00000000
 
ion      s      p      d      f    tot
  1  0.000  0.023  0.104  0.000  0.127
  2  0.000  0.023  0.104  0.000  0.127
  3  0.101  0.001  0.060  0.000  0.162
  4  0.101  0.001  0.060  0.000  0.162
tot  0.202  0.047  0.329  0.000  0.578
 
band  23 # energy   -3.52901570 # occ.  0.00000000
 
ion      s      p      d      f    tot
  1  0.101  0.020  0.014  0.000  0.135
  2  0.101  0.020  0.014  0.000  0.135
  3  0.000  0.017  0.043  0.000  0.060
  4  0.000  0.017  0.043  0.000  0.060
tot  0.202  0.074  0.115  0.000  0.391
 
band  24 # energy   -2.28991887 # occ.  0.00000000
 
ion      s      p      d      f    tot
  1  0.039  0.001  0.017  0.000  0.057
  2  0.039  0.001  0.017  0.000  0.057
  3  0.064  0.040  0.005  0.000  0.110
  4  0.064  0.040  0.005  0.000  0.110
tot  0.207  0.082  0.044  0.000  0.333
 
band  25 # energy   -1.90484043 # occ.  0.00000000
 
ion      s      p      d      f    tot
  1  0.000  0.047  0.007  0.000  0.054
  2  0.000  0.047  0.007  0.000  0.054
  3  0.000  0.030  0.011  0.000  0.041
  4  0.000  0.030  0.011  0.000  0.041
tot  0.000  0.155  0.034  0.000  0.189
 
band  26 # energy   -1.02290132 # occ.  0.00000000
 
ion      s      p      d      f    tot
  1  0.000  0.033  0.008  0.000  0.041
  2  0.000  0.033  0.008  0.000  0.041
  3  0.000  0.059  0.003  0.000  0.063
  4  0.000  0.059  0.003  0.000  0.063
tot  0.000  0.185  0.023  0.000  0.208
 
band  27 # energy   -0.88648632 # occ.  0.00000000
 
ion      s      p      d      f    tot
  1  0.000  0.073  0.001  0.000  0.075
  2  0.000  0.073  0.001  0.000  0.075
  3  0.014  0.005  0.011  0.000  0.030
  4  0.014  0.005  0.011  0.000  0.030
tot  0.029  0.156  0.025  0.000  0.210
 
band  28 # energy   -0.37915173 # occ.  0.00000000
 
ion      s      p      d      f    tot
  1  0.000  0.042  0.009  0.000  0.051
  2  0.000  0.042  0.009  0.000  0.051
  3  0.001  0.052  0.002  0.000  0.055
  4  0.001  0.052  0.002  0.000  0.055
tot  0.002  0.188  0.021  0.000  0.211
 
