CuRh                                    
           1
    17.000000    0.000000    0.000000
     0.000000   17.000000    0.000000
     0.000000    0.000000   17.000000
   Cu
   4
Direct configuration=     1
   0.97876294  0.05713412  0.05137412
   0.01977412  0.92364765  0.98842529
   0.12116176  0.03804529  0.99825882
   0.88030118  0.98117235  0.96194176
Direct configuration=     2
   0.98011500  0.05362621  0.04791259
   0.01853096  0.92858268  0.98894115
   0.11847299  0.03671346  0.99934009
   0.88288104  0.98107706  0.96380618
Direct configuration=     3
   0.98208980  0.04850259  0.04285672
   0.01671523  0.93579074  0.98969460
   0.11454581  0.03476820  0.00091937
   0.88664916  0.98093788  0.96652931
Direct configuration=     4
   0.98175151  0.04938029  0.04372281
   0.01702627  0.93455596  0.98956553
   0.11521855  0.03510143  0.00064883
   0.88600366  0.98096173  0.96606283
Direct configuration=     5
   0.98184914  0.04912699  0.04347286
   0.01693650  0.93491231  0.98960278
   0.11502440  0.03500526  0.00072691
   0.88618995  0.98095485  0.96619745
Direct configuration=     6
   0.98174163  0.05002553  0.04274197
   0.01711204  0.93492447  0.98845354
   0.11463258  0.03446405  0.00160636
   0.88651375  0.98058536  0.96719813
Direct configuration=     7
   0.98141910  0.05272116  0.04054928
   0.01763864  0.93496093  0.98500584
   0.11345711  0.03284042  0.00424472
   0.88748515  0.97947689  0.97020016
Direct configuration=     8
   0.98128206  0.05386652  0.03961762
   0.01786239  0.93497643  0.98354093
   0.11295766  0.03215054  0.00536574
   0.88789789  0.97900591  0.97147571
Direct configuration=     9
   0.98142425  0.05423702  0.03809486
   0.01782532  0.93594928  0.98228285
   0.11383556  0.03170349  0.00689618
   0.88691487  0.97810962  0.97272610
Direct configuration=    10
   0.98185081  0.05534852  0.03352658
   0.01771412  0.93886784  0.97850862
   0.11646926  0.03036232  0.01148752
   0.88396581  0.97542073  0.97647727
Direct configuration=    11
   0.98270393  0.05757152  0.02439003
   0.01749172  0.94470495  0.97096016
   0.12173666  0.02767998  0.02067020
   0.87806769  0.97004296  0.98397961
Direct configuration=    12
   0.98217346  0.05618926  0.03007114
   0.01763001  0.94107543  0.97565380
   0.11846139  0.02934786  0.01496041
   0.88173515  0.97338686  0.97931465
Direct configuration=    13
   0.98223164  0.05634086  0.02944806
   0.01761484  0.94147350  0.97513902
   0.11882061  0.02916493  0.01558664
   0.88133291  0.97302012  0.97982629
Direct configuration=    14
   0.98205326  0.05763230  0.02844995
   0.01785029  0.94141571  0.97350692
   0.11884481  0.02858379  0.01691745
   0.88125164  0.97236761  0.98112568
Direct configuration=    15
   0.98208711  0.05738720  0.02863938
   0.01780560  0.94142668  0.97381667
   0.11884022  0.02869408  0.01666488
   0.88126706  0.97249145  0.98087907
Direct configuration=    16
   0.98214002  0.05786478  0.02756869
   0.01784150  0.94195545  0.97275255
   0.11792500  0.02802286  0.01762553
   0.88209348  0.97215631  0.98205323
Direct configuration=    17
   0.98213656  0.05783353  0.02763876
   0.01783915  0.94192084  0.97282219
   0.11798490  0.02806679  0.01756266
   0.88203939  0.97217825  0.98197639
