    2    2  200    2
  0.2456500E+04  0.1700000E-08  0.1700000E-08  0.1700000E-08  0.5000000E-15
  1.000000000000000E-004
  CAR 
 CuRh                                    
     22      1     16
 
  0.0000000E+00  0.0000000E+00  0.0000000E+00  0.1000000E+01
    1       -6.450510     -6.450514
    2       -5.607286     -5.607338
    3       -5.607286     -5.607338
    4       -5.148216     -5.148194
    5       -5.063193     -5.063222
    6       -5.063049     -5.063084
    7       -4.831116     -4.831149
    8       -4.830967     -4.831005
    9       -4.659155     -4.659222
   10       -4.659155     -4.659222
   11       -4.633047     -4.633102
   12       -3.110946     -3.110928
   13       -1.117900     -1.117862
   14       -1.117900     -1.117862
   15       -0.580389     -0.580378
   16        0.064129      0.064145
