       N       E                     dE             d eps       ncg     rms          rms(c)
DAV:   1     0.128256686264E+03    0.12826E+03   -0.31794E+03    64   0.669E+02
DAV:   2     0.855489599812E+02   -0.42708E+02   -0.42002E+02   120   0.761E+01
DAV:   3     0.289780289650E+02   -0.56571E+02   -0.55410E+02   128   0.398E+01
DAV:   4     0.912890819585E+01   -0.19849E+02   -0.19694E+02    96   0.830E+01
DAV:   5     0.189054338179E+01   -0.72384E+01   -0.65326E+01   104   0.274E+01
DAV:   6    -0.251561180067E+01   -0.44062E+01   -0.44061E+01   104   0.177E+01
DAV:   7    -0.282901819753E+01   -0.31341E+00   -0.31335E+00    88   0.906E+00
DAV:   8    -0.284558489880E+01   -0.16567E-01   -0.16567E-01    96   0.113E+00    0.920E+00
DAV:   9    -0.285990563835E+01   -0.14321E-01   -0.10892E-02    72   0.111E+00    0.842E+00
DAV:  10    -0.285297390928E+01    0.69317E-02   -0.73190E-01    96   0.962E+00    0.242E+00
DAV:  11    -0.286433378351E+01   -0.11360E-01   -0.86980E-03    64   0.630E-01    0.251E+00
DAV:  12    -0.275416077195E+01    0.11017E+00   -0.40446E-01    64   0.424E+00    0.994E-01
DAV:  13    -0.275888714143E+01   -0.47264E-02   -0.35817E-02    96   0.135E+00    0.839E-01
DAV:  14    -0.275898495065E+01   -0.97809E-04   -0.22875E-03    80   0.440E-01    0.784E-01
DAV:  15    -0.275934036528E+01   -0.35541E-03   -0.13486E-02    96   0.118E+00    0.421E-01
DAV:  16    -0.275937046219E+01   -0.30097E-04   -0.17491E-04    64   0.813E-02    0.421E-01
DAV:  17    -0.275858121454E+01    0.78925E-03   -0.29353E-04    96   0.149E-01    0.443E-01
DAV:  18    -0.275011766472E+01    0.84635E-02   -0.14626E-02    80   0.120E+00    0.492E-01
DAV:  19    -0.274653852030E+01    0.35791E-02   -0.19264E-03    88   0.395E-01    0.561E-01
DAV:  20    -0.274695936040E+01   -0.42084E-03   -0.13728E-03    64   0.226E-01    0.654E-01
DAV:  21    -0.274591633637E+01    0.10430E-02   -0.20790E-04    88   0.103E-01    0.690E-01
DAV:  22    -0.274592446606E+01   -0.81297E-05   -0.79347E-06    72   0.270E-02    0.691E-01
DAV:  23    -0.270275282395E+01    0.43172E-01   -0.31347E-02    64   0.168E+00    0.152E+00
DAV:  24    -0.270058832487E+01    0.21645E-02   -0.16691E-03    88   0.279E-01    0.157E+00
DAV:  25    -0.269400602306E+01    0.65823E-02   -0.59106E-04    64   0.221E-01    0.168E+00
DAV:  26    -0.272549590716E+01   -0.31490E-01   -0.11806E-02    64   0.101E+00    0.112E+00
DAV:  27    -0.275718156313E+01   -0.31686E-01   -0.54937E-02    80   0.219E+00    0.154E-01
DAV:  28    -0.275196761078E+01    0.52140E-02   -0.71788E-03    72   0.689E-01    0.367E-01
DAV:  29    -0.275778853082E+01   -0.58209E-02   -0.24859E-03    64   0.437E-01    0.189E-01
DAV:  30    -0.275774817507E+01    0.40356E-04   -0.24051E-03    80   0.492E-01    0.130E-01
DAV:  31    -0.275706933616E+01    0.67884E-03   -0.35498E-04    80   0.174E-01    0.207E-01
DAV:  32    -0.275700593881E+01    0.63397E-04   -0.14053E-05    80   0.311E-02    0.217E-01
DAV:  33    -0.275791857846E+01   -0.91264E-03   -0.37368E-04    72   0.183E-01    0.130E-01
DAV:  34    -0.275805310288E+01   -0.13452E-03   -0.50207E-05    96   0.522E-02    0.120E-01
DAV:  35    -0.275802649432E+01    0.26609E-04   -0.10355E-06    48   0.105E-02    0.120E-01
DAV:  36    -0.275848763738E+01   -0.46114E-03   -0.44637E-04    72   0.200E-01    0.178E-02
DAV:  37    -0.275844450142E+01    0.43136E-04   -0.11961E-04    80   0.102E-01    0.273E-02
DAV:  38    -0.275843713461E+01    0.73668E-05   -0.70527E-06    88   0.206E-02    0.328E-02
DAV:  39    -0.275843521781E+01    0.19168E-05   -0.50803E-07    64   0.700E-03    0.358E-02
DAV:  40    -0.275844999957E+01   -0.14782E-04   -0.23849E-06    72   0.136E-02    0.318E-02
DAV:  41    -0.275844105866E+01    0.89409E-05   -0.81936E-07    56   0.934E-03    0.351E-02
DAV:  42    -0.275845596842E+01   -0.14910E-04   -0.25055E-06    64   0.176E-02    0.286E-02
DAV:  43    -0.275848461155E+01   -0.28643E-04   -0.11122E-05    64   0.340E-02    0.146E-02
DAV:  44    -0.275848998580E+01   -0.53743E-05   -0.19339E-06    80   0.127E-02    0.945E-03
DAV:  45    -0.275848960485E+01    0.38095E-06   -0.10148E-07    40   0.303E-03
   1 F= -.27584896E+01 E0= -.27584896E+01  d E =-.275849E+01  mag=     0.0000
       N       E                     dE             d eps       ncg     rms          rms(c)
DAV:   1    -0.275864366305E+01   -0.15368E-03   -0.31689E-01    64   0.565E+00    0.233E-02
DAV:   2    -0.275868772347E+01   -0.44060E-04   -0.46572E-04    80   0.196E-01    0.235E-02
DAV:   3    -0.275868701222E+01    0.71126E-06   -0.88603E-06    88   0.278E-02    0.239E-02
DAV:   4    -0.275868828914E+01   -0.12769E-05   -0.97123E-06    88   0.399E-02    0.302E-02
DAV:   5    -0.275868688059E+01    0.14086E-05   -0.37231E-05    96   0.791E-02    0.191E-02
DAV:   6    -0.275868893412E+01   -0.20535E-05   -0.49998E-06    88   0.231E-02    0.160E-02
DAV:   7    -0.275869320048E+01   -0.42664E-05   -0.47812E-06    80   0.229E-02    0.350E-03
DAV:   8    -0.275869371973E+01   -0.51925E-06   -0.35502E-07    56   0.745E-03
   2 F= -.27586937E+01 E0= -.27586937E+01  d E =-.204115E-03  mag=    -0.0000
       N       E                     dE             d eps       ncg     rms          rms(c)
DAV:   1    -0.275869742122E+01   -0.42207E-05   -0.11435E-02    64   0.107E+00    0.432E-03
DAV:   2    -0.275869898270E+01   -0.15615E-05   -0.18404E-05    72   0.426E-02    0.480E-03
DAV:   3    -0.275869889166E+01    0.91036E-07   -0.56522E-07    40   0.741E-03    0.482E-03
DAV:   4    -0.275869889495E+01   -0.32901E-08   -0.90677E-08    32   0.351E-03    0.494E-03
DAV:   5    -0.275869889123E+01    0.37244E-08   -0.34642E-08    32   0.194E-03    0.492E-03
DAV:   6    -0.275869900048E+01   -0.10925E-06   -0.33449E-07    32   0.959E-03
   3 F= -.27586990E+01 E0= -.27586990E+01  d E =-.209396E-03  mag=    -0.0000
