PROCAR new format
# of k-points:    1         # of bands:  16         # of ions:   2

 k-point    1 :    0.00000000 0.00000000 0.00000000     weight = 1.00000000

band   1 # energy   -6.45051039 # occ.  1.00000000
 
ion      s      p      d      f    tot
  1  0.112  0.013  0.267  0.000  0.392
  2  0.112  0.013  0.267  0.000  0.392
tot  0.224  0.025  0.535  0.000  0.784
 
band   2 # energy   -5.60728632 # occ.  1.00000000
 
ion      s      p      d      f    tot
  1  0.000  0.002  0.458  0.000  0.460
  2  0.000  0.002  0.458  0.000  0.460
tot  0.000  0.003  0.917  0.000  0.920
 
band   3 # energy   -5.60728631 # occ.  1.00000000
 
ion      s      p      d      f    tot
  1  0.000  0.002  0.458  0.000  0.460
  2  0.000  0.002  0.458  0.000  0.460
tot  0.000  0.003  0.917  0.000  0.920
 
band   4 # energy   -5.14821574 # occ.  1.00000000
 
ion      s      p      d      f    tot
  1  0.097  0.001  0.205  0.000  0.303
  2  0.097  0.001  0.205  0.000  0.303
tot  0.194  0.001  0.410  0.000  0.605
 
band   5 # energy   -5.06319254 # occ.  1.00000000
 
ion      s      p      d      f    tot
  1  0.000  0.000  0.464  0.000  0.464
  2  0.000  0.000  0.464  0.000  0.464
tot  0.000  0.000  0.928  0.000  0.928
 
band   6 # energy   -5.06304945 # occ.  1.00000000
 
ion      s      p      d      f    tot
  1  0.000  0.000  0.464  0.000  0.464
  2  0.000  0.000  0.464  0.000  0.464
tot  0.000  0.000  0.928  0.000  0.928
 
band   7 # energy   -4.83111618 # occ.  1.00000000
 
ion      s      p      d      f    tot
  1  0.000  0.000  0.474  0.000  0.474
  2  0.000  0.000  0.474  0.000  0.474
tot  0.000  0.000  0.949  0.000  0.949
 
band   8 # energy   -4.83096694 # occ.  1.00000000
 
ion      s      p      d      f    tot
  1  0.000  0.000  0.474  0.000  0.474
  2  0.000  0.000  0.474  0.000  0.474
tot  0.000  0.000  0.949  0.000  0.949
 
band   9 # energy   -4.65915463 # occ.  1.00000000
 
ion      s      p      d      f    tot
  1  0.000  0.002  0.472  0.000  0.474
  2  0.000  0.002  0.472  0.000  0.474
tot  0.000  0.004  0.943  0.000  0.948
 
band  10 # energy   -4.65915462 # occ.  1.00000000
 
ion      s      p      d      f    tot
  1  0.000  0.002  0.472  0.000  0.474
  2  0.000  0.002  0.472  0.000  0.474
tot  0.000  0.004  0.943  0.000  0.948
 
band  11 # energy   -4.63304695 # occ.  1.00000000
 
ion      s      p      d      f    tot
  1  0.013  0.002  0.448  0.000  0.463
  2  0.013  0.002  0.448  0.000  0.463
tot  0.026  0.003  0.896  0.001  0.925
 
band  12 # energy   -3.11094611 # occ.  0.00000000
 
ion      s      p      d      f    tot
  1  0.123  0.027  0.014  0.000  0.163
  2  0.123  0.027  0.014  0.000  0.163
tot  0.245  0.053  0.028  0.000  0.326
 
band  13 # energy   -1.11789955 # occ.  0.00000000
 
ion      s      p      d      f    tot
  1  0.000  0.059  0.004  0.000  0.063
  2  0.000  0.059  0.004  0.000  0.063
tot  0.000  0.119  0.008  0.000  0.127
 
band  14 # energy   -1.11789955 # occ.  0.00000000
 
ion      s      p      d      f    tot
  1  0.000  0.059  0.004  0.000  0.063
  2  0.000  0.059  0.004  0.000  0.063
tot  0.000  0.119  0.008  0.000  0.127
 
band  15 # energy   -0.58038870 # occ.  0.00000000
 
ion      s      p      d      f    tot
  1  0.005  0.069  0.001  0.000  0.074
  2  0.005  0.069  0.001  0.000  0.074
tot  0.009  0.137  0.001  0.000  0.148
 
band  16 # energy    0.06412940 # occ.  0.00000000
 
ion      s      p      d      f    tot
  1  0.001  0.012  0.000  0.000  0.013
  2  0.001  0.012  0.000  0.000  0.013
tot  0.001  0.025  0.000  0.000  0.026
 
# of k-points:    1         # of bands:  16         # of ions:   2

 k-point    1 :    0.00000000 0.00000000 0.00000000     weight = 1.00000000

band   1 # energy   -6.45051417 # occ.  1.00000000
 
ion      s      p      d      f    tot
  1  0.112  0.013  0.267  0.000  0.392
  2  0.112  0.013  0.267  0.000  0.392
tot  0.224  0.025  0.535  0.000  0.784
 
band   2 # energy   -5.60733776 # occ.  1.00000000
 
ion      s      p      d      f    tot
  1  0.000  0.002  0.458  0.000  0.460
  2  0.000  0.002  0.458  0.000  0.460
tot  0.000  0.003  0.917  0.000  0.920
 
band   3 # energy   -5.60733775 # occ.  1.00000000
 
ion      s      p      d      f    tot
  1  0.000  0.002  0.458  0.000  0.460
  2  0.000  0.002  0.458  0.000  0.460
tot  0.000  0.003  0.917  0.000  0.920
 
band   4 # energy   -5.14819414 # occ.  1.00000000
 
ion      s      p      d      f    tot
  1  0.097  0.001  0.205  0.000  0.303
  2  0.097  0.001  0.205  0.000  0.303
tot  0.194  0.001  0.410  0.000  0.605
 
band   5 # energy   -5.06322177 # occ.  1.00000000
 
ion      s      p      d      f    tot
  1  0.000  0.000  0.464  0.000  0.464
  2  0.000  0.000  0.464  0.000  0.464
tot  0.000  0.000  0.928  0.000  0.928
 
band   6 # energy   -5.06308382 # occ.  1.00000000
 
ion      s      p      d      f    tot
  1  0.000  0.000  0.464  0.000  0.464
  2  0.000  0.000  0.464  0.000  0.464
tot  0.000  0.000  0.928  0.000  0.928
 
band   7 # energy   -4.83114933 # occ.  1.00000000
 
ion      s      p      d      f    tot
  1  0.000  0.000  0.474  0.000  0.474
  2  0.000  0.000  0.474  0.000  0.474
tot  0.000  0.000  0.949  0.000  0.949
 
band   8 # energy   -4.83100534 # occ.  1.00000000
 
ion      s      p      d      f    tot
  1  0.000  0.000  0.474  0.000  0.474
  2  0.000  0.000  0.474  0.000  0.474
tot  0.000  0.000  0.949  0.000  0.949
 
band   9 # energy   -4.65922230 # occ.  1.00000000
 
ion      s      p      d      f    tot
  1  0.000  0.002  0.472  0.000  0.474
  2  0.000  0.002  0.472  0.000  0.474
tot  0.000  0.004  0.943  0.000  0.948
 
band  10 # energy   -4.65922228 # occ.  1.00000000
 
ion      s      p      d      f    tot
  1  0.000  0.002  0.472  0.000  0.474
  2  0.000  0.002  0.472  0.000  0.474
tot  0.000  0.004  0.943  0.000  0.948
 
band  11 # energy   -4.63310156 # occ.  1.00000000
 
ion      s      p      d      f    tot
  1  0.013  0.002  0.448  0.000  0.463
  2  0.013  0.002  0.448  0.000  0.463
tot  0.026  0.003  0.896  0.001  0.925
 
band  12 # energy   -3.11092765 # occ.  0.00000000
 
ion      s      p      d      f    tot
  1  0.123  0.027  0.014  0.000  0.163
  2  0.123  0.027  0.014  0.000  0.163
tot  0.245  0.053  0.028  0.000  0.326
 
band  13 # energy   -1.11786179 # occ.  0.00000000
 
ion      s      p      d      f    tot
  1  0.000  0.059  0.004  0.000  0.063
  2  0.000  0.059  0.004  0.000  0.063
tot  0.000  0.119  0.008  0.000  0.127
 
band  14 # energy   -1.11786179 # occ.  0.00000000
 
ion      s      p      d      f    tot
  1  0.000  0.059  0.004  0.000  0.063
  2  0.000  0.059  0.004  0.000  0.063
tot  0.000  0.119  0.008  0.000  0.127
 
band  15 # energy   -0.58037774 # occ.  0.00000000
 
ion      s      p      d      f    tot
  1  0.005  0.069  0.001  0.000  0.074
  2  0.005  0.069  0.001  0.000  0.074
tot  0.009  0.137  0.001  0.000  0.148
 
band  16 # energy    0.06414547 # occ.  0.00000000
 
ion      s      p      d      f    tot
  1  0.001  0.012  0.000  0.000  0.013
  2  0.001  0.012  0.000  0.000  0.013
tot  0.001  0.025  0.000  0.000  0.026
 
