    4    4  200    2
  0.1228250E+04  0.1700000E-08  0.1700000E-08  0.1700000E-08  0.5000000E-15
  1.000000000000000E-004
  CAR 
 CuRu                                    
     64      1     40
 
  0.0000000E+00  0.0000000E+00  0.0000000E+00  0.1000000E+01
    1      -76.543859    -75.323402
    2      -76.378217    -75.152109
    3      -76.378060    -75.151950
    4      -76.218220    -74.986792
    5      -47.129017    -46.027686
    6      -47.015711    -45.872565
    7      -46.947025    -45.812293
    8      -46.946591    -45.811941
    9      -46.630070    -45.019292
   10      -46.497012    -44.910295
   11      -46.496931    -44.910239
   12      -46.400253    -44.825435
   13      -46.016320    -44.825361
   14      -46.016275    -44.778901
   15      -45.917443    -44.765120
   16      -45.915386    -44.726714
   17       -8.190653     -7.413155
   18       -7.473436     -6.786804
   19       -7.241061     -6.086785
   20       -6.745001     -6.008996
   21       -6.715410     -5.902804
   22       -6.715259     -5.902623
   23       -6.558202     -5.360568
   24       -6.557384     -5.359687
   25       -6.443416     -5.264016
   26       -5.731551     -4.558886
   27       -5.131129     -4.112531
   28       -5.130754     -4.111966
   29       -4.509841     -2.909567
   30       -4.509546     -2.909229
   31       -4.431177     -2.765823
   32       -4.214027     -2.658833
   33       -4.107083     -2.658644
   34       -4.106945     -2.505391
   35       -3.875413     -2.493383
   36       -3.468532     -2.426449
   37       -3.148730     -2.426293
   38       -3.148690     -2.206753
   39       -2.488782     -1.638782
   40       -1.956238     -1.404320
