       N       E                     dE             d eps       ncg     rms          rms(c)
DAV:   1     0.131375719508E+04    0.13138E+04   -0.18227E+04   192   0.932E+02
DAV:   2     0.434056093765E+03   -0.87970E+03   -0.85853E+03   304   0.226E+02
DAV:   3     0.391276688471E+02   -0.39493E+03   -0.39134E+03   256   0.187E+02
DAV:   4    -0.117580848798E+02   -0.50886E+02   -0.44380E+02   224   0.616E+01
DAV:   5    -0.211057423525E+02   -0.93477E+01   -0.79634E+01   200   0.181E+01
DAV:   6    -0.233400196902E+02   -0.22343E+01   -0.19052E+01   248   0.697E+00
DAV:   7    -0.235231584770E+02   -0.18314E+00   -0.17843E+00   208   0.178E+00
DAV:   8    -0.235329464855E+02   -0.97880E-02   -0.97360E-02   200   0.430E-01    0.123E+02
DAV:   9    -0.231239806573E+02    0.40897E+00   -0.84117E-02   216   0.156E+00    0.119E+02
DAV:  10    -0.194828767978E+02    0.36411E+01   -0.84387E+01   176   0.484E+01    0.271E+01
DAV:  11    -0.204571746611E+02   -0.97430E+00   -0.39338E+00   200   0.131E+01    0.202E+01
DAV:  12    -0.211688236880E+02   -0.71165E+00   -0.53303E-01   208   0.341E+00    0.205E+01
DAV:  13    -0.218236799942E+02   -0.65486E+00   -0.16769E+00   192   0.575E+00    0.150E+01
DAV:  14    -0.211808316430E+02    0.64285E+00   -0.34365E+00   216   0.890E+00    0.761E+00
DAV:  15    -0.210562104743E+02    0.12462E+00   -0.27262E-01   232   0.235E+00    0.662E+00
DAV:  16    -0.209471231482E+02    0.10909E+00   -0.46075E-01   184   0.365E+00    0.419E+00
DAV:  17    -0.208769671553E+02    0.70156E-01   -0.19102E-01   216   0.226E+00    0.369E+00
DAV:  18    -0.208401331962E+02    0.36834E-01   -0.72034E-02   208   0.127E+00    0.269E+00
DAV:  19    -0.207962120809E+02    0.43921E-01   -0.16285E-01   216   0.226E+00    0.207E+00
DAV:  20    -0.207943799624E+02    0.18321E-02   -0.24150E-02   208   0.838E-01    0.209E+00
DAV:  21    -0.207944216933E+02   -0.41731E-04   -0.46853E-03   216   0.410E-01    0.159E+00
DAV:  22    -0.207949562247E+02   -0.53453E-03   -0.12355E-02   200   0.629E-01    0.135E+00
DAV:  23    -0.207963206545E+02   -0.13644E-02   -0.28502E-03   208   0.338E-01    0.916E-01
DAV:  24    -0.207962540955E+02    0.66559E-04   -0.67959E-04   208   0.186E-01    0.830E-01
DAV:  25    -0.207952827945E+02    0.97130E-03   -0.71362E-03   240   0.497E-01    0.515E-01
DAV:  26    -0.207958448856E+02   -0.56209E-03   -0.62067E-03   256   0.410E-01    0.503E-01
DAV:  27    -0.207957748799E+02    0.70006E-04   -0.45121E-04   216   0.137E-01    0.486E-01
DAV:  28    -0.207960440782E+02   -0.26920E-03   -0.59249E-04   184   0.145E-01    0.196E-01
DAV:  29    -0.207959815166E+02    0.62562E-04   -0.17173E-04   192   0.746E-02    0.151E-01
DAV:  30    -0.207959051932E+02    0.76323E-04   -0.19916E-04   224   0.799E-02    0.157E-01
DAV:  31    -0.207958888622E+02    0.16331E-04   -0.26569E-05   192   0.299E-02    0.134E-01
DAV:  32    -0.207958880237E+02    0.83844E-06   -0.26744E-05   184   0.353E-02    0.118E-01
DAV:  33    -0.207958966788E+02   -0.86551E-05   -0.10170E-04   200   0.631E-02    0.612E-02
DAV:  34    -0.207958978298E+02   -0.11510E-05   -0.68176E-06   192   0.171E-02    0.614E-02
DAV:  35    -0.207958970237E+02    0.80604E-06   -0.14269E-07    88   0.230E-03
   1 F= -.20795897E+02 E0= -.20795897E+02  d E =-.207959E+02  mag=     7.9974
       N       E                     dE             d eps       ncg     rms          rms(c)
DAV:   1    -0.207939877442E+02    0.19101E-02   -0.26021E-01   160   0.499E+00    0.279E-01
DAV:   2    -0.207957178832E+02   -0.17301E-02   -0.19165E-02   160   0.934E-01    0.293E-01
DAV:   3    -0.207958380003E+02   -0.12012E-03   -0.25218E-04   224   0.728E-02    0.298E-01
DAV:   4    -0.207958165410E+02    0.21459E-04   -0.60941E-06   168   0.133E-02    0.309E-01
DAV:   5    -0.207959311794E+02   -0.11464E-03   -0.34216E-04   208   0.103E-01    0.188E-01
DAV:   6    -0.207959450415E+02   -0.13862E-04   -0.18464E-05   216   0.259E-02    0.155E-01
DAV:   7    -0.207959672952E+02   -0.22254E-04   -0.64184E-05   184   0.467E-02    0.404E-02
DAV:   8    -0.207959765209E+02   -0.92257E-05   -0.12856E-05   168   0.230E-02    0.330E-02
DAV:   9    -0.207959785512E+02   -0.20303E-05   -0.71331E-06   184   0.164E-02    0.212E-02
DAV:  10    -0.207959793953E+02   -0.84418E-06   -0.93028E-07    88   0.575E-03
   2 F= -.20795979E+02 E0= -.20795979E+02  d E =-.823716E-04  mag=     8.0000
       N       E                     dE             d eps       ncg     rms          rms(c)
DAV:   1    -0.207957524448E+02    0.22611E-03   -0.40834E-02   160   0.197E+00    0.109E-01
DAV:   2    -0.207960101566E+02   -0.25771E-03   -0.29848E-03   160   0.369E-01    0.127E-01
DAV:   3    -0.207960307545E+02   -0.20598E-04   -0.37833E-05   224   0.290E-02    0.130E-01
DAV:   4    -0.207960269008E+02    0.38537E-05   -0.91906E-07   104   0.592E-03    0.135E-01
DAV:   5    -0.207960507675E+02   -0.23867E-04   -0.53205E-05   176   0.397E-02    0.869E-02
DAV:   6    -0.207960503115E+02    0.45601E-06   -0.63778E-06   184   0.127E-02
   3 F= -.20796050E+02 E0= -.20796050E+02  d E =-.153288E-03  mag=     8.0000
