 vasp.5.3.5 31Mar14 (build Jan 29 2015 13:51:25) gamma-only                     
  
 executed on             LinuxIFC date 2021.08.20  19:40:05
 running on    8 total cores
 distrk:  each k-point on    8 cores,    1 groups
 distr:  one band on NCORES_PER_BAND=   4 cores,    2 groups


--------------------------------------------------------------------------------------------------------


 INCAR:
 POTCAR:    PAW Ru_sv_GW 23Mar2010                
 POTCAR:    PAW Ru_sv_GW 23Mar2010                
  local pseudopotential read in
  partial core-charges read in
  partial kinetic energy density read in
  kinetic energy density of atom read in
  atomic valenz-charges read in
  non local Contribution for L=           0  read in
    real space projection operators read in
  non local Contribution for L=           0  read in
    real space projection operators read in
  non local Contribution for L=           0  read in
    real space projection operators read in
  non local Contribution for L=           1  read in
    real space projection operators read in
  non local Contribution for L=           1  read in
    real space projection operators read in
  non local Contribution for L=           2  read in
    real space projection operators read in
  non local Contribution for L=           2  read in
    real space projection operators read in
  non local Contribution for L=           3  read in
    real space projection operators read in
    PAW grid and wavefunctions read in
 
   number of l-projection  operators is LMAX  =           8
   number of lm-projection operators is LMMAX =          26
 

 ----------------------------------------------------------------------------- 
|                                                                             |
|  ADVICE TO THIS USER RUNNING 'VASP/VAMP'   (HEAR YOUR MASTER'S VOICE ...):  |
|                                                                             |
|      You have a (more or less) 'small supercell' and for smaller cells      |
|      it is recommended  to use the reciprocal-space projection scheme!      |
|      The real space optimization is not  efficient for small cells and it   |
|      is also less accurate ...                                              |
|      Therefore set LREAL=.FALSE. in the  INCAR file                         |
|                                                                             |
 ----------------------------------------------------------------------------- 

 Optimization of the real space projectors (new method)

 maximal supplied QI-value         = 16.25
 optimisation between [QCUT,QGAM] = [ 11.38, 22.75] = [ 36.24,144.96] Ry 
 Optimized for a Real-space Cutoff    1.43 Angstroem

   l    n(q)    QCUT    max X(q) W(low)/X(q) W(high)/X(q)  e(spline) 
   0     10    11.376   283.116    0.16E-04    0.12E-03    0.11E-05
   0     10    11.376   295.158    0.16E-04    0.12E-03    0.11E-05
   0     10    11.376     6.141    0.13E-04    0.93E-04    0.95E-06
   1      9    11.376     2.542    0.16E-04    0.18E-04    0.41E-07
   1      9    11.376     2.933    0.49E-04    0.76E-04    0.17E-06
   2      9    11.376   132.221    0.18E-03    0.88E-03    0.55E-06
   2      9    11.376   123.856    0.18E-03    0.88E-03    0.55E-06
   3      8    11.376     5.924    0.37E-03    0.52E-03    0.17E-06
  PAW Ru_sv_GW 23Mar2010                :
 energy of atom  1       EATOM=-2594.8033
 kinetic energy error for atom=    0.0525 (will be added to EATOM!!)
 
 
 POSCAR: CuRu                                    
  positions in cartesian coordinates
  No initial velocities read in
 exchange correlation table for  LEXCH =        8
   RHO(1)=    0.500       N(1)  =     2000
   RHO(2)=  100.500       N(2)  =     4000
 


--------------------------------------------------------------------------------------------------------


 ion  position               nearest neighbor table
   1  0.911  0.031  0.999-   4 2.30   2 2.30   3 3.17
   2  0.033  0.087  0.016-   1 2.30   3 2.30   4 3.16
   3  0.084  0.971  0.969-   4 2.30   2 2.30   1 3.17
   4  0.972  0.911  0.016-   3 2.30   1 2.30   2 3.16
 
  LATTYP: Found a simple cubic cell.
 ALAT       =    17.0000000000
  
  Lattice vectors:
  
 A1 = (  17.0000000000,   0.0000000000,   0.0000000000)
 A2 = (   0.0000000000,  17.0000000000,   0.0000000000)
 A3 = (   0.0000000000,   0.0000000000,  17.0000000000)


Analysis of symmetry for initial positions (statically):
=====================================================================
 Subroutine PRICEL returns:
 Original cell was already a primitive cell.
 

 Routine SETGRP: Setting up the symmetry group for a 
 simple cubic supercell.


 Subroutine GETGRP returns: Found  1 space group operations
 (whereof  1 operations were pure point group operations)
 out of a pool of 48 trial point group operations.


The static configuration has the point symmetry C_1 .


Analysis of symmetry for dynamics (positions and initial velocities):
=====================================================================
 Subroutine PRICEL returns:
 Original cell was already a primitive cell.
 

 Routine SETGRP: Setting up the symmetry group for a 
 simple cubic supercell.


 Subroutine GETGRP returns: Found  1 space group operations
 (whereof  1 operations were pure point group operations)
 out of a pool of 48 trial point group operations.


The dynamic configuration has the point symmetry C_1 .


Analysis of magnetic symmetry:
=====================================================================
 Subroutine PRICEL returns:
 Original cell was already a primitive cell.
 

 Subroutine MAGSYM returns: Found  1 space group operations
 (whereof  1 operations were pure point group operations)
 out of a pool of  1 trial space group operations
 (whereof  1 operations were pure point group operations)
 and found also     1 'primitive' translations


The magnetic configuration has the point symmetry C_1 .
 
 
 KPOINTS: XXX                          ! Comment l

Automatic generation of k-mesh.
Space group operators:
 irot       det(A)        alpha          n_x          n_y          n_z        tau_x        tau_y        tau_z
    1     1.000000     0.000000     1.000000     0.000000     0.000000     0.000000     0.000000     0.000000
 
 Subroutine IBZKPT returns following result:
 ===========================================
 
 Found      1 irreducible k-points:
 
 Following reciprocal coordinates:
            Coordinates               Weight
  0.000000  0.000000  0.000000      1.000000
 
 Following cartesian coordinates:
            Coordinates               Weight
  0.000000  0.000000  0.000000      1.000000
 


--------------------------------------------------------------------------------------------------------




 Dimension of arrays:
   k-points           NKPTS =      1   k-points in BZ     NKDIM =      1   number of bands    NBANDS=     40
   number of dos      NEDOS =    301   number of ions     NIONS =      4
   non local maximal  LDIM  =      8   non local SUM 2l+1 LMDIM =     26
   total plane-waves  NPLWV = 884736
   max r-space proj   IRMAX =   2262   max aug-charges    IRDMAX=  54969
   dimension x,y,z NGX =    96 NGY =   96 NGZ =   96
   dimension x,y,z NGXF=   192 NGYF=  192 NGZF=  192
   support grid    NGXF=   384 NGYF=  384 NGZF=  384
   ions per type =               4
 NGX,Y,Z   is equivalent  to a cutoff of   9.39,  9.39,  9.39 a.u.
 NGXF,Y,Z  is equivalent  to a cutoff of  18.78, 18.78, 18.78 a.u.


 I would recommend the setting:
   dimension x,y,z NGX =    93 NGY =   93 NGZ =   93
 SYSTEM =  CuRu                                    
 POSCAR =  CuRu                                    

 Startparameter for this run:
   NWRITE =      1    write-flag & timer
   PREC   = normal    normal or accurate (medium, high low for compatibility)
   ISTART =      0    job   : 0-new  1-cont  2-samecut
   ICHARG =      2    charge: 1-file 2-atom 10-const
   ISPIN  =      2    spin polarized calculation?
   LNONCOLLINEAR =      F non collinear calculations
   LSORBIT =      F    spin-orbit coupling
   INIWAV =      1    electr: 0-lowe 1-rand  2-diag
   LASPH  =      T    aspherical Exc in radial PAW
   METAGGA=      F    non-selfconsistent MetaGGA calc.

 Electronic Relaxation 1
   ENCUT  =  500.0 eV  36.75 Ry    6.06 a.u.  30.99 30.99 30.99*2*pi/ulx,y,z
   ENINI  =  500.0     initial cutoff
   ENAUG  =  721.4 eV  augmentation charge cutoff
   NELM   =    120;   NELMIN=  6; NELMDL= -8     # of ELM steps 
   EDIFF  = 0.1E-05   stopping-criterion for ELM
   LREAL  =      T    real-space projection
   NLSPLINE    = F    spline interpolate recip. space projectors
   LCOMPAT=      F    compatible to vasp.4.4
   GGA_COMPAT  = T    GGA compatible to vasp.4.4-vasp.4.6
   LMAXPAW     = -100 max onsite density
   LMAXMIX     =    2 max onsite mixed and CHGCAR
   VOSKOWN=      0    Vosko Wilk Nusair interpolation
   ROPT   =   -0.00050
 Ionic relaxation
   EDIFFG = -.1E-01   stopping-criterion for IOM
   NSW    =    200    number of steps for IOM
   NBLOCK =      1;   KBLOCK =    200    inner block; outer block 
   IBRION =      2    ionic relax: 0-MD 1-quasi-New 2-CG
   NFREE  =      1    steps in history (QN), initial steepest desc. (CG)
   ISIF   =      0    stress and relaxation
   IWAVPR =     11    prediction:  0-non 1-charg 2-wave 3-comb
   ISYM   =      2    0-nonsym 1-usesym 2-fastsym
   LCORR  =      T    Harris-Foulkes like correction to forces

   POTIM  = 0.5000    time-step for ionic-motion
   TEIN   =    0.0    initial temperature
   TEBEG  =    0.0;   TEEND  =   0.0 temperature during run
   SMASS  =  -3.00    Nose mass-parameter (am)
   estimated Nose-frequenzy (Omega)   =  0.10E-29 period in steps =****** mass=  -0.660E-26a.u.
   SCALEE = 1.0000    scale energy and forces
   NPACO  =    256;   APACO  = 16.0  distance and # of slots for P.C.
   PSTRESS=    0.0 pullay stress

  Mass of Ions in am
   POMASS = 101.07
  Ionic Valenz
   ZVAL   =  16.00
  Atomic Wigner-Seitz radii
   RWIGS  =  -1.00
  virtual crystal weights 
   VCA    =   1.00
   NELECT =      64.0000    total number of electrons
   NUPDOWN=      -1.0000    fix difference up-down

 DOS related values:
   EMIN   =  10.00;   EMAX   =-10.00  energy-range for DOS
   EFERMI =   0.00
   ISMEAR =     0;   SIGMA  =   0.01  broadening in eV -4-tet -1-fermi 0-gaus

 Electronic relaxation 2 (details)
   IALGO  =     38    algorithm
   LDIAG  =      T    sub-space diagonalisation (order eigenvalues)
   LSUBROT=      F    optimize rotation matrix (better conditioning)
   TURBO    =      0    0=normal 1=particle mesh
   IRESTART =      0    0=no restart 2=restart with 2 vectors
   NREBOOT  =      0    no. of reboots
   NMIN     =      0    reboot dimension
   EREF     =   0.00    reference energy to select bands
   IMIX   =      4    mixing-type and parameters
     AMIX     =   0.02;   BMIX     =  0.00
     AMIX_MAG =   0.10;   BMIX_MAG =  0.00
     AMIN     =   0.02
     WC   =   100.;   INIMIX=   1;  MIXPRE=   1;  MAXMIX= -45

 Intra band minimization:
   WEIMIN = 0.0010     energy-eigenvalue tresh-hold
   EBREAK =  0.62E-08  absolut break condition
   DEPER  =   0.30     relativ break condition  

   TIME   =   0.40     timestep for ELM

  volume/ion in A,a.u.               =    1228.25      8288.64
  Fermi-wavevector in a.u.,A,eV,Ry     =   0.385200  0.727922  2.018816  0.148379
  Thomas-Fermi vector in A             =   1.323417
 
 Write flags
   LWAVE  =      F    write WAVECAR
   LCHARG =      F    write CHGCAR
   LVTOT  =      F    write LOCPOT, total local potential
   LVHAR  =      F    write LOCPOT, Hartree potential only
   LELF   =      F    write electronic localiz. function (ELF)
   LORBIT =     10    0 simple, 1 ext, 2 COOP (PROOUT)


 Dipole corrections
   LMONO  =      F    monopole corrections only (constant potential shift)
   LDIPOL =      F    correct potential (dipole corrections)
   IDIPOL =      0    1-x, 2-y, 3-z, 4-all directions 
   EPSILON=  1.0000000 bulk dielectric constant

 Exchange correlation treatment:
   GGA     =    --    GGA type
   LEXCH   =     8    internal setting for exchange type
   VOSKOWN=      0    Vosko Wilk Nusair interpolation
   LHFCALC =     F    Hartree Fock is set to
   LHFONE  =     F    Hartree Fock one center treatment
   AEXX    =    0.0000 exact exchange contribution

 Linear response parameters
   LEPSILON=     F    determine dielectric tensor
   LRPA    =     F    only Hartree local field effects (RPA)
   LNABLA  =     F    use nabla operator in PAW spheres
   LVEL    =     F    velocity operator in full k-point grid
   LINTERFAST=   F  fast interpolation
   KINTER  =     0    interpolate to denser k-point grid
   CSHIFT  =0.1000    complex shift for real part using Kramers Kronig
   OMEGAMAX=  -1.0    maximum frequency
   DEG_THRESHOLD= 0.2000000E-02 threshold for treating states as degnerate
   RTIME   =    0.100 relaxation time in fs

 Orbital magnetization related:
   ORBITALMAG=     F  switch on orbital magnetization
   LCHIMAG   =     F  perturbation theory with respect to B field
   DQ        =  0.001000  dq finite difference perturbation B field



--------------------------------------------------------------------------------------------------------


 conjugate gradient relaxation of ions
 charge density and potential will be updated during run
 spin polarized calculation
 Variant of blocked Davidson
 Davidson routine will perform the subspace rotation
 perform sub-space diagonalisation
    after iterative eigenvector-optimisation
 modified Broyden-mixing scheme, WC =      100.0
 initial mixing is a Kerker type mixing with AMIX =  0.0200 and BMIX =      0.0000
 Hartree-type preconditioning will be used
 using additional bands            8
 real space projection scheme for non local part
 use partial core corrections
 calculate Harris-corrections to forces 
   (improved forces if not selfconsistent)
 use gradient corrections 
 use of overlap-Matrix (Vanderbilt PP)
 Gauss-broadening in eV      SIGMA  =   0.01


--------------------------------------------------------------------------------------------------------


  energy-cutoff  :      500.00
  volume of cell :     4913.00
      direct lattice vectors                 reciprocal lattice vectors
    17.000000000  0.000000000  0.000000000     0.058823529  0.000000000  0.000000000
     0.000000000 17.000000000  0.000000000     0.000000000  0.058823529  0.000000000
     0.000000000  0.000000000 17.000000000     0.000000000  0.000000000  0.058823529

  length of vectors
    17.000000000 17.000000000 17.000000000     0.058823529  0.058823529  0.058823529


 
 k-points in units of 2pi/SCALE and weight: XXX                          ! Comment l
   0.00000000  0.00000000  0.00000000       1.000
 
 k-points in reciprocal lattice and weights: XXX                          ! Comment l
   0.00000000  0.00000000  0.00000000       1.000
 
 position of ions in fractional coordinates (direct lattice) 
   0.91062347  0.03053053  0.99943400
   0.03255529  0.08727365  0.01550976
   0.08443876  0.97107471  0.96910829
   0.97238253  0.91112118  0.01594794
 
 position of ions in cartesian coordinates  (Angst):
  15.48059900  0.51901900 16.99037800
   0.55344000  1.48365200  0.26366600
   1.43545900 16.50827000 16.47484100
  16.53050300 15.48906000  0.27111500
 


--------------------------------------------------------------------------------------------------------


 use parallel FFT for wavefunctions z direction half grid
 k-point  1 :   0.0000 0.0000 0.0000  plane waves:   62145

 maximum and minimum number of plane-waves per node :     15539    15530

 maximum number of plane-waves:     62145
 maximum index in each direction: 
   IXMAX=   30   IYMAX=   30   IZMAX=   30
   IXMIN=  -30   IYMIN=  -30   IZMIN=    0

 WARNING: aliasing errors must be expected set NGX to 122 to avoid them
 WARNING: aliasing errors must be expected set NGY to 122 to avoid them
 WARNING: aliasing errors must be expected set NGZ to 122 to avoid them
 aliasing errors are usually negligible using standard VASP settings
 and one can safely disregard these warnings

 real space projection operators:
  total allocation   :       1743.83 KBytes
  max/ min on nodes  :        441.80        429.81


 parallel 3D FFT for wavefunctions:
    minimum data exchange during FFTs selected (reduces bandwidth)
 parallel 3D FFT for charge:
    minimum data exchange during FFTs selected (reduces bandwidth)


 total amount of memory used by VASP on root node   431001. kBytes
========================================================================

   base      :      30000. kBytes
   nonlr-proj:        528. kBytes
   fftplans  :     263088. kBytes
   grid      :     127401. kBytes
   one-center:         32. kBytes
   wavefun   :       9952. kBytes
 
     INWAV:  cpu time    0.00: real time    0.00
 Broyden mixing: mesh for mixing (old mesh)
   NGX = 61   NGY = 61   NGZ = 61
  (NGX  =192   NGY  =192   NGZ  =192)
  gives a total of 226981 points

 initial charge density was supplied:
 charge density of overlapping atoms calculated
 number of electron      64.0000000 magnetization       4.0000000
 keeping initial charge density in first step


--------------------------------------------------------------------------------------------------------


 Maximum index for non-local projection operator          549
 Maximum index for augmentation-charges         6734 (set IRDMAX)


--------------------------------------------------------------------------------------------------------


 First call to EWALD:  gamma=   0.104
 Maximum number of real-space cells 3x 3x 3
 Maximum number of reciprocal cells 3x 3x 3

 FEWALD executed in parallel
    FEWALD:  cpu time    0.00: real time    0.00


----------------------------------------- Iteration    1(   1)  ---------------------------------------


    POTLOK:  cpu time    5.02: real time    5.09
    SETDIJ:  cpu time    5.18: real time    5.19
     EDDAV:  cpu time    6.99: real time    7.00
       DOS:  cpu time    0.00: real time    0.00
    --------------------------------------------
      LOOP:  cpu time   17.19: real time   17.28

 eigenvalue-minimisations  :   192
 total energy-change (2. order) : 0.1313757E+04  (-0.1822723E+04)
 number of electron      64.0000000 magnetization       4.0000000
 augmentation part       64.0000000 magnetization       4.0000000

 Free energy of the ion-electron system (eV)
  ---------------------------------------------------
  alpha Z        PSCENC =         8.51738001
  Ewald energy   TEWEN  =      3876.96269919
  -Hartree energ DENC   =    -13020.40443482
  -exchange      EXHF   =         0.00000000
  -V(xc)+E(xc)   XCENC  =       340.61962486
  PAW double counting   =      8835.05689339    -8638.22802046
  entropy T*S    EENTRO =        -0.00000000
  eigenvalues    EBANDS =      -467.77023731
  atomic energy  EATOM  =     10379.00329021
  ---------------------------------------------------
  free energy    TOTEN  =      1313.75719508 eV

  energy without entropy =     1313.75719508  energy(sigma->0) =     1313.75719508


--------------------------------------------------------------------------------------------------------




----------------------------------------- Iteration    1(   2)  ---------------------------------------


     EDDAV:  cpu time   10.08: real time   10.15
       DOS:  cpu time    0.00: real time    0.00
    --------------------------------------------
      LOOP:  cpu time   10.08: real time   10.15

 eigenvalue-minimisations  :   304
 total energy-change (2. order) :-0.8797011E+03  (-0.8585300E+03)
 number of electron      64.0000000 magnetization       4.0000000
 augmentation part       64.0000000 magnetization       4.0000000

 Free energy of the ion-electron system (eV)
  ---------------------------------------------------
  alpha Z        PSCENC =         8.51738001
  Ewald energy   TEWEN  =      3876.96269919
  -Hartree energ DENC   =    -13020.40443482
  -exchange      EXHF   =         0.00000000
  -V(xc)+E(xc)   XCENC  =       340.61962486
  PAW double counting   =      8835.05689339    -8638.22802046
  entropy T*S    EENTRO =        -0.00000070
  eigenvalues    EBANDS =     -1347.47133792
  atomic energy  EATOM  =     10379.00329021
  ---------------------------------------------------
  free energy    TOTEN  =       434.05609376 eV

  energy without entropy =      434.05609446  energy(sigma->0) =      434.05609411


--------------------------------------------------------------------------------------------------------




----------------------------------------- Iteration    1(   3)  ---------------------------------------


     EDDAV:  cpu time    8.78: real time    8.80
       DOS:  cpu time    0.00: real time    0.00
    --------------------------------------------
      LOOP:  cpu time    8.78: real time    8.80

 eigenvalue-minimisations  :   256
 total energy-change (2. order) :-0.3949284E+03  (-0.3913362E+03)
 number of electron      64.0000000 magnetization       4.0000000
 augmentation part       64.0000000 magnetization       4.0000000

 Free energy of the ion-electron system (eV)
  ---------------------------------------------------
  alpha Z        PSCENC =         8.51738001
  Ewald energy   TEWEN  =      3876.96269919
  -Hartree energ DENC   =    -13020.40443482
  -exchange      EXHF   =         0.00000000
  -V(xc)+E(xc)   XCENC  =       340.61962486
  PAW double counting   =      8835.05689339    -8638.22802046
  entropy T*S    EENTRO =        -0.00000000
  eigenvalues    EBANDS =     -1742.39976354
  atomic energy  EATOM  =     10379.00329021
  ---------------------------------------------------
  free energy    TOTEN  =        39.12766885 eV

  energy without entropy =       39.12766885  energy(sigma->0) =       39.12766885


--------------------------------------------------------------------------------------------------------




----------------------------------------- Iteration    1(   4)  ---------------------------------------


     EDDAV:  cpu time    7.88: real time    7.90
       DOS:  cpu time    0.00: real time    0.00
    --------------------------------------------
      LOOP:  cpu time    7.88: real time    7.90

 eigenvalue-minimisations  :   224
 total energy-change (2. order) :-0.5088575E+02  (-0.4438036E+02)
 number of electron      64.0000000 magnetization       4.0000000
 augmentation part       64.0000000 magnetization       4.0000000

 Free energy of the ion-electron system (eV)
  ---------------------------------------------------
  alpha Z        PSCENC =         8.51738001
  Ewald energy   TEWEN  =      3876.96269919
  -Hartree energ DENC   =    -13020.40443482
  -exchange      EXHF   =         0.00000000
  -V(xc)+E(xc)   XCENC  =       340.61962486
  PAW double counting   =      8835.05689339    -8638.22802046
  entropy T*S    EENTRO =        -0.00000000
  eigenvalues    EBANDS =     -1793.28551726
  atomic energy  EATOM  =     10379.00329021
  ---------------------------------------------------
  free energy    TOTEN  =       -11.75808488 eV

  energy without entropy =      -11.75808488  energy(sigma->0) =      -11.75808488


--------------------------------------------------------------------------------------------------------




----------------------------------------- Iteration    1(   5)  ---------------------------------------


     EDDAV:  cpu time    7.23: real time    7.26
       DOS:  cpu time    0.00: real time    0.00
    --------------------------------------------
      LOOP:  cpu time    7.23: real time    7.26

 eigenvalue-minimisations  :   200
 total energy-change (2. order) :-0.9347657E+01  (-0.7963414E+01)
 number of electron      64.0000000 magnetization       4.0000000
 augmentation part       64.0000000 magnetization       4.0000000

 Free energy of the ion-electron system (eV)
  ---------------------------------------------------
  alpha Z        PSCENC =         8.51738001
  Ewald energy   TEWEN  =      3876.96269919
  -Hartree energ DENC   =    -13020.40443482
  -exchange      EXHF   =         0.00000000
  -V(xc)+E(xc)   XCENC  =       340.61962486
  PAW double counting   =      8835.05689339    -8638.22802046
  entropy T*S    EENTRO =        -0.00000000
  eigenvalues    EBANDS =     -1802.63317474
  atomic energy  EATOM  =     10379.00329021
  ---------------------------------------------------
  free energy    TOTEN  =       -21.10574235 eV

  energy without entropy =      -21.10574235  energy(sigma->0) =      -21.10574235


--------------------------------------------------------------------------------------------------------




----------------------------------------- Iteration    1(   6)  ---------------------------------------


     EDDAV:  cpu time    8.57: real time    8.62
       DOS:  cpu time    0.00: real time    0.00
    --------------------------------------------
      LOOP:  cpu time    8.57: real time    8.62

 eigenvalue-minimisations  :   248
 total energy-change (2. order) :-0.2234277E+01  (-0.1905208E+01)
 number of electron      64.0000000 magnetization       4.0000000
 augmentation part       64.0000000 magnetization       4.0000000

 Free energy of the ion-electron system (eV)
  ---------------------------------------------------
  alpha Z        PSCENC =         8.51738001
  Ewald energy   TEWEN  =      3876.96269919
  -Hartree energ DENC   =    -13020.40443482
  -exchange      EXHF   =         0.00000000
  -V(xc)+E(xc)   XCENC  =       340.61962486
  PAW double counting   =      8835.05689339    -8638.22802046
  entropy T*S    EENTRO =        -0.00000000
  eigenvalues    EBANDS =     -1804.86745207
  atomic energy  EATOM  =     10379.00329021
  ---------------------------------------------------
  free energy    TOTEN  =       -23.34001969 eV

  energy without entropy =      -23.34001969  energy(sigma->0) =      -23.34001969


--------------------------------------------------------------------------------------------------------




----------------------------------------- Iteration    1(   7)  ---------------------------------------


     EDDAV:  cpu time    7.47: real time    7.50
       DOS:  cpu time    0.00: real time    0.00
    --------------------------------------------
      LOOP:  cpu time    7.47: real time    7.50

 eigenvalue-minimisations  :   208
 total energy-change (2. order) :-0.1831388E+00  (-0.1784276E+00)
 number of electron      64.0000000 magnetization       4.0000000
 augmentation part       64.0000000 magnetization       4.0000000

 Free energy of the ion-electron system (eV)
  ---------------------------------------------------
  alpha Z        PSCENC =         8.51738001
  Ewald energy   TEWEN  =      3876.96269919
  -Hartree energ DENC   =    -13020.40443482
  -exchange      EXHF   =         0.00000000
  -V(xc)+E(xc)   XCENC  =       340.61962486
  PAW double counting   =      8835.05689339    -8638.22802046
  entropy T*S    EENTRO =        -0.00000000
  eigenvalues    EBANDS =     -1805.05059086
  atomic energy  EATOM  =     10379.00329021
  ---------------------------------------------------
  free energy    TOTEN  =       -23.52315848 eV

  energy without entropy =      -23.52315848  energy(sigma->0) =      -23.52315848


--------------------------------------------------------------------------------------------------------




----------------------------------------- Iteration    1(   8)  ---------------------------------------


     EDDAV:  cpu time    7.21: real time    7.29
       DOS:  cpu time    0.00: real time    0.00
    CHARGE:  cpu time    4.41: real time    4.43
    MIXING:  cpu time    0.11: real time    0.11
    --------------------------------------------
      LOOP:  cpu time   11.74: real time   11.83

 eigenvalue-minimisations  :   200
 total energy-change (2. order) :-0.9788008E-02  (-0.9735957E-02)
 number of electron      64.0000000 magnetization       4.0000000
 augmentation part        3.0678923 magnetization       1.0937144

 Broyden mixing:
  rms(total) = 0.12264E+02    rms(broyden)= 0.12264E+02
  rms(prec ) = 0.12281E+02
  weight for this iteration     100.00

 Free energy of the ion-electron system (eV)
  ---------------------------------------------------
  alpha Z        PSCENC =         8.51738001
  Ewald energy   TEWEN  =      3876.96269919
  -Hartree energ DENC   =    -13020.40443482
  -exchange      EXHF   =         0.00000000
  -V(xc)+E(xc)   XCENC  =       340.61962486
  PAW double counting   =      8835.05689339    -8638.22802046
  entropy T*S    EENTRO =        -0.00000000
  eigenvalues    EBANDS =     -1805.06037887
  atomic energy  EATOM  =     10379.00329021
  ---------------------------------------------------
  free energy    TOTEN  =       -23.53294649 eV

  energy without entropy =      -23.53294649  energy(sigma->0) =      -23.53294649


--------------------------------------------------------------------------------------------------------




----------------------------------------- Iteration    1(   9)  ---------------------------------------


    POTLOK:  cpu time    5.04: real time    5.09
    SETDIJ:  cpu time    5.22: real time    5.23
     EDDAV:  cpu time    7.67: real time    7.68
       DOS:  cpu time    0.00: real time    0.00
    CHARGE:  cpu time    4.37: real time    4.37
    MIXING:  cpu time    0.14: real time    0.14
    --------------------------------------------
      LOOP:  cpu time   22.44: real time   22.51

 eigenvalue-minimisations  :   216
 total energy-change (2. order) : 0.4089658E+00  (-0.8411655E-02)
 number of electron      64.0000000 magnetization       4.0000001
 augmentation part        3.1284661 magnetization       1.1003772

 Broyden mixing:
  rms(total) = 0.11927E+02    rms(broyden)= 0.11927E+02
  rms(prec ) = 0.11943E+02
  weight for this iteration     100.00

 eigenvalues of (default mixing * dielectric matrix)
  average eigenvalue GAMMA=  30.4905
 30.4905

 Free energy of the ion-electron system (eV)
  ---------------------------------------------------
  alpha Z        PSCENC =         8.51738001
  Ewald energy   TEWEN  =      3876.96269919
  -Hartree energ DENC   =    -13011.83725938
  -exchange      EXHF   =         0.00000000
  -V(xc)+E(xc)   XCENC  =       340.34417482
  PAW double counting   =      8866.30041266    -8669.62551189
  entropy T*S    EENTRO =        -0.00000000
  eigenvalues    EBANDS =     -1812.78916628
  atomic energy  EATOM  =     10379.00329021
  ---------------------------------------------------
  free energy    TOTEN  =       -23.12398066 eV

  energy without entropy =      -23.12398066  energy(sigma->0) =      -23.12398066


--------------------------------------------------------------------------------------------------------




----------------------------------------- Iteration    1(  10)  ---------------------------------------


    POTLOK:  cpu time    5.03: real time    5.09
    SETDIJ:  cpu time    5.18: real time    5.19
     EDDAV:  cpu time    6.54: real time    6.55
       DOS:  cpu time    0.00: real time    0.00
    CHARGE:  cpu time    4.39: real time    4.40
    MIXING:  cpu time    0.16: real time    0.16
    --------------------------------------------
      LOOP:  cpu time   21.29: real time   21.38

 eigenvalue-minimisations  :   176
 total energy-change (2. order) : 0.3641104E+01  (-0.8438676E+01)
 number of electron      64.0000000 magnetization       4.2520873
 augmentation part        4.9940649 magnetization      -1.5377130

 Broyden mixing:
  rms(total) = 0.27142E+01    rms(broyden)= 0.27141E+01
  rms(prec ) = 0.27846E+01
  weight for this iteration     100.00

 eigenvalues of (default mixing * dielectric matrix)
  average eigenvalue GAMMA=  15.5881
  0.6126 30.5636

 Free energy of the ion-electron system (eV)
  ---------------------------------------------------
  alpha Z        PSCENC =         8.51738001
  Ewald energy   TEWEN  =      3876.96269919
  -Hartree energ DENC   =    -12753.92655326
  -exchange      EXHF   =         0.00000000
  -V(xc)+E(xc)   XCENC  =       334.03376979
  PAW double counting   =      9979.06907973    -9786.20367109
  entropy T*S    EENTRO =        -0.00019044
  eigenvalues    EBANDS =     -2056.93868095
  atomic energy  EATOM  =     10379.00329021
  ---------------------------------------------------
  free energy    TOTEN  =       -19.48287680 eV

  energy without entropy =      -19.48268636  energy(sigma->0) =      -19.48278158


--------------------------------------------------------------------------------------------------------




----------------------------------------- Iteration    1(  11)  ---------------------------------------


    POTLOK:  cpu time    5.09: real time    5.11
    SETDIJ:  cpu time    5.13: real time    5.14
     EDDAV:  cpu time    7.21: real time    7.23
       DOS:  cpu time    0.00: real time    0.00
    CHARGE:  cpu time    4.39: real time    4.41
    MIXING:  cpu time    0.17: real time    0.17
    --------------------------------------------
      LOOP:  cpu time   21.99: real time   22.07

 eigenvalue-minimisations  :   200
 total energy-change (2. order) :-0.9742979E+00  (-0.3933839E+00)
 number of electron      64.0000000 magnetization       4.6284462
 augmentation part        4.8877620 magnetization       0.2954977

 Broyden mixing:
  rms(total) = 0.20234E+01    rms(broyden)= 0.20234E+01
  rms(prec ) = 0.21027E+01
  weight for this iteration     100.00

 eigenvalues of (default mixing * dielectric matrix)
  average eigenvalue GAMMA=  11.5620
 32.0280  1.9387  0.7194

 Free energy of the ion-electron system (eV)
  ---------------------------------------------------
  alpha Z        PSCENC =         8.51738001
  Ewald energy   TEWEN  =      3876.96269919
  -Hartree energ DENC   =    -12771.06525455
  -exchange      EXHF   =         0.00000000
  -V(xc)+E(xc)   XCENC  =       333.72526710
  PAW double counting   =      9961.59874343    -9768.28897756
  entropy T*S    EENTRO =        -0.00282087
  eigenvalues    EBANDS =     -2040.90750162
  atomic energy  EATOM  =     10379.00329021
  ---------------------------------------------------
  free energy    TOTEN  =       -20.45717466 eV

  energy without entropy =      -20.45435379  energy(sigma->0) =      -20.45576423


--------------------------------------------------------------------------------------------------------




----------------------------------------- Iteration    1(  12)  ---------------------------------------


    POTLOK:  cpu time    5.02: real time    5.10
    SETDIJ:  cpu time    5.21: real time    5.22
     EDDAV:  cpu time    7.42: real time    7.44
       DOS:  cpu time    0.00: real time    0.00
    CHARGE:  cpu time    4.40: real time    4.41
    MIXING:  cpu time    0.19: real time    0.19
    --------------------------------------------
      LOOP:  cpu time   22.25: real time   22.36

 eigenvalue-minimisations  :   208
 total energy-change (2. order) :-0.7116490E+00  (-0.5330302E-01)
 number of electron      64.0000000 magnetization       5.6021332
 augmentation part        4.8525210 magnetization      -0.1750949

 Broyden mixing:
  rms(total) = 0.20532E+01    rms(broyden)= 0.20531E+01
  rms(prec ) = 0.21255E+01
  weight for this iteration     100.00

 eigenvalues of (default mixing * dielectric matrix)
  average eigenvalue GAMMA=   9.6349
 33.2271  3.9868  0.8550  0.4709

 Free energy of the ion-electron system (eV)
  ---------------------------------------------------
  alpha Z        PSCENC =         8.51738001
  Ewald energy   TEWEN  =      3876.96269919
  -Hartree energ DENC   =    -12789.54240033
  -exchange      EXHF   =         0.00000000
  -V(xc)+E(xc)   XCENC  =       333.52222562
  PAW double counting   =     10076.62048532    -9882.39240165
  entropy T*S    EENTRO =        -0.00000001
  eigenvalues    EBANDS =     -2023.86010206
  atomic energy  EATOM  =     10379.00329021
  ---------------------------------------------------
  free energy    TOTEN  =       -21.16882369 eV

  energy without entropy =      -21.16882368  energy(sigma->0) =      -21.16882368


--------------------------------------------------------------------------------------------------------




----------------------------------------- Iteration    1(  13)  ---------------------------------------


    POTLOK:  cpu time    5.04: real time    5.08
    SETDIJ:  cpu time    5.20: real time    5.21
     EDDAV:  cpu time    6.96: real time    6.97
       DOS:  cpu time    0.00: real time    0.00
    CHARGE:  cpu time    4.36: real time    4.36
    MIXING:  cpu time    0.21: real time    0.21
    --------------------------------------------
      LOOP:  cpu time   21.77: real time   21.84

 eigenvalue-minimisations  :   192
 total energy-change (2. order) :-0.6548563E+00  (-0.1676884E+00)
 number of electron      64.0000000 magnetization       7.3248664
 augmentation part        4.7003608 magnetization       1.5570310

 Broyden mixing:
  rms(total) = 0.15042E+01    rms(broyden)= 0.15042E+01
  rms(prec ) = 0.15712E+01
  weight for this iteration     100.00

 eigenvalues of (default mixing * dielectric matrix)
  average eigenvalue GAMMA=   9.7353
 36.0905  9.9463  1.0291  1.0291  0.5815

 Free energy of the ion-electron system (eV)
  ---------------------------------------------------
  alpha Z        PSCENC =         8.51738001
  Ewald energy   TEWEN  =      3876.96269919
  -Hartree energ DENC   =    -12825.02902019
  -exchange      EXHF   =         0.00000000
  -V(xc)+E(xc)   XCENC  =       333.87993862
  PAW double counting   =     10299.47238945   -10103.51474007
  entropy T*S    EENTRO =        -0.00000000
  eigenvalues    EBANDS =     -1991.11561722
  atomic energy  EATOM  =     10379.00329021
  ---------------------------------------------------
  free energy    TOTEN  =       -21.82367999 eV

  energy without entropy =      -21.82367999  energy(sigma->0) =      -21.82367999


--------------------------------------------------------------------------------------------------------




----------------------------------------- Iteration    1(  14)  ---------------------------------------


    POTLOK:  cpu time    5.08: real time    5.11
    SETDIJ:  cpu time    5.22: real time    5.22
     EDDAV:  cpu time    7.58: real time    7.59
       DOS:  cpu time    0.00: real time    0.00
    CHARGE:  cpu time    4.36: real time    4.37
    MIXING:  cpu time    0.23: real time    0.23
    --------------------------------------------
      LOOP:  cpu time   22.47: real time   22.53

 eigenvalue-minimisations  :   216
 total energy-change (2. order) : 0.6428484E+00  (-0.3436485E+00)
 number of electron      64.0000000 magnetization       7.6482894
 augmentation part        4.3707059 magnetization       1.8562248

 Broyden mixing:
  rms(total) = 0.76095E+00    rms(broyden)= 0.76092E+00
  rms(prec ) = 0.80439E+00
  weight for this iteration     100.00

 eigenvalues of (default mixing * dielectric matrix)
  average eigenvalue GAMMA=   8.7448
 37.5676 10.4835  1.8378  1.0022  1.0022  0.5754

 Free energy of the ion-electron system (eV)
  ---------------------------------------------------
  alpha Z        PSCENC =         8.51738001
  Ewald energy   TEWEN  =      3876.96269919
  -Hartree energ DENC   =    -12897.60673592
  -exchange      EXHF   =         0.00000000
  -V(xc)+E(xc)   XCENC  =       335.89691179
  PAW double counting   =     10669.78020827   -10470.50266195
  entropy T*S    EENTRO =        -0.00000000
  eigenvalues    EBANDS =     -1923.23192325
  atomic energy  EATOM  =     10379.00329021
  ---------------------------------------------------
  free energy    TOTEN  =       -21.18083164 eV

  energy without entropy =      -21.18083164  energy(sigma->0) =      -21.18083164


--------------------------------------------------------------------------------------------------------




----------------------------------------- Iteration    1(  15)  ---------------------------------------


    POTLOK:  cpu time    5.04: real time    5.10
    SETDIJ:  cpu time    5.21: real time    5.21
     EDDAV:  cpu time    8.07: real time    8.09
       DOS:  cpu time    0.00: real time    0.00
    CHARGE:  cpu time    4.38: real time    4.39
    MIXING:  cpu time    0.25: real time    0.25
    --------------------------------------------
      LOOP:  cpu time   22.96: real time   23.04

 eigenvalue-minimisations  :   232
 total energy-change (2. order) : 0.1246212E+00  (-0.2726202E-01)
 number of electron      64.0000000 magnetization       8.0056191
 augmentation part        4.2848561 magnetization       2.2047155

 Broyden mixing:
  rms(total) = 0.66245E+00    rms(broyden)= 0.66244E+00
  rms(prec ) = 0.69744E+00
  weight for this iteration     100.00

 eigenvalues of (default mixing * dielectric matrix)
  average eigenvalue GAMMA=   9.7552
 42.4362 11.0337 11.0337  1.2138  0.9952  0.9952  0.5786

 Free energy of the ion-electron system (eV)
  ---------------------------------------------------
  alpha Z        PSCENC =         8.51738001
  Ewald energy   TEWEN  =      3876.96269919
  -Hartree energ DENC   =    -12911.77317915
  -exchange      EXHF   =         0.00000000
  -V(xc)+E(xc)   XCENC  =       336.35565977
  PAW double counting   =     10762.38022512   -10562.35308121
  entropy T*S    EENTRO =        -0.00000000
  eigenvalues    EBANDS =     -1910.14920442
  atomic energy  EATOM  =     10379.00329021
  ---------------------------------------------------
  free energy    TOTEN  =       -21.05621047 eV

  energy without entropy =      -21.05621047  energy(sigma->0) =      -21.05621047


--------------------------------------------------------------------------------------------------------




----------------------------------------- Iteration    1(  16)  ---------------------------------------


    POTLOK:  cpu time    4.97: real time    5.12
    SETDIJ:  cpu time    5.15: real time    5.18
     EDDAV:  cpu time    6.74: real time    6.75
       DOS:  cpu time    0.00: real time    0.00
    CHARGE:  cpu time    4.39: real time    4.40
    MIXING:  cpu time    0.28: real time    0.28
    --------------------------------------------
      LOOP:  cpu time   21.54: real time   21.72

 eigenvalue-minimisations  :   184
 total energy-change (2. order) : 0.1090873E+00  (-0.4607509E-01)
 number of electron      64.0000000 magnetization       8.1373581
 augmentation part        4.1525852 magnetization       2.2930356

 Broyden mixing:
  rms(total) = 0.41940E+00    rms(broyden)= 0.41939E+00
  rms(prec ) = 0.44327E+00
  weight for this iteration     100.00

 eigenvalues of (default mixing * dielectric matrix)
  average eigenvalue GAMMA=   9.4912
 45.4043 12.7204 12.7204  1.5386  0.5788  1.0631  0.9522  0.9522

 Free energy of the ion-electron system (eV)
  ---------------------------------------------------
  alpha Z        PSCENC =         8.51738001
  Ewald energy   TEWEN  =      3876.96269919
  -Hartree energ DENC   =    -12928.55747430
  -exchange      EXHF   =         0.00000000
  -V(xc)+E(xc)   XCENC  =       337.00902076
  PAW double counting   =     10959.96324569   -10758.61710117
  entropy T*S    EENTRO =         0.00000000
  eigenvalues    EBANDS =     -1895.22818354
  atomic energy  EATOM  =     10379.00329021
  ---------------------------------------------------
  free energy    TOTEN  =       -20.94712315 eV

  energy without entropy =      -20.94712315  energy(sigma->0) =      -20.94712315


--------------------------------------------------------------------------------------------------------




----------------------------------------- Iteration    1(  17)  ---------------------------------------


    POTLOK:  cpu time    5.07: real time    5.10
    SETDIJ:  cpu time    5.26: real time    5.27
     EDDAV:  cpu time    7.59: real time    7.61
       DOS:  cpu time    0.00: real time    0.00
    CHARGE:  cpu time    4.40: real time    4.41
    MIXING:  cpu time    0.30: real time    0.30
    --------------------------------------------
      LOOP:  cpu time   22.63: real time   22.70

 eigenvalue-minimisations  :   216
 total energy-change (2. order) : 0.7015599E-01  (-0.1910226E-01)
 number of electron      64.0000000 magnetization       7.8494981
 augmentation part        4.0747141 magnetization       1.9829928

 Broyden mixing:
  rms(total) = 0.36945E+00    rms(broyden)= 0.36945E+00
  rms(prec ) = 0.38402E+00
  weight for this iteration     100.00

 eigenvalues of (default mixing * dielectric matrix)
  average eigenvalue GAMMA=   8.8580
 43.1494 10.6683 10.6683 10.5801  0.5787  1.0966  1.0966  0.9421  0.9421

 Free energy of the ion-electron system (eV)
  ---------------------------------------------------
  alpha Z        PSCENC =         8.51738001
  Ewald energy   TEWEN  =      3876.96269919
  -Hartree energ DENC   =    -12935.97578807
  -exchange      EXHF   =         0.00000000
  -V(xc)+E(xc)   XCENC  =       337.35812573
  PAW double counting   =     11064.01429079   -10861.97037512
  entropy T*S    EENTRO =         0.00000000
  eigenvalues    EBANDS =     -1888.78658990
  atomic energy  EATOM  =     10379.00329021
  ---------------------------------------------------
  free energy    TOTEN  =       -20.87696716 eV

  energy without entropy =      -20.87696716  energy(sigma->0) =      -20.87696716


--------------------------------------------------------------------------------------------------------




----------------------------------------- Iteration    1(  18)  ---------------------------------------


    POTLOK:  cpu time    5.01: real time    5.08
    SETDIJ:  cpu time    5.25: real time    5.25
     EDDAV:  cpu time    7.36: real time    7.38
       DOS:  cpu time    0.00: real time    0.00
    CHARGE:  cpu time    4.42: real time    4.42
    MIXING:  cpu time    0.33: real time    0.33
    --------------------------------------------
      LOOP:  cpu time   22.38: real time   22.47

 eigenvalue-minimisations  :   208
 total energy-change (2. order) : 0.3683396E-01  (-0.7203372E-02)
 number of electron      64.0000000 magnetization       7.8689669
 augmentation part        4.0920936 magnetization       2.0100948

 Broyden mixing:
  rms(total) = 0.26939E+00    rms(broyden)= 0.26939E+00
  rms(prec ) = 0.28250E+00
  weight for this iteration     100.00

 eigenvalues of (default mixing * dielectric matrix)
  average eigenvalue GAMMA=   8.9966
 45.6818 14.3121 14.3121  9.9757  0.5787  1.2035  1.0383  0.9879  0.9380  0.9380

 Free energy of the ion-electron system (eV)
  ---------------------------------------------------
  alpha Z        PSCENC =         8.51738001
  Ewald energy   TEWEN  =      3876.96269919
  -Hartree energ DENC   =    -12931.11074856
  -exchange      EXHF   =         0.00000000
  -V(xc)+E(xc)   XCENC  =       337.21349154
  PAW double counting   =     11007.68190892   -10805.85208318
  entropy T*S    EENTRO =         0.00000000
  eigenvalues    EBANDS =     -1893.25607133
  atomic energy  EATOM  =     10379.00329021
  ---------------------------------------------------
  free energy    TOTEN  =       -20.84013320 eV

  energy without entropy =      -20.84013320  energy(sigma->0) =      -20.84013320


--------------------------------------------------------------------------------------------------------




----------------------------------------- Iteration    1(  19)  ---------------------------------------


    POTLOK:  cpu time    5.06: real time    5.07
    SETDIJ:  cpu time    5.15: real time    5.16
     EDDAV:  cpu time    7.59: real time    7.60
       DOS:  cpu time    0.00: real time    0.00
    CHARGE:  cpu time    4.40: real time    4.41
    MIXING:  cpu time    0.36: real time    0.37
    --------------------------------------------
      LOOP:  cpu time   22.57: real time   22.61

 eigenvalue-minimisations  :   216
 total energy-change (2. order) : 0.4392112E-01  (-0.1628452E-01)
 number of electron      64.0000000 magnetization       7.8286362
 augmentation part        4.0385756 magnetization       1.9559651

 Broyden mixing:
  rms(total) = 0.20726E+00    rms(broyden)= 0.20725E+00
  rms(prec ) = 0.21208E+00
  weight for this iteration     100.00

 eigenvalues of (default mixing * dielectric matrix)
  average eigenvalue GAMMA=   8.8139
 46.7129 15.7488 15.7488 10.3162  2.7933  0.5787  1.1006  1.1006  0.9632  0.9632
  0.9271

 Free energy of the ion-electron system (eV)
  ---------------------------------------------------
  alpha Z        PSCENC =         8.51738001
  Ewald energy   TEWEN  =      3876.96269919
  -Hartree energ DENC   =    -12935.80440465
  -exchange      EXHF   =         0.00000000
  -V(xc)+E(xc)   XCENC  =       337.48803122
  PAW double counting   =     11098.59548676   -10896.12574929
  entropy T*S    EENTRO =         0.00000000
  eigenvalues    EBANDS =     -1889.43294553
  atomic energy  EATOM  =     10379.00329021
  ---------------------------------------------------
  free energy    TOTEN  =       -20.79621208 eV

  energy without entropy =      -20.79621208  energy(sigma->0) =      -20.79621208


--------------------------------------------------------------------------------------------------------




----------------------------------------- Iteration    1(  20)  ---------------------------------------


    POTLOK:  cpu time    5.07: real time    5.08
    SETDIJ:  cpu time    5.15: real time    5.16
     EDDAV:  cpu time    7.37: real time    7.39
       DOS:  cpu time    0.00: real time    0.00
    CHARGE:  cpu time    4.44: real time    4.45
    MIXING:  cpu time    0.40: real time    0.40
    --------------------------------------------
      LOOP:  cpu time   22.44: real time   22.48

 eigenvalue-minimisations  :   208
 total energy-change (2. order) : 0.1832118E-02  (-0.2414980E-02)
 number of electron      64.0000000 magnetization       7.8584804
 augmentation part        4.0453655 magnetization       1.9891507

 Broyden mixing:
  rms(total) = 0.20914E+00    rms(broyden)= 0.20914E+00
  rms(prec ) = 0.21235E+00
  weight for this iteration     100.00

 eigenvalues of (default mixing * dielectric matrix)
  average eigenvalue GAMMA=   8.7120
 47.3171 16.9726 16.9726 10.1544  6.5628  0.5787  1.1051  1.1051  0.9777  0.9777
  0.9101  0.9101

 Free energy of the ion-electron system (eV)
  ---------------------------------------------------
  alpha Z        PSCENC =         8.51738001
  Ewald energy   TEWEN  =      3876.96269919
  -Hartree energ DENC   =    -12933.74653476
  -exchange      EXHF   =         0.00000000
  -V(xc)+E(xc)   XCENC  =       337.43974560
  PAW double counting   =     11114.28080856   -10911.75719955
  entropy T*S    EENTRO =         0.00000000
  eigenvalues    EBANDS =     -1891.49456923
  atomic energy  EATOM  =     10379.00329021
  ---------------------------------------------------
  free energy    TOTEN  =       -20.79437996 eV

  energy without entropy =      -20.79437996  energy(sigma->0) =      -20.79437996


--------------------------------------------------------------------------------------------------------




----------------------------------------- Iteration    1(  21)  ---------------------------------------


    POTLOK:  cpu time    5.04: real time    5.07
    SETDIJ:  cpu time    5.19: real time    5.20
     EDDAV:  cpu time    7.62: real time    7.63
       DOS:  cpu time    0.00: real time    0.00
    CHARGE:  cpu time    4.38: real time    4.40
    MIXING:  cpu time    0.43: real time    0.43
    --------------------------------------------
      LOOP:  cpu time   22.67: real time   22.73

 eigenvalue-minimisations  :   216
 total energy-change (2. order) :-0.4173086E-04  (-0.4685350E-03)
 number of electron      64.0000000 magnetization       7.8003300
 augmentation part        4.0400022 magnetization       1.9308483

 Broyden mixing:
  rms(total) = 0.15907E+00    rms(broyden)= 0.15907E+00
  rms(prec ) = 0.16236E+00
  weight for this iteration     100.00

 eigenvalues of (default mixing * dielectric matrix)
  average eigenvalue GAMMA=   8.8955
 47.6278 24.9681 15.5779 11.2438  6.8740  2.6637  0.5787  1.1574  1.0621  1.0621
  0.9477  0.9477  0.9311

 Free energy of the ion-electron system (eV)
  ---------------------------------------------------
  alpha Z        PSCENC =         8.51738001
  Ewald energy   TEWEN  =      3876.96269919
  -Hartree energ DENC   =    -12934.91647289
  -exchange      EXHF   =         0.00000000
  -V(xc)+E(xc)   XCENC  =       337.47576324
  PAW double counting   =     11118.15107627   -10915.57438473
  entropy T*S    EENTRO =         0.00000000
  eigenvalues    EBANDS =     -1890.41377300
  atomic energy  EATOM  =     10379.00329021
  ---------------------------------------------------
  free energy    TOTEN  =       -20.79442169 eV

  energy without entropy =      -20.79442169  energy(sigma->0) =      -20.79442169


--------------------------------------------------------------------------------------------------------




----------------------------------------- Iteration    1(  22)  ---------------------------------------


    POTLOK:  cpu time    5.07: real time    5.08
    SETDIJ:  cpu time    5.17: real time    5.17
     EDDAV:  cpu time    7.16: real time    7.18
       DOS:  cpu time    0.00: real time    0.00
    CHARGE:  cpu time    4.38: real time    4.39
    MIXING:  cpu time    0.46: real time    0.46
    --------------------------------------------
      LOOP:  cpu time   22.24: real time   22.28

 eigenvalue-minimisations  :   200
 total energy-change (2. order) :-0.5345314E-03  (-0.1235455E-02)
 number of electron      64.0000000 magnetization       7.8555351
 augmentation part        4.0325608 magnetization       1.9842346

 Broyden mixing:
  rms(total) = 0.13494E+00    rms(broyden)= 0.13494E+00
  rms(prec ) = 0.13782E+00
  weight for this iteration     100.00

 eigenvalues of (default mixing * dielectric matrix)
  average eigenvalue GAMMA=   8.9988
 50.0511 29.7721 14.7767 10.9592  8.9767  3.7531  0.5787  1.1839  1.0957  1.0957
  0.9497  0.9497  0.9205  0.9205

 Free energy of the ion-electron system (eV)
  ---------------------------------------------------
  alpha Z        PSCENC =         8.51738001
  Ewald energy   TEWEN  =      3876.96269919
  -Hartree energ DENC   =    -12935.83367767
  -exchange      EXHF   =         0.00000000
  -V(xc)+E(xc)   XCENC  =       337.50724177
  PAW double counting   =     11097.81503862   -10895.24947192
  entropy T*S    EENTRO =        -0.00000000
  eigenvalues    EBANDS =     -1889.51745643
  atomic energy  EATOM  =     10379.00329021
  ---------------------------------------------------
  free energy    TOTEN  =       -20.79495622 eV

  energy without entropy =      -20.79495622  energy(sigma->0) =      -20.79495622


--------------------------------------------------------------------------------------------------------




----------------------------------------- Iteration    1(  23)  ---------------------------------------


    POTLOK:  cpu time    5.02: real time    5.05
    SETDIJ:  cpu time    5.20: real time    5.22
     EDDAV:  cpu time    7.38: real time    7.41
       DOS:  cpu time    0.00: real time    0.00
    CHARGE:  cpu time    4.41: real time    4.42
    MIXING:  cpu time    0.51: real time    0.51
    --------------------------------------------
      LOOP:  cpu time   22.52: real time   22.60

 eigenvalue-minimisations  :   208
 total energy-change (2. order) :-0.1364430E-02  (-0.2850239E-03)
 number of electron      64.0000000 magnetization       7.8810460
 augmentation part        4.0279291 magnetization       2.0082598

 Broyden mixing:
  rms(total) = 0.91581E-01    rms(broyden)= 0.91581E-01
  rms(prec ) = 0.94517E-01
  weight for this iteration     100.00

 eigenvalues of (default mixing * dielectric matrix)
  average eigenvalue GAMMA=   8.7048
 50.6818 30.9428 15.3584 10.9697  9.1387  3.8461  1.9242  0.5787  1.1237  1.1237
  1.0369  1.0369  0.9428  0.9428  0.9253

 Free energy of the ion-electron system (eV)
  ---------------------------------------------------
  alpha Z        PSCENC =         8.51738001
  Ewald energy   TEWEN  =      3876.96269919
  -Hartree energ DENC   =    -12937.16984562
  -exchange      EXHF   =         0.00000000
  -V(xc)+E(xc)   XCENC  =       337.53870598
  PAW double counting   =     11106.50422090   -10903.89137622
  entropy T*S    EENTRO =        -0.00000000
  eigenvalues    EBANDS =     -1888.26139511
  atomic energy  EATOM  =     10379.00329021
  ---------------------------------------------------
  free energy    TOTEN  =       -20.79632065 eV

  energy without entropy =      -20.79632065  energy(sigma->0) =      -20.79632065


--------------------------------------------------------------------------------------------------------




----------------------------------------- Iteration    1(  24)  ---------------------------------------


    POTLOK:  cpu time    5.05: real time    5.08
    SETDIJ:  cpu time    5.16: real time    5.18
     EDDAV:  cpu time    7.42: real time    7.45
       DOS:  cpu time    0.00: real time    0.00
    CHARGE:  cpu time    4.41: real time    4.42
    MIXING:  cpu time    0.55: real time    0.55
    --------------------------------------------
      LOOP:  cpu time   22.59: real time   22.68

 eigenvalue-minimisations  :   208
 total energy-change (2. order) : 0.6655897E-04  (-0.6795868E-04)
 number of electron      64.0000000 magnetization       7.9197473
 augmentation part        4.0285481 magnetization       2.0468258

 Broyden mixing:
  rms(total) = 0.83000E-01    rms(broyden)= 0.83000E-01
  rms(prec ) = 0.85552E-01
  weight for this iteration     100.00

 eigenvalues of (default mixing * dielectric matrix)
  average eigenvalue GAMMA=   9.0314
 48.9256 36.3404 15.3010 10.5812 10.5812 10.3371  3.5725  0.5787  1.1539  1.1297
  1.1297  0.9461  0.9461  1.0439  1.0141  0.9215

 Free energy of the ion-electron system (eV)
  ---------------------------------------------------
  alpha Z        PSCENC =         8.51738001
  Ewald energy   TEWEN  =      3876.96269919
  -Hartree energ DENC   =    -12937.52676631
  -exchange      EXHF   =         0.00000000
  -V(xc)+E(xc)   XCENC  =       337.54029730
  PAW double counting   =     11109.83370754   -10907.21557686
  entropy T*S    EENTRO =        -0.00000000
  eigenvalues    EBANDS =     -1887.91128517
  atomic energy  EATOM  =     10379.00329021
  ---------------------------------------------------
  free energy    TOTEN  =       -20.79625410 eV

  energy without entropy =      -20.79625410  energy(sigma->0) =      -20.79625410


--------------------------------------------------------------------------------------------------------




----------------------------------------- Iteration    1(  25)  ---------------------------------------


    POTLOK:  cpu time    5.00: real time    5.07
    SETDIJ:  cpu time    5.16: real time    5.17
     EDDAV:  cpu time    8.21: real time    8.24
       DOS:  cpu time    0.00: real time    0.00
    CHARGE:  cpu time    4.40: real time    4.42
    MIXING:  cpu time    0.59: real time    0.59
    --------------------------------------------
      LOOP:  cpu time   23.36: real time   23.51

 eigenvalue-minimisations  :   240
 total energy-change (2. order) : 0.9713010E-03  (-0.7136222E-03)
 number of electron      64.0000000 magnetization       7.9836944
 augmentation part        4.0214424 magnetization       2.1060481

 Broyden mixing:
  rms(total) = 0.51535E-01    rms(broyden)= 0.51534E-01
  rms(prec ) = 0.52491E-01
  weight for this iteration     100.00

 eigenvalues of (default mixing * dielectric matrix)
  average eigenvalue GAMMA=   9.1975
 50.2368 40.4067 16.9580 12.5194 12.5194 10.2058  3.5882  0.5787  1.2247  1.2247
  1.0797  1.0797  0.9471  0.9337  0.9337  0.9606  0.9606

 Free energy of the ion-electron system (eV)
  ---------------------------------------------------
  alpha Z        PSCENC =         8.51738001
  Ewald energy   TEWEN  =      3876.96269919
  -Hartree energ DENC   =    -12939.69595424
  -exchange      EXHF   =         0.00000000
  -V(xc)+E(xc)   XCENC  =       337.57201431
  PAW double counting   =     11094.94476323   -10892.38707091
  entropy T*S    EENTRO =        -0.00000000
  eigenvalues    EBANDS =     -1885.71240459
  atomic energy  EATOM  =     10379.00329021
  ---------------------------------------------------
  free energy    TOTEN  =       -20.79528279 eV

  energy without entropy =      -20.79528279  energy(sigma->0) =      -20.79528279


--------------------------------------------------------------------------------------------------------




----------------------------------------- Iteration    1(  26)  ---------------------------------------


    POTLOK:  cpu time    5.07: real time    5.11
    SETDIJ:  cpu time    5.21: real time    5.22
     EDDAV:  cpu time    8.71: real time    8.72
       DOS:  cpu time    0.00: real time    0.00
    CHARGE:  cpu time    4.41: real time    4.41
    MIXING:  cpu time    0.64: real time    0.64
    --------------------------------------------
      LOOP:  cpu time   24.04: real time   24.11

 eigenvalue-minimisations  :   256
 total energy-change (2. order) :-0.5620911E-03  (-0.6206668E-03)
 number of electron      64.0000000 magnetization       7.9870768
 augmentation part        4.0153293 magnetization       2.1067098

 Broyden mixing:
  rms(total) = 0.50305E-01    rms(broyden)= 0.50305E-01
  rms(prec ) = 0.50787E-01
  weight for this iteration     100.00

 eigenvalues of (default mixing * dielectric matrix)
  average eigenvalue GAMMA=   8.8300
 50.7505 39.2540 18.1470 12.1338 12.1338 10.1763  3.5877  3.0069  0.5787  1.2381
  1.0925  1.0925  1.0067  1.0067  0.9459  0.9459  0.9308  0.9123

 Free energy of the ion-electron system (eV)
  ---------------------------------------------------
  alpha Z        PSCENC =         8.51738001
  Ewald energy   TEWEN  =      3876.96269919
  -Hartree energ DENC   =    -12941.60652284
  -exchange      EXHF   =         0.00000000
  -V(xc)+E(xc)   XCENC  =       337.60770973
  PAW double counting   =     11099.07718111   -10896.50419253
  entropy T*S    EENTRO =        -0.00000000
  eigenvalues    EBANDS =     -1883.85338977
  atomic energy  EATOM  =     10379.00329021
  ---------------------------------------------------
  free energy    TOTEN  =       -20.79584489 eV

  energy without entropy =      -20.79584489  energy(sigma->0) =      -20.79584489


--------------------------------------------------------------------------------------------------------




----------------------------------------- Iteration    1(  27)  ---------------------------------------


    POTLOK:  cpu time    5.07: real time    5.09
    SETDIJ:  cpu time    5.19: real time    5.20
     EDDAV:  cpu time    7.58: real time    7.59
       DOS:  cpu time    0.00: real time    0.00
    CHARGE:  cpu time    4.42: real time    4.43
    MIXING:  cpu time    0.69: real time    0.69
    --------------------------------------------
      LOOP:  cpu time   22.95: real time   23.00

 eigenvalue-minimisations  :   216
 total energy-change (2. order) : 0.7000563E-04  (-0.4512113E-04)
 number of electron      64.0000000 magnetization       8.0198943
 augmentation part        4.0184918 magnetization       2.1409242

 Broyden mixing:
  rms(total) = 0.48612E-01    rms(broyden)= 0.48612E-01
  rms(prec ) = 0.48931E-01
  weight for this iteration     100.00

 eigenvalues of (default mixing * dielectric matrix)
  average eigenvalue GAMMA=   9.0033
 46.5464 46.5464 19.7746 12.6074 12.6074  9.4944  8.9700  3.6103  0.5787  1.2087
  1.0944  1.0944  1.0744  1.0744  0.9237  0.9429  0.9429  0.9856  0.9856

 Free energy of the ion-electron system (eV)
  ---------------------------------------------------
  alpha Z        PSCENC =         8.51738001
  Ewald energy   TEWEN  =      3876.96269919
  -Hartree energ DENC   =    -12940.99012254
  -exchange      EXHF   =         0.00000000
  -V(xc)+E(xc)   XCENC  =       337.59452844
  PAW double counting   =     11102.54415772   -10899.96744034
  entropy T*S    EENTRO =        -0.00000000
  eigenvalues    EBANDS =     -1884.46026758
  atomic energy  EATOM  =     10379.00329021
  ---------------------------------------------------
  free energy    TOTEN  =       -20.79577488 eV

  energy without entropy =      -20.79577488  energy(sigma->0) =      -20.79577488


--------------------------------------------------------------------------------------------------------




----------------------------------------- Iteration    1(  28)  ---------------------------------------


    POTLOK:  cpu time    5.11: real time    5.12
    SETDIJ:  cpu time    5.16: real time    5.17
     EDDAV:  cpu time    6.59: real time    6.60
       DOS:  cpu time    0.00: real time    0.00
    CHARGE:  cpu time    4.39: real time    4.40
    MIXING:  cpu time    0.74: real time    0.74
    --------------------------------------------
      LOOP:  cpu time   21.99: real time   22.03

 eigenvalue-minimisations  :   184
 total energy-change (2. order) :-0.2691982E-03  (-0.5924890E-04)
 number of electron      64.0000000 magnetization       8.0257627
 augmentation part        4.0159429 magnetization       2.1472120

 Broyden mixing:
  rms(total) = 0.19598E-01    rms(broyden)= 0.19597E-01
  rms(prec ) = 0.20396E-01
  weight for this iteration     100.00

 eigenvalues of (default mixing * dielectric matrix)
  average eigenvalue GAMMA=   8.8725
 48.5868 46.7141 21.1246 13.6070 11.1050 11.1050  9.5347  3.5970  0.5787  1.2447
  1.2293  1.2293  1.0946  1.0946  0.9673  0.9673  0.9409  0.9409  0.8936  0.8936

 Free energy of the ion-electron system (eV)
  ---------------------------------------------------
  alpha Z        PSCENC =         8.51738001
  Ewald energy   TEWEN  =      3876.96269919
  -Hartree energ DENC   =    -12941.54854534
  -exchange      EXHF   =         0.00000000
  -V(xc)+E(xc)   XCENC  =       337.61273819
  PAW double counting   =     11097.18461796   -10894.61814117
  entropy T*S    EENTRO =        -0.00000000
  eigenvalues    EBANDS =     -1883.91008314
  atomic energy  EATOM  =     10379.00329021
  ---------------------------------------------------
  free energy    TOTEN  =       -20.79604408 eV

  energy without entropy =      -20.79604408  energy(sigma->0) =      -20.79604408


--------------------------------------------------------------------------------------------------------




----------------------------------------- Iteration    1(  29)  ---------------------------------------


    POTLOK:  cpu time    5.04: real time    5.08
    SETDIJ:  cpu time    5.14: real time    5.15
     EDDAV:  cpu time    6.96: real time    6.97
       DOS:  cpu time    0.00: real time    0.00
    CHARGE:  cpu time    4.41: real time    4.42
    MIXING:  cpu time    0.75: real time    0.75
    --------------------------------------------
      LOOP:  cpu time   22.31: real time   22.37

 eigenvalue-minimisations  :   192
 total energy-change (2. order) : 0.6256156E-04  (-0.1717272E-04)
 number of electron      64.0000000 magnetization       8.0123236
 augmentation part        4.0162994 magnetization       2.1345493

 Broyden mixing:
  rms(total) = 0.15090E-01    rms(broyden)= 0.15089E-01
  rms(prec ) = 0.15827E-01
  weight for this iteration     100.00

 eigenvalues of (default mixing * dielectric matrix)
  average eigenvalue GAMMA=   8.9401
 48.9866 48.9866 22.6543 15.2269 11.0167 11.0167 10.2898  4.1709  3.5657  0.5787
  1.2191  1.0989  1.0989  1.1136  0.9181  0.9719  0.9719  0.9474  0.9474  0.9811
  0.9811

 Free energy of the ion-electron system (eV)
  ---------------------------------------------------
  alpha Z        PSCENC =         8.51738001
  Ewald energy   TEWEN  =      3876.96269919
  -Hartree energ DENC   =    -12941.36704575
  -exchange      EXHF   =         0.00000000
  -V(xc)+E(xc)   XCENC  =       337.61237841
  PAW double counting   =     11097.68675163   -10895.11712244
  entropy T*S    EENTRO =        -0.00000000
  eigenvalues    EBANDS =     -1884.09431277
  atomic energy  EATOM  =     10379.00329021
  ---------------------------------------------------
  free energy    TOTEN  =       -20.79598152 eV

  energy without entropy =      -20.79598152  energy(sigma->0) =      -20.79598152


--------------------------------------------------------------------------------------------------------




----------------------------------------- Iteration    1(  30)  ---------------------------------------


    POTLOK:  cpu time    5.02: real time    5.08
    SETDIJ:  cpu time    5.16: real time    5.17
     EDDAV:  cpu time    7.86: real time    7.87
       DOS:  cpu time    0.00: real time    0.00
    CHARGE:  cpu time    4.38: real time    4.39
    MIXING:  cpu time    0.83: real time    0.83
    --------------------------------------------
      LOOP:  cpu time   23.25: real time   23.34

 eigenvalue-minimisations  :   224
 total energy-change (2. order) : 0.7632343E-04  (-0.1991557E-04)
 number of electron      64.0000000 magnetization       8.0159812
 augmentation part        4.0178578 magnetization       2.1393223

 Broyden mixing:
  rms(total) = 0.15695E-01    rms(broyden)= 0.15695E-01
  rms(prec ) = 0.15929E-01
  weight for this iteration     100.00

 eigenvalues of (default mixing * dielectric matrix)
  average eigenvalue GAMMA=   8.7030
 49.2254 49.2254 23.5795 15.5550 11.1716 11.1716 10.1762  5.0283  3.5811  0.5787
  1.2176  1.0352  1.0352  1.1332  1.1006  1.1006  0.9491  0.9491  0.9641  0.9641
  0.8980  0.8262

 Free energy of the ion-electron system (eV)
  ---------------------------------------------------
  alpha Z        PSCENC =         8.51738001
  Ewald energy   TEWEN  =      3876.96269919
  -Hartree energ DENC   =    -12940.96893956
  -exchange      EXHF   =         0.00000000
  -V(xc)+E(xc)   XCENC  =       337.60392233
  PAW double counting   =     11095.48746460   -10892.92461242
  entropy T*S    EENTRO =        -0.00000000
  eigenvalues    EBANDS =     -1884.47710955
  atomic energy  EATOM  =     10379.00329021
  ---------------------------------------------------
  free energy    TOTEN  =       -20.79590519 eV

  energy without entropy =      -20.79590519  energy(sigma->0) =      -20.79590519


--------------------------------------------------------------------------------------------------------




----------------------------------------- Iteration    1(  31)  ---------------------------------------


    POTLOK:  cpu time    5.07: real time    5.10
    SETDIJ:  cpu time    5.21: real time    5.22
     EDDAV:  cpu time    6.97: real time    6.98
       DOS:  cpu time    0.00: real time    0.00
    CHARGE:  cpu time    4.38: real time    4.39
    MIXING:  cpu time    0.85: real time    0.85
    --------------------------------------------
      LOOP:  cpu time   22.49: real time   22.54

 eigenvalue-minimisations  :   192
 total energy-change (2. order) : 0.1633101E-04  (-0.2656943E-05)
 number of electron      64.0000000 magnetization       8.0093152
 augmentation part        4.0177442 magnetization       2.1330623

 Broyden mixing:
  rms(total) = 0.13417E-01    rms(broyden)= 0.13417E-01
  rms(prec ) = 0.13658E-01
  weight for this iteration     100.00

 eigenvalues of (default mixing * dielectric matrix)
  average eigenvalue GAMMA=   8.4722
 48.7997 48.7997 23.6345 16.2845 11.1628 11.1628 10.2508  4.8085  3.5561  3.2860
  0.5787  1.3674  1.2269  1.1035  1.1035  1.0668  0.9170  0.9672  0.9672  0.9466
  0.9466  0.9616  0.9616

 Free energy of the ion-electron system (eV)
  ---------------------------------------------------
  alpha Z        PSCENC =         8.51738001
  Ewald energy   TEWEN  =      3876.96269919
  -Hartree energ DENC   =    -12940.99370283
  -exchange      EXHF   =         0.00000000
  -V(xc)+E(xc)   XCENC  =       337.60641457
  PAW double counting   =     11097.84274634   -10895.26747282
  entropy T*S    EENTRO =        -0.00000000
  eigenvalues    EBANDS =     -1884.46724352
  atomic energy  EATOM  =     10379.00329021
  ---------------------------------------------------
  free energy    TOTEN  =       -20.79588886 eV

  energy without entropy =      -20.79588886  energy(sigma->0) =      -20.79588886


--------------------------------------------------------------------------------------------------------




----------------------------------------- Iteration    1(  32)  ---------------------------------------


    POTLOK:  cpu time    5.09: real time    5.10
    SETDIJ:  cpu time    5.20: real time    5.21
     EDDAV:  cpu time    6.75: real time    6.76
       DOS:  cpu time    0.00: real time    0.00
    CHARGE:  cpu time    4.35: real time    4.36
    MIXING:  cpu time    0.91: real time    0.91
    --------------------------------------------
      LOOP:  cpu time   22.30: real time   22.33

 eigenvalue-minimisations  :   184
 total energy-change (2. order) : 0.8384377E-06  (-0.2674394E-05)
 number of electron      64.0000000 magnetization       7.9964517
 augmentation part        4.0179347 magnetization       2.1204831

 Broyden mixing:
  rms(total) = 0.11820E-01    rms(broyden)= 0.11820E-01
  rms(prec ) = 0.11973E-01
  weight for this iteration     100.00

 eigenvalues of (default mixing * dielectric matrix)
  average eigenvalue GAMMA=   8.7276
 52.3987 45.7028 25.8894 18.4002 12.4557 12.4557 10.2522 10.2522  4.0679  3.5731
  0.5787  1.2885  1.1919  1.1261  1.1261  0.9746  0.9746  1.0450  0.9934  0.9934
  0.9452  0.9452  0.9163  0.9163

 Free energy of the ion-electron system (eV)
  ---------------------------------------------------
  alpha Z        PSCENC =         8.51738001
  Ewald energy   TEWEN  =      3876.96269919
  -Hartree energ DENC   =    -12940.91379455
  -exchange      EXHF   =         0.00000000
  -V(xc)+E(xc)   XCENC  =       337.60514995
  PAW double counting   =     11098.47319702   -10895.89227953
  entropy T*S    EENTRO =        -0.00000000
  eigenvalues    EBANDS =     -1884.55153034
  atomic energy  EATOM  =     10379.00329021
  ---------------------------------------------------
  free energy    TOTEN  =       -20.79588802 eV

  energy without entropy =      -20.79588802  energy(sigma->0) =      -20.79588802


--------------------------------------------------------------------------------------------------------




----------------------------------------- Iteration    1(  33)  ---------------------------------------


    POTLOK:  cpu time    5.04: real time    5.09
    SETDIJ:  cpu time    5.19: real time    5.19
     EDDAV:  cpu time    7.01: real time    7.03
       DOS:  cpu time    0.00: real time    0.00
    CHARGE:  cpu time    4.40: real time    4.40
    MIXING:  cpu time    0.97: real time    0.97
    --------------------------------------------
      LOOP:  cpu time   22.61: real time   22.68

 eigenvalue-minimisations  :   200
 total energy-change (2. order) :-0.8655057E-05  (-0.1017038E-04)
 number of electron      64.0000000 magnetization       7.9964729
 augmentation part        4.0182878 magnetization       2.1212495

 Broyden mixing:
  rms(total) = 0.61234E-02    rms(broyden)= 0.61233E-02
  rms(prec ) = 0.61879E-02
  weight for this iteration     100.00

 eigenvalues of (default mixing * dielectric matrix)
  average eigenvalue GAMMA=   8.4104
 52.4476 45.3088 26.1058 18.5481 12.5273 12.5273 10.2859 10.2859  4.1100  3.5742
  0.5787  1.3159  1.1830  1.1315  1.1315  1.0472  0.9666  0.9666  0.9981  0.9981
  0.9450  0.9450  0.9098  0.9034  0.5200

 Free energy of the ion-electron system (eV)
  ---------------------------------------------------
  alpha Z        PSCENC =         8.51738001
  Ewald energy   TEWEN  =      3876.96269919
  -Hartree energ DENC   =    -12940.79627870
  -exchange      EXHF   =         0.00000000
  -V(xc)+E(xc)   XCENC  =       337.60393359
  PAW double counting   =     11101.95513449   -10899.35164494
  entropy T*S    EENTRO =        -0.00000000
  eigenvalues    EBANDS =     -1884.69041052
  atomic energy  EATOM  =     10379.00329021
  ---------------------------------------------------
  free energy    TOTEN  =       -20.79589668 eV

  energy without entropy =      -20.79589668  energy(sigma->0) =      -20.79589668


--------------------------------------------------------------------------------------------------------




----------------------------------------- Iteration    1(  34)  ---------------------------------------


    POTLOK:  cpu time    5.08: real time    5.10
    SETDIJ:  cpu time    5.17: real time    5.18
     EDDAV:  cpu time    6.85: real time    6.86
       DOS:  cpu time    0.00: real time    0.00
    CHARGE:  cpu time    4.38: real time    4.38
    MIXING:  cpu time    1.08: real time    1.08
    --------------------------------------------
      LOOP:  cpu time   22.55: real time   22.60

 eigenvalue-minimisations  :   192
 total energy-change (2. order) :-0.1150967E-05  (-0.6817630E-06)
 number of electron      64.0000000 magnetization       7.9965508
 augmentation part        4.0182562 magnetization       2.1213280

 Broyden mixing:
  rms(total) = 0.61391E-02    rms(broyden)= 0.61390E-02
  rms(prec ) = 0.61988E-02
  weight for this iteration     100.00

 eigenvalues of (default mixing * dielectric matrix)
  average eigenvalue GAMMA=   8.1317
 52.2407 45.3717 26.3405 18.5424 12.5349 12.5349 10.2895 10.2895  4.0909  3.5738
  0.5787  1.2993  1.1892  1.1299  1.1299  1.0438  0.9760  0.9760  0.9939  0.9939
  0.9448  0.9448  0.9176  0.9176  0.7905  0.7905

 Free energy of the ion-electron system (eV)
  ---------------------------------------------------
  alpha Z        PSCENC =         8.51738001
  Ewald energy   TEWEN  =      3876.96269919
  -Hartree energ DENC   =    -12940.79559755
  -exchange      EXHF   =         0.00000000
  -V(xc)+E(xc)   XCENC  =       337.60406773
  PAW double counting   =     11102.26254229   -10899.65749122
  entropy T*S    EENTRO =        -0.00000000
  eigenvalues    EBANDS =     -1884.69278849
  atomic energy  EATOM  =     10379.00329021
  ---------------------------------------------------
  free energy    TOTEN  =       -20.79589783 eV

  energy without entropy =      -20.79589783  energy(sigma->0) =      -20.79589783


--------------------------------------------------------------------------------------------------------




----------------------------------------- Iteration    1(  35)  ---------------------------------------


    POTLOK:  cpu time    5.08: real time    5.11
    SETDIJ:  cpu time    5.18: real time    5.19
     EDDAV:  cpu time    3.99: real time    4.00
       DOS:  cpu time    0.00: real time    0.00
    --------------------------------------------
      LOOP:  cpu time   14.26: real time   14.29

 eigenvalue-minimisations  :    88
 total energy-change (2. order) : 0.8060397E-06  (-0.1426886E-07)
 number of electron      64.0000000 magnetization       7.9965508
 augmentation part        4.0182562 magnetization       2.1213280

 Free energy of the ion-electron system (eV)
  ---------------------------------------------------
  alpha Z        PSCENC =         8.51738001
  Ewald energy   TEWEN  =      3876.96269919
  -Hartree energ DENC   =    -12940.80091084
  -exchange      EXHF   =         0.00000000
  -V(xc)+E(xc)   XCENC  =       337.60419402
  PAW double counting   =     11102.27216753   -10899.66704474
  entropy T*S    EENTRO =        -0.00000000
  eigenvalues    EBANDS =     -1884.68767240
  atomic energy  EATOM  =     10379.00329021
  ---------------------------------------------------
  free energy    TOTEN  =       -20.79589702 eV

  energy without entropy =      -20.79589702  energy(sigma->0) =      -20.79589702


--------------------------------------------------------------------------------------------------------




 average (electrostatic) potential at core
  the test charge radii are     1.0325
  (the norm of the test charge is              1.0000)
       1 -85.5624       2 -85.5623       3 -85.5624       4 -85.5624
 
 
 
 E-fermi :  -3.3636     XC(G=0):  -0.4994     alpha+bet : -0.1729


 spin component 1

 k-point     1 :       0.0000    0.0000    0.0000
  band No.  band energies     occupation 
      1     -76.5380      1.00000
      2     -76.3739      1.00000
      3     -76.3739      1.00000
      4     -76.2156      1.00000
      5     -47.1188      1.00000
      6     -47.0064      1.00000
      7     -46.9385      1.00000
      8     -46.9379      1.00000
      9     -46.6251      1.00000
     10     -46.4932      1.00000
     11     -46.4931      1.00000
     12     -46.3973      1.00000
     13     -46.0149      1.00000
     14     -46.0148      1.00000
     15     -45.9167      1.00000
     16     -45.9150      1.00000
     17      -8.1744      1.00000
     18      -7.4602      1.00000
     19      -7.2280      1.00000
     20      -6.7366      1.00000
     21      -6.7066      1.00000
     22      -6.7063      1.00000
     23      -6.5481      1.00000
     24      -6.5470      1.00000
     25      -6.4329      1.00000
     26      -5.7253      1.00000
     27      -5.1262      1.00000
     28      -5.1255      1.00000
     29      -4.5089      1.00000
     30      -4.5084      1.00000
     31      -4.4305      1.00000
     32      -4.2138      1.00000
     33      -4.1060      1.00000
     34      -4.1058      1.00000
     35      -3.8765      1.00000
     36      -3.4707      1.00000
     37      -3.1474      0.00000
     38      -3.1473      0.00000
     39      -2.4940      0.00000
     40      -1.9542      0.00000

 spin component 2

 k-point     1 :       0.0000    0.0000    0.0000
  band No.  band energies     occupation 
      1     -75.3170      1.00000
      2     -75.1475      1.00000
      3     -75.1473      1.00000
      4     -74.9838      1.00000
      5     -46.0170      1.00000
      6     -45.8624      1.00000
      7     -45.8032      1.00000
      8     -45.8027      1.00000
      9     -45.0140      1.00000
     10     -44.9063      1.00000
     11     -44.9061      1.00000
     12     -44.8234      1.00000
     13     -44.8234      1.00000
     14     -44.7758      1.00000
     15     -44.7642      1.00000
     16     -44.7257      1.00000
     17      -7.3971      1.00000
     18      -6.7737      1.00000
     19      -6.0811      1.00000
     20      -5.9965      1.00000
     21      -5.8950      1.00000
     22      -5.8946      1.00000
     23      -5.3508      1.00000
     24      -5.3497      1.00000
     25      -5.2534      1.00000
     26      -4.5517      1.00000
     27      -4.1073      1.00000
     28      -4.1064      1.00000
     29      -2.9081      0.00000
     30      -2.9075      0.00000
     31      -2.7659      0.00000
     32      -2.6590      0.00000
     33      -2.6588      0.00000
     34      -2.5064      0.00000
     35      -2.4943      0.00000
     36      -2.4253      0.00000
     37      -2.4251      0.00000
     38      -2.2075      0.00000
     39      -1.6439      0.00000
     40      -1.4038      0.00000


--------------------------------------------------------------------------------------------------------


 soft charge-density along one line, spin component           1
         0         1         2         3         4         5         6         7         8         9
 total charge-density along one line
 
 soft charge-density along one line, spin component           2
         0         1         2         3         4         5         6         7         8         9
 total charge-density along one line
 
 pseudopotential strength for first ion, spin component:           1
 12.047   0.000  11.367   0.000   2.524   0.000   0.013   0.000  -0.008   0.000  -0.038   0.000  -0.006   0.000   0.003   0.000
 11.367   0.000  10.725   0.000   2.298   0.000   0.012   0.000  -0.008   0.000  -0.036   0.000  -0.006   0.000   0.002   0.000
  2.524   0.000   2.298   0.000   9.601   0.000   0.005   0.000  -0.002   0.000  -0.015   0.000  -0.008   0.000   0.005   0.000
  0.013   0.000   0.012   0.000   0.005   0.000 -33.186   0.000   0.003   0.000  -0.005   0.000  15.379   0.000  -0.003   0.000
 -0.008   0.000  -0.008   0.000  -0.002   0.000   0.003   0.000 -33.176   0.000  -0.008   0.000  -0.003   0.000  15.384   0.000
 -0.038   0.000  -0.036   0.000  -0.015   0.000  -0.005   0.000  -0.008   0.000 -33.172   0.000   0.005   0.000   0.009   0.000
 -0.006   0.000  -0.006   0.000  -0.008   0.000  15.379   0.000  -0.003   0.000   0.005   0.000   7.886   0.000   0.003   0.000
  0.003   0.000   0.002   0.000   0.005   0.000  -0.003   0.000  15.384   0.000   0.009   0.000   0.003   0.000   7.896   0.000
  0.018   0.000   0.017   0.000   0.024   0.000   0.005   0.000   0.009   0.000  15.366   0.000  -0.006   0.000  -0.009   0.000
 -0.005   0.000  -0.005   0.000  -0.005   0.000  -0.014   0.000   0.001   0.000   0.000   0.000   0.007   0.000  -0.001   0.000
  0.003   0.000   0.003   0.000   0.002   0.000  -0.001   0.000   0.003   0.000   0.001   0.000  -0.001   0.000  -0.004   0.000
 -0.003   0.000  -0.003   0.000  -0.001   0.000  -0.003   0.000  -0.001   0.000   0.008   0.000   0.001   0.000   0.002   0.000
 -0.010   0.000  -0.010   0.000  -0.005   0.000   0.001   0.000  -0.010   0.000  -0.004   0.000  -0.001   0.000   0.012   0.000
  0.006   0.000   0.006   0.000   0.006   0.000  -0.007   0.000  -0.001   0.000  -0.009   0.000   0.000   0.000   0.001   0.000
 -0.005   0.000  -0.005   0.000  -0.005   0.000  -0.015   0.000   0.001   0.000   0.000   0.000   0.007   0.000  -0.001   0.000
  0.004   0.000   0.003   0.000   0.002   0.000  -0.002   0.000   0.003   0.000   0.001   0.000  -0.001   0.000  -0.004   0.000
 -0.003   0.000  -0.003   0.000  -0.001   0.000  -0.003   0.000  -0.002   0.000   0.008   0.000   0.001   0.000   0.002   0.000
 -0.010   0.000  -0.010   0.000  -0.005   0.000   0.001   0.000  -0.010   0.000  -0.004   0.000  -0.001   0.000   0.012   0.000
  0.007   0.000   0.006   0.000   0.006   0.000  -0.008   0.000  -0.001   0.000  -0.010   0.000   0.000   0.000   0.001   0.000
 -0.002   0.000  -0.002   0.000   0.002   0.000   0.002   0.000   0.001   0.000  -0.003   0.000  -0.001   0.000  -0.001   0.000
  0.000   0.000   0.000   0.000   0.000   0.000  -0.002   0.000   0.001   0.000   0.002   0.000   0.001   0.000  -0.002   0.000
 -0.000   0.000  -0.000   0.000   0.000   0.000   0.002   0.000  -0.000   0.000   0.002   0.000   0.001   0.000   0.000   0.000
  0.000   0.000   0.000   0.000  -0.000   0.000  -0.001   0.000   0.001   0.000   0.003   0.000   0.001   0.000   0.000   0.000
  0.001   0.000   0.001   0.000  -0.001   0.000   0.002   0.000   0.000   0.000  -0.002   0.000  -0.002   0.000  -0.001   0.000
 -0.000   0.000  -0.000   0.000  -0.000   0.000  -0.000   0.000  -0.001   0.000  -0.003   0.000  -0.001   0.000   0.002   0.000
  0.001   0.000   0.001   0.000  -0.001   0.000   0.000   0.000  -0.000   0.000   0.002   0.000  -0.003   0.000   0.001   0.000
 pseudopotential strength for first ion, spin component:           2
 11.027   0.000  10.402   0.000   1.931   0.000   0.015   0.000  -0.009   0.000  -0.044   0.000   0.002   0.000   0.001   0.000
 10.402   0.000   9.812   0.000   1.739   0.000   0.014   0.000  -0.009   0.000  -0.042   0.000   0.002   0.000   0.001   0.000
  1.931   0.000   1.739   0.000   9.140   0.000  -0.001   0.000  -0.001   0.000   0.002   0.000  -0.004   0.000   0.004   0.000
  0.015   0.000   0.014   0.000  -0.001   0.000 -33.106   0.000   0.002   0.000  -0.001   0.000  15.171   0.000  -0.003   0.000
 -0.009   0.000  -0.009   0.000  -0.001   0.000   0.002   0.000 -33.088   0.000  -0.006   0.000  -0.003   0.000  15.121   0.000
 -0.044   0.000  -0.042   0.000   0.002   0.000  -0.001   0.000  -0.006   0.000 -33.103   0.000  -0.005   0.000   0.007   0.000
  0.002   0.000   0.002   0.000  -0.004   0.000  15.171   0.000  -0.003   0.000  -0.005   0.000   8.010   0.000   0.001   0.000
  0.001   0.000   0.001   0.000   0.004   0.000  -0.003   0.000  15.121   0.000   0.007   0.000   0.001   0.000   8.019   0.000
 -0.007   0.000  -0.007   0.000   0.012   0.000  -0.005   0.000   0.007   0.000  15.184   0.000   0.003   0.000  -0.001   0.000
  0.002   0.000   0.002   0.000   0.002   0.000  -0.008   0.000  -0.001   0.000  -0.013   0.000  -0.002   0.000   0.001   0.000
  0.003   0.000   0.003   0.000  -0.000   0.000  -0.006   0.000  -0.004   0.000  -0.001   0.000   0.003   0.000   0.005   0.000
  0.027   0.000   0.026   0.000   0.005   0.000  -0.003   0.000   0.003   0.000   0.007   0.000   0.000   0.000  -0.002   0.000
 -0.009   0.000  -0.008   0.000   0.000   0.000  -0.001   0.000   0.013   0.000  -0.002   0.000   0.001   0.000  -0.014   0.000
 -0.003   0.000  -0.003   0.000  -0.003   0.000  -0.013   0.000   0.002   0.000   0.009   0.000   0.004   0.000  -0.002   0.000
  0.002   0.000   0.002   0.000   0.002   0.000  -0.009   0.000  -0.001   0.000  -0.013   0.000  -0.002   0.000   0.001   0.000
  0.003   0.000   0.003   0.000  -0.000   0.000  -0.006   0.000  -0.004   0.000  -0.001   0.000   0.003   0.000   0.005   0.000
  0.027   0.000   0.026   0.000   0.005   0.000  -0.003   0.000   0.003   0.000   0.008   0.000   0.000   0.000  -0.003   0.000
 -0.009   0.000  -0.009   0.000   0.000   0.000  -0.001   0.000   0.013   0.000  -0.002   0.000   0.001   0.000  -0.014   0.000
 -0.003   0.000  -0.003   0.000  -0.003   0.000  -0.013   0.000   0.002   0.000   0.009   0.000   0.004   0.000  -0.002   0.000
 -0.003   0.000  -0.003   0.000  -0.000   0.000  -0.002   0.000  -0.001   0.000  -0.005   0.000   0.003   0.000   0.002   0.000
 -0.000   0.000  -0.000   0.000  -0.000   0.000  -0.002   0.000   0.001   0.000  -0.000   0.000   0.003   0.000   0.002   0.000
 -0.001   0.000  -0.001   0.000  -0.000   0.000   0.003   0.000  -0.000   0.000   0.000   0.000  -0.008   0.000  -0.002   0.000
  0.001   0.000   0.001   0.000   0.000   0.000  -0.001   0.000   0.000   0.000   0.002   0.000   0.000   0.000  -0.008   0.000
  0.002   0.000   0.002   0.000   0.001   0.000   0.000   0.000   0.001   0.000   0.003   0.000   0.002   0.000   0.005   0.000
  0.000   0.000   0.000   0.000   0.000   0.000  -0.001   0.000  -0.001   0.000  -0.001   0.000   0.002   0.000  -0.002   0.000
  0.002   0.000   0.002   0.000   0.000   0.000  -0.005   0.000   0.000   0.000   0.001   0.000   0.007   0.000  -0.001   0.000
 total augmentation occupancy for first ion, spin component:           1
 69.882 -70.112   0.788  -0.120   0.066   0.351   0.206  -0.124  -0.605  -0.547  -0.423  -6.743   1.158   0.705   0.084   0.551
-70.112  72.433  -0.791   0.123  -0.067  -0.361  -0.211   0.126   0.617   0.561   0.437   6.937  -1.197  -0.722  -0.086  -0.569
  0.788  -0.791   0.009  -0.002   0.001   0.006   0.002  -0.001  -0.007  -0.005  -0.005  -0.076   0.013   0.006  -0.000   0.006
 -0.120   0.123  -0.002   2.003   0.000  -0.000  -0.017   0.000  -0.000  -0.056  -0.016  -0.009  -0.001  -0.060   0.019   0.008
  0.066  -0.067   0.001   0.000   2.004  -0.000   0.000  -0.018  -0.000  -0.003  -0.008   0.010   0.025   0.004   0.002   0.013
  0.351  -0.361   0.006  -0.000  -0.000   2.003  -0.000  -0.000  -0.016  -0.046  -0.001   0.026  -0.013   0.015   0.036   0.001
  0.206  -0.211   0.002  -0.017   0.000  -0.000   0.013  -0.000  -0.000  -0.043  -0.003  -0.018   0.003   0.016   0.095   0.014
 -0.124   0.126  -0.001   0.000  -0.018  -0.000  -0.000   0.008   0.001   0.007   0.030  -0.013  -0.089  -0.010  -0.005  -0.033
 -0.605   0.617  -0.007  -0.000  -0.000  -0.016  -0.000   0.001   0.013   0.062   0.003   0.053  -0.010  -0.094  -0.038  -0.003
 -0.547   0.561  -0.005  -0.056  -0.003  -0.046  -0.043   0.007   0.062   2.328  -0.113   0.189  -0.043  -1.186  -1.582  -0.053
 -0.423   0.437  -0.005  -0.016  -0.008  -0.001  -0.003   0.030   0.003  -0.113   3.086  -0.033  -0.014  -0.092  -0.052  -1.436
 -6.743   6.937  -0.076  -0.009   0.010   0.026  -0.018  -0.013   0.053   0.189  -0.033   3.015   0.094  -0.242  -0.126   0.006
  1.158  -1.197   0.013  -0.001   0.025  -0.013   0.003  -0.089  -0.010  -0.043  -0.014   0.094   3.127  -0.018   0.051   0.052
  0.705  -0.722   0.006  -0.060   0.004   0.015   0.016  -0.010  -0.094  -1.186  -0.092  -0.242  -0.018   2.946   0.556   0.002
  0.084  -0.086  -0.000   0.019   0.002   0.036   0.095  -0.005  -0.038  -1.582  -0.052  -0.126   0.051   0.556   2.208   0.176
  0.551  -0.569   0.006   0.008   0.013   0.001   0.014  -0.033  -0.003  -0.053  -1.436   0.006   0.052   0.002   0.176   1.341
  6.469  -6.656   0.072   0.002  -0.011  -0.005   0.028   0.011  -0.082  -0.123   0.005  -1.452  -0.015   0.159   0.100   0.000
 -1.532   1.580  -0.017   0.001  -0.038   0.006  -0.003   0.096   0.021   0.052   0.052  -0.017  -1.572  -0.091  -0.047  -0.055
 -0.106   0.110   0.000   0.033  -0.002  -0.027   0.029   0.006   0.101   0.556   0.002   0.162  -0.090  -1.873  -0.109   0.071
 -0.373   0.384  -0.004   0.005   0.001   0.004  -0.002   0.000  -0.000  -0.079   0.008   0.021  -0.001   0.080   0.110  -0.005
 -0.012   0.012  -0.000   0.003  -0.001  -0.000   0.001  -0.000  -0.000  -0.005  -0.069   0.001   0.003   0.005   0.021   0.087
 -0.101   0.104  -0.001  -0.006  -0.000   0.000  -0.006  -0.000   0.000   0.031  -0.013   0.022  -0.001   0.012  -0.065   0.014
  0.137  -0.142   0.002   0.001  -0.004  -0.002   0.001  -0.007  -0.002  -0.001  -0.024  -0.005   0.069   0.002   0.002   0.030
  0.298  -0.307   0.003   0.000   0.001  -0.007   0.000   0.001  -0.006  -0.008  -0.001  -0.063  -0.010   0.028  -0.000   0.001
  0.019  -0.020   0.000   0.002   0.002   0.002   0.000   0.001   0.001   0.005  -0.036  -0.002  -0.047  -0.008  -0.001   0.056
  0.246  -0.254   0.003   0.009  -0.000   0.001  -0.002  -0.000  -0.001   0.029   0.010  -0.014   0.005  -0.071   0.012  -0.003
 total augmentation occupancy for first ion, spin component:           2
  9.939  -9.981   0.104  -0.003   0.011   0.010  -0.016  -0.020   0.048   1.351  -0.495  -3.189   1.395  -1.740  -0.576   0.163
 -9.981  10.011  -0.115   0.003  -0.011  -0.010   0.017   0.021  -0.050  -1.388   0.508   3.264  -1.432   1.788   0.594  -0.168
  0.104  -0.115   0.001  -0.000   0.000   0.000  -0.000  -0.000   0.001   0.016  -0.006  -0.039   0.016  -0.021  -0.007   0.002
 -0.003   0.003  -0.000   0.001  -0.000  -0.000   0.002   0.000  -0.000   0.015  -0.013   0.004  -0.006  -0.012  -0.010   0.009
  0.011  -0.011   0.000  -0.000   0.003   0.000   0.000   0.005  -0.001  -0.004  -0.023   0.014   0.068   0.005   0.003   0.014
  0.010  -0.010   0.000  -0.000   0.000   0.002  -0.000  -0.001   0.003  -0.033  -0.007  -0.011   0.004   0.045   0.022   0.004
 -0.016   0.017  -0.000   0.002   0.000  -0.000  -0.001   0.000  -0.001  -0.008   0.019  -0.006   0.009   0.023  -0.002  -0.011
 -0.020   0.021  -0.000   0.000   0.005  -0.001   0.000   0.002  -0.000   0.004   0.029  -0.019  -0.085  -0.006  -0.002  -0.011
  0.048  -0.050   0.001  -0.000  -0.001   0.003  -0.001  -0.000   0.001   0.043   0.009   0.017  -0.005  -0.052  -0.023  -0.004
  1.351  -1.388   0.016   0.015  -0.004  -0.033  -0.008   0.004   0.043   1.067  -0.180  -0.175  -0.274  -0.900  -0.497   0.097
 -0.495   0.508  -0.006  -0.013  -0.023  -0.007   0.019   0.029   0.009  -0.180   2.930  -0.019   0.009  -0.277   0.095  -1.492
 -3.189   3.264  -0.039   0.004   0.014  -0.011  -0.006  -0.019   0.017  -0.175  -0.019   2.333   0.050   0.229   0.068   0.030
  1.395  -1.432   0.016  -0.006   0.068   0.004   0.009  -0.085  -0.005  -0.274   0.009   0.050   2.915   0.190   0.160  -0.043
 -1.740   1.788  -0.021  -0.012   0.005   0.045   0.023  -0.006  -0.052  -0.900  -0.277   0.229   0.190   1.538   0.515   0.155
 -0.576   0.594  -0.007  -0.010   0.003   0.022  -0.002  -0.002  -0.023  -0.497   0.095   0.068   0.160   0.515   0.143  -0.057
  0.163  -0.168   0.002   0.009   0.014   0.004  -0.011  -0.011  -0.004   0.097  -1.492   0.030  -0.043   0.155  -0.057   0.687
  1.177  -1.200   0.014  -0.002  -0.009   0.004   0.001   0.010  -0.003   0.060   0.030  -1.048  -0.082  -0.079  -0.008  -0.023
 -0.456   0.470  -0.005   0.004  -0.041  -0.002  -0.004   0.034   0.001   0.156  -0.043  -0.082  -1.386  -0.112  -0.085   0.039
  0.743  -0.766   0.009   0.008  -0.004  -0.030  -0.016   0.003   0.024   0.515   0.156  -0.090  -0.116  -0.766  -0.285  -0.087
 -0.121   0.123  -0.001  -0.002  -0.002  -0.005   0.000  -0.000  -0.001  -0.032  -0.002   0.028   0.007   0.035   0.012   0.002
  0.003  -0.003   0.000  -0.002  -0.003  -0.002  -0.000  -0.000  -0.000   0.005  -0.079   0.000  -0.008   0.016  -0.003   0.035
 -0.031   0.031  -0.000   0.010   0.002  -0.002  -0.000  -0.000   0.000   0.013  -0.023   0.021  -0.003   0.004  -0.005   0.012
  0.042  -0.043   0.000   0.000   0.010  -0.001   0.000  -0.002  -0.000  -0.003  -0.021  -0.005   0.061   0.005   0.002   0.008
  0.091  -0.093   0.001  -0.002  -0.005   0.016   0.000   0.001  -0.001  -0.004  -0.003  -0.061  -0.014   0.012   0.003   0.002
 -0.003   0.003  -0.000  -0.003   0.004   0.001  -0.000   0.000   0.000   0.016  -0.049  -0.000  -0.041  -0.003  -0.009   0.023
  0.080  -0.081   0.001  -0.006   0.001   0.001  -0.000   0.000   0.001   0.014   0.002  -0.019  -0.004  -0.029  -0.010  -0.001


------------------------ aborting loop because EDIFF is reached ----------------------------------------


 


 total charge     
 
# of ion     s       p       d       f       tot
------------------------------------------------
  1        2.788   5.974   5.880   0.031  14.673
  2        2.788   5.974   5.880   0.031  14.673
  3        2.788   5.974   5.880   0.031  14.673
  4        2.788   5.974   5.880   0.031  14.673
------------------------------------------------
tot       11.154  23.895  23.519   0.123  58.691

 


 magnetization (x)
 
# of ion     s       p       d       f       tot
------------------------------------------------
  1        0.100   0.008   1.626   0.005   1.738
  2        0.100   0.008   1.626   0.005   1.738
  3        0.100   0.008   1.626   0.005   1.738
  4        0.100   0.008   1.626   0.005   1.738
------------------------------------------------
tot        0.399   0.030   6.504   0.020   6.954

 
    CHARGE:  cpu time    4.35: real time    4.37
    FORLOC:  cpu time    0.08: real time    0.08
    FORNL :  cpu time   23.81: real time   23.85
    FORCOR:  cpu time    9.83: real time    9.85
    FORHAR:  cpu time    0.67: real time    0.67
    MIXING:  cpu time    1.13: real time    1.13
    OFIELD:  cpu time    0.00: real time    0.00

 VOLUME and BASIS-vectors are now :
 -----------------------------------------------------------------------------
  energy-cutoff  :      500.00
  volume of cell :     4913.00
      direct lattice vectors                 reciprocal lattice vectors
    17.000000000  0.000000000  0.000000000     0.058823529  0.000000000  0.000000000
     0.000000000 17.000000000  0.000000000     0.000000000  0.058823529  0.000000000
     0.000000000  0.000000000 17.000000000     0.000000000  0.000000000  0.058823529

  length of vectors
    17.000000000 17.000000000 17.000000000     0.058823529  0.058823529  0.058823529


 FORCES acting on ions
    electron-ion (+dipol)            ewald-force                    non-local-force                 convergence-correction
 -----------------------------------------------------------------------------------------------
   0.127E+04 -.435E+03 0.108E+03   -.127E+04 0.433E+03 -.107E+03   -.748E+01 0.255E+01 -.140E+01   0.583E-01 -.232E-01 0.604E-01
   -.475E+03 -.122E+04 -.319E+03   0.472E+03 0.122E+04 0.317E+03   0.286E+01 0.703E+01 0.261E+01   -.252E-01 -.484E-01 -.719E-01
   -.117E+04 0.402E+03 0.536E+03   0.117E+04 -.400E+03 -.533E+03   0.666E+01 -.228E+01 -.387E+01   -.357E-01 0.826E-02 0.770E-01
   0.374E+03 0.126E+04 -.326E+03   -.371E+03 -.125E+04 0.323E+03   -.204E+01 -.730E+01 0.265E+01   0.809E-02 0.469E-01 -.717E-01
 -----------------------------------------------------------------------------------------------
   -.766E-02 0.166E-01 0.659E-02   0.114E-12 -.455E-12 0.568E-13   -.375E-02 0.412E-03 0.919E-04   0.547E-02 -.164E-01 -.626E-02
 
 
 POSITION                                       TOTAL-FORCE (eV/Angst)
 -----------------------------------------------------------------------------------
     15.48060      0.51902     16.99038         0.052639     -0.016689      0.005692
      0.55344      1.48365      0.26367        -0.020328     -0.045395     -0.014662
      1.43546     16.50827     16.47484        -0.040221      0.017507      0.021953
     16.53050     15.48906      0.27112         0.007909      0.044577     -0.012982
 -----------------------------------------------------------------------------------
    total drift:                               -0.005940      0.000686      0.000420


--------------------------------------------------------------------------------------------------------



  FREE ENERGIE OF THE ION-ELECTRON SYSTEM (eV)
  ---------------------------------------------------
  free  energy   TOTEN  =       -20.79589702 eV

  energy  without entropy=      -20.79589702  energy(sigma->0) =      -20.79589702
 


--------------------------------------------------------------------------------------------------------


    POTLOK:  cpu time   10.20: real time   10.21


--------------------------------------------------------------------------------------------------------




--------------------------------------------------------------------------------------------------------


    WAVPRE:  cpu time    0.39: real time    0.40
 FEWALD executed in parallel
    FEWALD:  cpu time    0.00: real time    0.00

 real space projection operators:
  total allocation   :       1743.62 KBytes
  max/ min on nodes  :        442.00        429.81

    ORTHCH:  cpu time    0.67: real time    0.68
     LOOP+:  cpu time  728.91: real time  731.37


----------------------------------------- Iteration    2(   1)  ---------------------------------------


    POTLOK:  cpu time    5.05: real time    5.09
    SETDIJ:  cpu time    5.16: real time    5.16
     EDDAV:  cpu time    5.96: real time    5.97
       DOS:  cpu time    0.00: real time    0.00
    CHARGE:  cpu time    4.38: real time    4.38
    MIXING:  cpu time    0.11: real time    0.12
    --------------------------------------------
      LOOP:  cpu time   20.66: real time   20.73

 eigenvalue-minimisations  :   160
 total energy-change (2. order) : 0.1910086E-02  (-0.2602149E-01)
 number of electron      64.0000000 magnetization       7.9976731
 augmentation part        4.0189175 magnetization       2.1213620

  free energy =  -0.207939877442E+02  energy without entropy=  -0.207939877442E+02


--------------------------------------------------------------------------------------------------------




----------------------------------------- Iteration    2(   2)  ---------------------------------------


    POTLOK:  cpu time    5.07: real time    5.09
    SETDIJ:  cpu time    5.22: real time    5.22
     EDDAV:  cpu time    5.91: real time    5.92
       DOS:  cpu time    0.00: real time    0.00
    CHARGE:  cpu time    4.36: real time    4.36
    MIXING:  cpu time    0.14: real time    0.14
    --------------------------------------------
      LOOP:  cpu time   20.70: real time   20.74

 eigenvalue-minimisations  :   160
 total energy-change (2. order) :-0.1730139E-02  (-0.1916517E-02)
 number of electron      64.0000000 magnetization       7.9977800
 augmentation part        4.0187759 magnetization       2.1211886

 eigenvalues of (default mixing * dielectric matrix)
  average eigenvalue GAMMA=   0.4514
  0.4514

  free energy =  -0.207957178832E+02  energy without entropy=  -0.207957178832E+02


--------------------------------------------------------------------------------------------------------




----------------------------------------- Iteration    2(   3)  ---------------------------------------


    POTLOK:  cpu time    5.02: real time    5.07
    SETDIJ:  cpu time    5.16: real time    5.16
     EDDAV:  cpu time    7.65: real time    7.66
       DOS:  cpu time    0.00: real time    0.00
    CHARGE:  cpu time    4.36: real time    4.37
    MIXING:  cpu time    0.16: real time    0.16
    --------------------------------------------
      LOOP:  cpu time   22.35: real time   22.42

 eigenvalue-minimisations  :   224
 total energy-change (2. order) :-0.1201170E-03  (-0.2521833E-04)
 number of electron      64.0000000 magnetization       7.9975140
 augmentation part        4.0183350 magnetization       2.1205056

 eigenvalues of (default mixing * dielectric matrix)
  average eigenvalue GAMMA=   0.7779
  0.7779  0.7779

  free energy =  -0.207958380003E+02  energy without entropy=  -0.207958380003E+02


--------------------------------------------------------------------------------------------------------




----------------------------------------- Iteration    2(   4)  ---------------------------------------


    POTLOK:  cpu time    5.03: real time    5.04
    SETDIJ:  cpu time    5.18: real time    5.19
     EDDAV:  cpu time    6.14: real time    6.15
       DOS:  cpu time    0.00: real time    0.00
    CHARGE:  cpu time    4.36: real time    4.37
    MIXING:  cpu time    0.17: real time    0.17
    --------------------------------------------
      LOOP:  cpu time   20.88: real time   20.92

 eigenvalue-minimisations  :   168
 total energy-change (2. order) : 0.2145921E-04  (-0.6094100E-06)
 number of electron      64.0000000 magnetization       8.0009172
 augmentation part        4.0181938 magnetization       2.1239173

 eigenvalues of (default mixing * dielectric matrix)
  average eigenvalue GAMMA=   4.2848
 10.6388  0.8817  1.3338

  free energy =  -0.207958165410E+02  energy without entropy=  -0.207958165410E+02


--------------------------------------------------------------------------------------------------------




----------------------------------------- Iteration    2(   5)  ---------------------------------------


    POTLOK:  cpu time    5.02: real time    5.04
    SETDIJ:  cpu time    5.14: real time    5.15
     EDDAV:  cpu time    7.23: real time    7.24
       DOS:  cpu time    0.00: real time    0.00
    CHARGE:  cpu time    4.34: real time    4.34
    MIXING:  cpu time    0.19: real time    0.19
    --------------------------------------------
      LOOP:  cpu time   21.92: real time   21.96

 eigenvalue-minimisations  :   208
 total energy-change (2. order) :-0.1146383E-03  (-0.3421607E-04)
 number of electron      64.0000000 magnetization       8.0008046
 augmentation part        4.0196756 magnetization       2.1236263

 eigenvalues of (default mixing * dielectric matrix)
  average eigenvalue GAMMA=   4.8708
 12.5717  4.8919  1.0099  1.0099

  free energy =  -0.207959311794E+02  energy without entropy=  -0.207959311794E+02


--------------------------------------------------------------------------------------------------------




----------------------------------------- Iteration    2(   6)  ---------------------------------------


    POTLOK:  cpu time    5.01: real time    5.06
    SETDIJ:  cpu time    5.23: real time    5.23
     EDDAV:  cpu time    7.44: real time    7.45
       DOS:  cpu time    0.00: real time    0.00
    CHARGE:  cpu time    4.34: real time    4.34
    MIXING:  cpu time    0.21: real time    0.21
    --------------------------------------------
      LOOP:  cpu time   22.22: real time   22.30

 eigenvalue-minimisations  :   216
 total energy-change (2. order) :-0.1386215E-04  (-0.1846409E-05)
 number of electron      64.0000000 magnetization       8.0001830
 augmentation part        4.0196728 magnetization       2.1230466

 eigenvalues of (default mixing * dielectric matrix)
  average eigenvalue GAMMA=  10.3463
 38.7696  9.8527  0.9627  1.0733  1.0733

  free energy =  -0.207959450415E+02  energy without entropy=  -0.207959450415E+02


--------------------------------------------------------------------------------------------------------




----------------------------------------- Iteration    2(   7)  ---------------------------------------


    POTLOK:  cpu time    5.05: real time    5.06
    SETDIJ:  cpu time    5.12: real time    5.13
     EDDAV:  cpu time    6.56: real time    6.57
       DOS:  cpu time    0.00: real time    0.00
    CHARGE:  cpu time    4.32: real time    4.32
    MIXING:  cpu time    0.23: real time    0.23
    --------------------------------------------
      LOOP:  cpu time   21.28: real time   21.31

 eigenvalue-minimisations  :   184
 total energy-change (2. order) :-0.2225366E-04  (-0.6418448E-05)
 number of electron      64.0000000 magnetization       7.9996695
 augmentation part        4.0192585 magnetization       2.1225073

 eigenvalues of (default mixing * dielectric matrix)
  average eigenvalue GAMMA=   9.9388
 43.9181 10.8352  0.9808  0.9808  1.1011  1.8172

  free energy =  -0.207959672952E+02  energy without entropy=  -0.207959672952E+02


--------------------------------------------------------------------------------------------------------




----------------------------------------- Iteration    2(   8)  ---------------------------------------


    POTLOK:  cpu time    5.03: real time    5.06
    SETDIJ:  cpu time    5.17: real time    5.17
     EDDAV:  cpu time    6.08: real time    6.09
       DOS:  cpu time    0.00: real time    0.00
    CHARGE:  cpu time    4.33: real time    4.33
    MIXING:  cpu time    0.25: real time    0.25
    --------------------------------------------
      LOOP:  cpu time   20.85: real time   20.90

 eigenvalue-minimisations  :   168
 total energy-change (2. order) :-0.9225701E-05  (-0.1285560E-05)
 number of electron      64.0000000 magnetization       7.9998375
 augmentation part        4.0189162 magnetization       2.1227195

 eigenvalues of (default mixing * dielectric matrix)
  average eigenvalue GAMMA=   9.5335
 47.1093 10.7042  4.9163  1.0768  0.9594  0.9594  1.0087

  free energy =  -0.207959765209E+02  energy without entropy=  -0.207959765209E+02


--------------------------------------------------------------------------------------------------------




----------------------------------------- Iteration    2(   9)  ---------------------------------------


    POTLOK:  cpu time    5.03: real time    5.08
    SETDIJ:  cpu time    5.18: real time    5.19
     EDDAV:  cpu time    6.51: real time    6.53
       DOS:  cpu time    0.00: real time    0.00
    CHARGE:  cpu time    4.30: real time    4.31
    MIXING:  cpu time    0.27: real time    0.28
    --------------------------------------------
      LOOP:  cpu time   21.30: real time   21.37

 eigenvalue-minimisations  :   184
 total energy-change (2. order) :-0.2030270E-05  (-0.7133110E-06)
 number of electron      64.0000000 magnetization       7.9998545
 augmentation part        4.0186449 magnetization       2.1226515

 eigenvalues of (default mixing * dielectric matrix)
  average eigenvalue GAMMA=   8.6307
 47.5959 10.7808  5.6124  1.1228  0.9723  0.9723  0.9946  0.9946

  free energy =  -0.207959785512E+02  energy without entropy=  -0.207959785512E+02


--------------------------------------------------------------------------------------------------------




----------------------------------------- Iteration    2(  10)  ---------------------------------------


    POTLOK:  cpu time    5.04: real time    5.06
    SETDIJ:  cpu time    5.16: real time    5.17
     EDDAV:  cpu time    3.92: real time    3.92
       DOS:  cpu time    0.00: real time    0.00
    --------------------------------------------
      LOOP:  cpu time   14.12: real time   14.15

 eigenvalue-minimisations  :    88
 total energy-change (2. order) :-0.8441784E-06  (-0.9302776E-07)
 number of electron      64.0000000 magnetization       7.9998545
 augmentation part        4.0186449 magnetization       2.1226515

  free energy =  -0.207959793953E+02  energy without entropy=  -0.207959793953E+02


--------------------------------------------------------------------------------------------------------




 average (electrostatic) potential at core
  the test charge radii are     1.0325
  (the norm of the test charge is              1.0000)
       1 -85.5697       2 -85.5692       3 -85.5692       4 -85.5687
 
 
 
 E-fermi :  -3.3650     XC(G=0):  -0.5008     alpha+bet : -0.1729


 spin component 1

 k-point     1 :       0.0000    0.0000    0.0000
  band No.  band energies     occupation 
      1     -76.5482      1.00000
      2     -76.3816      1.00000
      3     -76.3811      1.00000
      4     -76.2204      1.00000
      5     -47.1362      1.00000
      6     -47.0223      1.00000
      7     -46.9531      1.00000
      8     -46.9527      1.00000
      9     -46.6336      1.00000
     10     -46.5000      1.00000
     11     -46.4994      1.00000
     12     -46.4024      1.00000
     13     -46.0177      1.00000
     14     -46.0176      1.00000
     15     -45.9183      1.00000
     16     -45.9161      1.00000
     17      -8.2021      1.00000
     18      -7.4825      1.00000
     19      -7.2501      1.00000
     20      -6.7503      1.00000
     21      -6.7215      1.00000
     22      -6.7212      1.00000
     23      -6.5651      1.00000
     24      -6.5644      1.00000
     25      -6.4506      1.00000
     26      -5.7363      1.00000
     27      -5.1346      1.00000
     28      -5.1339      1.00000
     29      -4.5109      1.00000
     30      -4.5104      1.00000
     31      -4.4318      1.00000
     32      -4.2137      1.00000
     33      -4.1076      1.00000
     34      -4.1075      1.00000
     35      -3.8748      1.00000
     36      -3.4668      1.00000
     37      -3.1492      0.00000
     38      -3.1490      0.00000
     39      -2.4854      0.00000
     40      -1.9578      0.00000

 spin component 2

 k-point     1 :       0.0000    0.0000    0.0000
  band No.  band energies     occupation 
      1     -75.3285      1.00000
      2     -75.1562      1.00000
      3     -75.1557      1.00000
      4     -74.9896      1.00000
      5     -46.0356      1.00000
      6     -45.8802      1.00000
      7     -45.8192      1.00000
      8     -45.8188      1.00000
      9     -45.0234      1.00000
     10     -44.9138      1.00000
     11     -44.9135      1.00000
     12     -44.8276      1.00000
     13     -44.8275      1.00000
     14     -44.7816      1.00000
     15     -44.7666      1.00000
     16     -44.7284      1.00000
     17      -7.4254      1.00000
     18      -6.7959      1.00000
     19      -6.0909      1.00000
     20      -6.0187      1.00000
     21      -5.9086      1.00000
     22      -5.9082      1.00000
     23      -5.3677      1.00000
     24      -5.3670      1.00000
     25      -5.2713      1.00000
     26      -4.5642      1.00000
     27      -4.1167      1.00000
     28      -4.1160      1.00000
     29      -2.9113      0.00000
     30      -2.9108      0.00000
     31      -2.7662      0.00000
     32      -2.6595      0.00000
     33      -2.6593      0.00000
     34      -2.5058      0.00000
     35      -2.4931      0.00000
     36      -2.4268      0.00000
     37      -2.4266      0.00000
     38      -2.2066      0.00000
     39      -1.6355      0.00000
     40      -1.4050      0.00000


--------------------------------------------------------------------------------------------------------


 soft charge-density along one line, spin component           1
         0         1         2         3         4         5         6         7         8         9
 total charge-density along one line
 
 soft charge-density along one line, spin component           2
         0         1         2         3         4         5         6         7         8         9
 total charge-density along one line
 
 pseudopotential strength for first ion, spin component:           1
 12.048   0.000  11.368   0.000   2.523   0.000   0.013   0.000  -0.008   0.000  -0.038   0.000  -0.006   0.000   0.003   0.000
 11.368   0.000  10.726   0.000   2.298   0.000   0.012   0.000  -0.008   0.000  -0.036   0.000  -0.006   0.000   0.003   0.000
  2.523   0.000   2.298   0.000   9.601   0.000   0.005   0.000  -0.002   0.000  -0.015   0.000  -0.008   0.000   0.005   0.000
  0.013   0.000   0.012   0.000   0.005   0.000 -33.187   0.000   0.003   0.000  -0.005   0.000  15.381   0.000  -0.003   0.000
 -0.008   0.000  -0.008   0.000  -0.002   0.000   0.003   0.000 -33.177   0.000  -0.008   0.000  -0.003   0.000  15.385   0.000
 -0.038   0.000  -0.036   0.000  -0.015   0.000  -0.005   0.000  -0.008   0.000 -33.174   0.000   0.005   0.000   0.009   0.000
 -0.006   0.000  -0.006   0.000  -0.008   0.000  15.381   0.000  -0.003   0.000   0.005   0.000   7.885   0.000   0.003   0.000
  0.003   0.000   0.003   0.000   0.005   0.000  -0.003   0.000  15.385   0.000   0.009   0.000   0.003   0.000   7.895   0.000
  0.018   0.000   0.017   0.000   0.024   0.000   0.005   0.000   0.009   0.000  15.368   0.000  -0.006   0.000  -0.009   0.000
 -0.005   0.000  -0.005   0.000  -0.005   0.000  -0.014   0.000   0.001   0.000   0.000   0.000   0.007   0.000  -0.001   0.000
  0.003   0.000   0.003   0.000   0.002   0.000  -0.002   0.000   0.003   0.000   0.001   0.000  -0.001   0.000  -0.004   0.000
 -0.003   0.000  -0.002   0.000  -0.001   0.000  -0.003   0.000  -0.002   0.000   0.008   0.000   0.001   0.000   0.003   0.000
 -0.010   0.000  -0.010   0.000  -0.005   0.000   0.001   0.000  -0.010   0.000  -0.004   0.000  -0.001   0.000   0.012   0.000
  0.006   0.000   0.006   0.000   0.006   0.000  -0.008   0.000  -0.001   0.000  -0.010   0.000   0.001   0.000   0.001   0.000
 -0.005   0.000  -0.005   0.000  -0.005   0.000  -0.015   0.000   0.001   0.000   0.000   0.000   0.007   0.000  -0.001   0.000
  0.004   0.000   0.003   0.000   0.002   0.000  -0.002   0.000   0.004   0.000   0.001   0.000  -0.001   0.000  -0.004   0.000
 -0.002   0.000  -0.002   0.000  -0.001   0.000  -0.003   0.000  -0.002   0.000   0.008   0.000   0.001   0.000   0.003   0.000
 -0.010   0.000  -0.010   0.000  -0.005   0.000   0.001   0.000  -0.011   0.000  -0.004   0.000  -0.001   0.000   0.012   0.000
  0.007   0.000   0.006   0.000   0.006   0.000  -0.008   0.000  -0.001   0.000  -0.010   0.000   0.001   0.000   0.001   0.000
 -0.002   0.000  -0.002   0.000   0.002   0.000   0.002   0.000   0.001   0.000  -0.003   0.000  -0.001   0.000  -0.001   0.000
  0.000   0.000   0.000   0.000   0.000   0.000  -0.002   0.000   0.001   0.000   0.002   0.000   0.001   0.000  -0.002   0.000
 -0.000   0.000  -0.000   0.000   0.000   0.000   0.002   0.000  -0.000   0.000   0.002   0.000   0.001   0.000   0.000   0.000
  0.000   0.000   0.000   0.000  -0.000   0.000  -0.001   0.000   0.001   0.000   0.003   0.000   0.001   0.000   0.000   0.000
  0.001   0.000   0.001   0.000  -0.001   0.000   0.002   0.000   0.000   0.000  -0.002   0.000  -0.002   0.000  -0.001   0.000
 -0.000   0.000  -0.000   0.000  -0.000   0.000  -0.000   0.000  -0.001   0.000  -0.003   0.000  -0.001   0.000   0.002   0.000
  0.001   0.000   0.001   0.000  -0.001   0.000   0.000   0.000  -0.000   0.000   0.002   0.000  -0.003   0.000   0.001   0.000
 pseudopotential strength for first ion, spin component:           2
 11.029   0.000  10.404   0.000   1.931   0.000   0.015   0.000  -0.009   0.000  -0.044   0.000   0.002   0.000   0.001   0.000
 10.404   0.000   9.813   0.000   1.739   0.000   0.014   0.000  -0.009   0.000  -0.042   0.000   0.002   0.000   0.001   0.000
  1.931   0.000   1.739   0.000   9.140   0.000  -0.001   0.000  -0.001   0.000   0.002   0.000  -0.004   0.000   0.004   0.000
  0.015   0.000   0.014   0.000  -0.001   0.000 -33.107   0.000   0.002   0.000  -0.001   0.000  15.173   0.000  -0.003   0.000
 -0.009   0.000  -0.009   0.000  -0.001   0.000   0.002   0.000 -33.089   0.000  -0.006   0.000  -0.003   0.000  15.122   0.000
 -0.044   0.000  -0.042   0.000   0.002   0.000  -0.001   0.000  -0.006   0.000 -33.104   0.000  -0.005   0.000   0.007   0.000
  0.002   0.000   0.002   0.000  -0.004   0.000  15.173   0.000  -0.003   0.000  -0.005   0.000   8.009   0.000   0.001   0.000
  0.001   0.000   0.001   0.000   0.004   0.000  -0.003   0.000  15.122   0.000   0.007   0.000   0.001   0.000   8.018   0.000
 -0.007   0.000  -0.007   0.000   0.012   0.000  -0.005   0.000   0.007   0.000  15.186   0.000   0.003   0.000  -0.001   0.000
  0.002   0.000   0.002   0.000   0.002   0.000  -0.009   0.000  -0.001   0.000  -0.013   0.000  -0.002   0.000   0.001   0.000
  0.003   0.000   0.003   0.000  -0.000   0.000  -0.006   0.000  -0.004   0.000  -0.001   0.000   0.003   0.000   0.005   0.000
  0.027   0.000   0.026   0.000   0.005   0.000  -0.003   0.000   0.003   0.000   0.008   0.000   0.000   0.000  -0.002   0.000
 -0.009   0.000  -0.008   0.000   0.000   0.000  -0.001   0.000   0.013   0.000  -0.002   0.000   0.001   0.000  -0.014   0.000
 -0.003   0.000  -0.003   0.000  -0.003   0.000  -0.013   0.000   0.002   0.000   0.008   0.000   0.004   0.000  -0.002   0.000
  0.002   0.000   0.002   0.000   0.002   0.000  -0.010   0.000  -0.001   0.000  -0.013   0.000  -0.002   0.000   0.001   0.000
  0.003   0.000   0.003   0.000  -0.000   0.000  -0.006   0.000  -0.004   0.000  -0.001   0.000   0.004   0.000   0.005   0.000
  0.027   0.000   0.026   0.000   0.005   0.000  -0.003   0.000   0.003   0.000   0.008   0.000   0.000   0.000  -0.002   0.000
 -0.009   0.000  -0.009   0.000   0.000   0.000  -0.001   0.000   0.013   0.000  -0.003   0.000   0.001   0.000  -0.014   0.000
 -0.003   0.000  -0.003   0.000  -0.003   0.000  -0.014   0.000   0.002   0.000   0.008   0.000   0.005   0.000  -0.002   0.000
 -0.003   0.000  -0.003   0.000  -0.000   0.000  -0.002   0.000  -0.001   0.000  -0.005   0.000   0.003   0.000   0.002   0.000
 -0.000   0.000  -0.000   0.000  -0.000   0.000  -0.002   0.000   0.001   0.000  -0.000   0.000   0.003   0.000   0.002   0.000
 -0.001   0.000  -0.001   0.000  -0.000   0.000   0.003   0.000  -0.000   0.000   0.000   0.000  -0.008   0.000  -0.002   0.000
  0.001   0.000   0.001   0.000   0.000   0.000  -0.001   0.000   0.000   0.000   0.002   0.000   0.000   0.000  -0.008   0.000
  0.002   0.000   0.002   0.000   0.001   0.000   0.000   0.000   0.001   0.000   0.003   0.000   0.002   0.000   0.005   0.000
  0.000   0.000   0.000   0.000   0.000   0.000  -0.001   0.000  -0.001   0.000  -0.001   0.000   0.002   0.000  -0.002   0.000
  0.002   0.000   0.002   0.000   0.000   0.000  -0.005   0.000   0.000   0.000   0.001   0.000   0.007   0.000  -0.001   0.000
 total augmentation occupancy for first ion, spin component:           1
 70.100 -70.334   0.791  -0.120   0.066   0.352   0.207  -0.124  -0.608  -0.549  -0.425  -6.772   1.160   0.706   0.085   0.553
-70.334  72.660  -0.793   0.123  -0.068  -0.362  -0.212   0.127   0.621   0.563   0.439   6.967  -1.200  -0.724  -0.087  -0.571
  0.791  -0.793   0.009  -0.002   0.001   0.006   0.002  -0.001  -0.007  -0.005  -0.005  -0.076   0.013   0.006  -0.000   0.006
 -0.120   0.123  -0.002   2.003   0.000  -0.000  -0.017   0.000  -0.000  -0.056  -0.016  -0.009  -0.001  -0.061   0.019   0.008
  0.066  -0.068   0.001   0.000   2.004  -0.000   0.000  -0.018  -0.000  -0.003  -0.008   0.010   0.025   0.004   0.002   0.013
  0.352  -0.362   0.006  -0.000  -0.000   2.003  -0.000  -0.000  -0.016  -0.046  -0.001   0.027  -0.014   0.014   0.036   0.001
  0.207  -0.212   0.002  -0.017   0.000  -0.000   0.013  -0.000  -0.000  -0.043  -0.003  -0.018   0.003   0.016   0.096   0.014
 -0.124   0.127  -0.001   0.000  -0.018  -0.000  -0.000   0.008   0.001   0.007   0.031  -0.013  -0.090  -0.010  -0.005  -0.033
 -0.608   0.621  -0.007  -0.000  -0.000  -0.016  -0.000   0.001   0.013   0.063   0.003   0.054  -0.010  -0.095  -0.039  -0.003
 -0.549   0.563  -0.005  -0.056  -0.003  -0.046  -0.043   0.007   0.063   2.356  -0.109   0.190  -0.042  -1.185  -1.615  -0.056
 -0.425   0.439  -0.005  -0.016  -0.008  -0.001  -0.003   0.031   0.003  -0.109   3.098  -0.033  -0.015  -0.089  -0.055  -1.451
 -6.772   6.967  -0.076  -0.009   0.010   0.027  -0.018  -0.013   0.054   0.190  -0.033   3.028   0.094  -0.244  -0.127   0.006
  1.160  -1.200   0.013  -0.001   0.025  -0.014   0.003  -0.090  -0.010  -0.042  -0.015   0.094   3.143  -0.017   0.051   0.053
  0.706  -0.724   0.006  -0.061   0.004   0.014   0.016  -0.010  -0.095  -1.185  -0.089  -0.244  -0.017   2.972   0.554   0.000
  0.085  -0.087  -0.000   0.019   0.002   0.036   0.096  -0.005  -0.039  -1.615  -0.055  -0.127   0.051   0.554   2.244   0.179
  0.553  -0.571   0.006   0.008   0.013   0.001   0.014  -0.033  -0.003  -0.056  -1.451   0.006   0.053   0.000   0.179   1.359
  6.504  -6.692   0.072   0.002  -0.011  -0.005   0.028   0.011  -0.083  -0.124   0.006  -1.468  -0.015   0.161   0.101  -0.000
 -1.535   1.584  -0.017   0.001  -0.038   0.006  -0.003   0.097   0.021   0.051   0.053  -0.017  -1.590  -0.093  -0.047  -0.055
 -0.107   0.111   0.000   0.033  -0.002  -0.027   0.029   0.006   0.102   0.554   0.000   0.164  -0.091  -1.904  -0.106   0.073
 -0.376   0.387  -0.004   0.005   0.001   0.004  -0.002   0.000  -0.000  -0.080   0.008   0.022  -0.001   0.081   0.112  -0.005
 -0.012   0.012  -0.000   0.003  -0.001  -0.000   0.001  -0.000  -0.000  -0.005  -0.070   0.001   0.003   0.005   0.022   0.089
 -0.101   0.104  -0.001  -0.007  -0.000   0.000  -0.006  -0.000   0.000   0.032  -0.013   0.022  -0.001   0.012  -0.066   0.014
  0.138  -0.142   0.002   0.001  -0.004  -0.002   0.001  -0.007  -0.002  -0.001  -0.024  -0.005   0.070   0.002   0.002   0.030
  0.300  -0.309   0.003   0.000   0.001  -0.007   0.000   0.001  -0.006  -0.008  -0.001  -0.064  -0.010   0.029  -0.000   0.001
  0.020  -0.020   0.000   0.002   0.002   0.002   0.000   0.001   0.001   0.005  -0.037  -0.002  -0.048  -0.008  -0.001   0.057
  0.248  -0.255   0.003   0.009  -0.000   0.001  -0.002  -0.000  -0.001   0.029   0.010  -0.014   0.005  -0.072   0.012  -0.003
 total augmentation occupancy for first ion, spin component:           2
 10.017 -10.060   0.105  -0.003   0.011   0.010  -0.017  -0.020   0.048   1.356  -0.497  -3.207   1.398  -1.748  -0.583   0.165
-10.060  10.093  -0.116   0.004  -0.012  -0.011   0.017   0.021  -0.050  -1.393   0.510   3.283  -1.436   1.796   0.601  -0.170
  0.105  -0.116   0.001  -0.000   0.000   0.000  -0.000  -0.000   0.001   0.016  -0.006  -0.040   0.016  -0.021  -0.007   0.002
 -0.003   0.004  -0.000   0.001  -0.000  -0.000   0.002   0.000  -0.000   0.015  -0.014   0.004  -0.007  -0.012  -0.010   0.009
  0.011  -0.012   0.000  -0.000   0.003   0.000   0.000   0.005  -0.001  -0.004  -0.023   0.014   0.069   0.005   0.003   0.014
  0.010  -0.011   0.000  -0.000   0.000   0.002  -0.000  -0.001   0.003  -0.033  -0.007  -0.011   0.004   0.045   0.022   0.004
 -0.017   0.017  -0.000   0.002   0.000  -0.000  -0.001   0.000  -0.001  -0.008   0.020  -0.006   0.009   0.023  -0.002  -0.011
 -0.020   0.021  -0.000   0.000   0.005  -0.001   0.000   0.002  -0.000   0.004   0.029  -0.019  -0.085  -0.006  -0.002  -0.012
  0.048  -0.050   0.001  -0.000  -0.001   0.003  -0.001  -0.000   0.001   0.043   0.009   0.017  -0.005  -0.052  -0.023  -0.004
  1.356  -1.393   0.016   0.015  -0.004  -0.033  -0.008   0.004   0.043   1.071  -0.180  -0.176  -0.275  -0.903  -0.500   0.097
 -0.497   0.510  -0.006  -0.014  -0.023  -0.007   0.020   0.029   0.009  -0.180   2.942  -0.020   0.009  -0.278   0.095  -1.502
 -3.207   3.283  -0.040   0.004   0.014  -0.011  -0.006  -0.019   0.017  -0.176  -0.020   2.340   0.052   0.229   0.068   0.030
  1.398  -1.436   0.016  -0.007   0.069   0.004   0.009  -0.085  -0.005  -0.275   0.009   0.052   2.928   0.191   0.161  -0.044
 -1.748   1.796  -0.021  -0.012   0.005   0.045   0.023  -0.006  -0.052  -0.903  -0.278   0.229   0.191   1.543   0.518   0.156
 -0.583   0.601  -0.007  -0.010   0.003   0.022  -0.002  -0.002  -0.023  -0.500   0.095   0.068   0.161   0.518   0.146  -0.057
  0.165  -0.170   0.002   0.009   0.014   0.004  -0.011  -0.012  -0.004   0.097  -1.502   0.030  -0.044   0.156  -0.057   0.695
  1.187  -1.210   0.014  -0.002  -0.009   0.004   0.001   0.010  -0.003   0.060   0.030  -1.054  -0.083  -0.079  -0.008  -0.023
 -0.461   0.475  -0.005   0.004  -0.041  -0.002  -0.004   0.034   0.001   0.157  -0.044  -0.083  -1.396  -0.113  -0.086   0.039
  0.752  -0.775   0.009   0.008  -0.004  -0.030  -0.016   0.003   0.024   0.518   0.157  -0.090  -0.117  -0.771  -0.287  -0.088
 -0.122   0.124  -0.001  -0.002  -0.002  -0.005   0.000  -0.000  -0.001  -0.032  -0.002   0.029   0.007   0.035   0.012   0.002
  0.003  -0.003   0.000  -0.002  -0.003  -0.002  -0.000  -0.000  -0.000   0.005  -0.080   0.000  -0.009   0.016  -0.003   0.035
 -0.031   0.032  -0.000   0.010   0.002  -0.002  -0.000  -0.000   0.000   0.013  -0.023   0.021  -0.003   0.005  -0.005   0.012
  0.041  -0.042   0.000   0.000   0.010  -0.001   0.000  -0.002  -0.000  -0.004  -0.021  -0.005   0.061   0.005   0.002   0.008
  0.091  -0.093   0.001  -0.002  -0.005   0.016   0.000   0.001  -0.001  -0.004  -0.003  -0.061  -0.014   0.012   0.003   0.002
 -0.003   0.003  -0.000  -0.003   0.004   0.001  -0.000   0.000   0.000   0.016  -0.050  -0.000  -0.041  -0.003  -0.009   0.023
  0.080  -0.082   0.001  -0.006   0.001   0.001  -0.000   0.000   0.001   0.014   0.002  -0.019  -0.004  -0.029  -0.010  -0.001


------------------------ aborting loop because EDIFF is reached ----------------------------------------


 


 total charge     
 
# of ion     s       p       d       f       tot
------------------------------------------------
  1        2.791   5.974   5.882   0.031  14.679
  2        2.791   5.974   5.882   0.031  14.678
  3        2.790   5.974   5.882   0.031  14.678
  4        2.791   5.974   5.882   0.031  14.678
------------------------------------------------
tot       11.162  23.896  23.529   0.125  58.713

 


 magnetization (x)
 
# of ion     s       p       d       f       tot
------------------------------------------------
  1        0.101   0.008   1.624   0.005   1.737
  2        0.101   0.008   1.624   0.005   1.737
  3        0.101   0.008   1.624   0.005   1.738
  4        0.101   0.008   1.624   0.005   1.738
------------------------------------------------
tot        0.403   0.031   6.496   0.020   6.950

 
    CHARGE:  cpu time    4.35: real time    4.36
    FORLOC:  cpu time    0.08: real time    0.08
    FORNL :  cpu time   23.67: real time   23.71
    FORCOR:  cpu time    9.79: real time    9.80
    FORHAR:  cpu time    0.66: real time    0.66
    MIXING:  cpu time    0.30: real time    0.30
    OFIELD:  cpu time    0.00: real time    0.00

 VOLUME and BASIS-vectors are now :
 -----------------------------------------------------------------------------
  energy-cutoff  :      500.00
  volume of cell :     4913.00
      direct lattice vectors                 reciprocal lattice vectors
    17.000000000  0.000000000  0.000000000     0.058823529  0.000000000  0.000000000
     0.000000000 17.000000000  0.000000000     0.000000000  0.058823529  0.000000000
     0.000000000  0.000000000 17.000000000     0.000000000  0.000000000  0.058823529

  length of vectors
    17.000000000 17.000000000 17.000000000     0.058823529  0.058823529  0.058823529


 FORCES acting on ions
    electron-ion (+dipol)            ewald-force                    non-local-force                 convergence-correction
 -----------------------------------------------------------------------------------------------
   0.128E+04 -.437E+03 0.109E+03   -.127E+04 0.434E+03 -.107E+03   -.743E+01 0.254E+01 -.137E+01   -.606E-01 0.102E-01 -.205E-01
   -.476E+03 -.123E+04 -.320E+03   0.473E+03 0.122E+04 0.317E+03   0.283E+01 0.699E+01 0.258E+01   0.313E-01 0.551E-01 0.423E-01
   -.118E+04 0.404E+03 0.538E+03   0.117E+04 -.401E+03 -.534E+03   0.663E+01 -.227E+01 -.382E+01   0.257E-01 -.257E-01 -.358E-01
   0.375E+03 0.126E+04 -.326E+03   -.373E+03 -.125E+04 0.324E+03   -.204E+01 -.726E+01 0.262E+01   -.111E-02 -.582E-01 0.388E-01
 -----------------------------------------------------------------------------------------------
   0.305E-02 0.165E-01 -.242E-01   0.114E-12 0.000E+00 0.000E+00   -.277E-02 0.383E-02 0.858E-03   -.469E-02 -.185E-01 0.248E-01
 
 
 POSITION                                       TOTAL-FORCE (eV/Angst)
 -----------------------------------------------------------------------------------
     15.48314      0.51821     16.99065        -0.036674      0.013690     -0.010126
      0.55246      1.48146      0.26296         0.016502      0.034303      0.014450
      1.43352     16.50911     16.47590         0.029717     -0.011692     -0.018844
     16.53088     15.49121      0.27049        -0.009545     -0.036302      0.014521
 -----------------------------------------------------------------------------------
    total drift:                               -0.004412      0.001797      0.001466


--------------------------------------------------------------------------------------------------------



  FREE ENERGIE OF THE ION-ELECTRON SYSTEM (eV)
  ---------------------------------------------------
  free  energy   TOTEN  =       -20.79597940 eV

  energy  without entropy=      -20.79597940  energy(sigma->0) =      -20.79597940
 
 d Force = 0.5736272E-04[-0.387E-03, 0.501E-03]  d Energy = 0.8237161E-04-0.250E-04
 d Force =-0.1316231E+02[-0.132E+02,-0.131E+02]  d Ewald  =-0.1316230E+02-0.153E-04


--------------------------------------------------------------------------------------------------------


    POTLOK:  cpu time   10.17: real time   10.18


--------------------------------------------------------------------------------------------------------


 Steepest descent step on ions:
 trial-energy change:   -0.000082  1 .order   -0.000057   -0.000501    0.000387
  (g-gl).g = 0.501E-03      g.g   = 0.501E-03  gl.gl    = 0.000E+00
 g(Force)  = 0.501E-03   g(Stress)= 0.000E+00 ortho     = 0.000E+00
 gamma     =   0.00000
 trial     =   1.00000
 opt step  =   0.60495  (harmonic =   0.56458) maximal distance =0.00153625
 next E    =   -20.796054   (d E  =  -0.00016)


--------------------------------------------------------------------------------------------------------


    WAVPRE:  cpu time    0.39: real time    0.39
 FEWALD executed in parallel
    FEWALD:  cpu time    0.00: real time    0.00

 real space projection operators:
  total allocation   :       1743.83 KBytes
  max/ min on nodes  :        441.80        429.81

    ORTHCH:  cpu time    0.65: real time    0.68
     LOOP+:  cpu time  256.33: real time  256.96


----------------------------------------- Iteration    3(   1)  ---------------------------------------


    POTLOK:  cpu time    4.93: real time    5.03
    SETDIJ:  cpu time    5.15: real time    5.16
     EDDAV:  cpu time    5.92: real time    5.94
       DOS:  cpu time    0.00: real time    0.00
    CHARGE:  cpu time    4.29: real time    4.30
    MIXING:  cpu time    0.11: real time    0.11
    --------------------------------------------
      LOOP:  cpu time   20.41: real time   20.55

 eigenvalue-minimisations  :   160
 total energy-change (2. order) : 0.2261064E-03  (-0.4083360E-02)
 number of electron      64.0000000 magnetization       7.9999974
 augmentation part        4.0183086 magnetization       2.1232146

  free energy =  -0.207957524448E+02  energy without entropy=  -0.207957524448E+02


--------------------------------------------------------------------------------------------------------




----------------------------------------- Iteration    3(   2)  ---------------------------------------


    POTLOK:  cpu time    5.05: real time    5.08
    SETDIJ:  cpu time    5.15: real time    5.16
     EDDAV:  cpu time    5.90: real time    5.92
       DOS:  cpu time    0.00: real time    0.00
    CHARGE:  cpu time    4.34: real time    4.35
    MIXING:  cpu time    0.14: real time    0.14
    --------------------------------------------
      LOOP:  cpu time   20.58: real time   20.64

 eigenvalue-minimisations  :   160
 total energy-change (2. order) :-0.2577118E-03  (-0.2984838E-03)
 number of electron      64.0000000 magnetization       7.9999975
 augmentation part        4.0184201 magnetization       2.1233327

 eigenvalues of (default mixing * dielectric matrix)
  average eigenvalue GAMMA=   0.3499
  0.3499

  free energy =  -0.207960101566E+02  energy without entropy=  -0.207960101566E+02


--------------------------------------------------------------------------------------------------------




----------------------------------------- Iteration    3(   3)  ---------------------------------------


    POTLOK:  cpu time    5.01: real time    5.04
    SETDIJ:  cpu time    5.15: real time    5.16
     EDDAV:  cpu time    7.61: real time    7.73
       DOS:  cpu time    0.00: real time    0.00
    CHARGE:  cpu time    4.32: real time    4.34
    MIXING:  cpu time    0.15: real time    0.15
    --------------------------------------------
      LOOP:  cpu time   22.25: real time   22.41

 eigenvalue-minimisations  :   224
 total energy-change (2. order) :-0.2059788E-04  (-0.3783305E-05)
 number of electron      64.0000000 magnetization       7.9999972
 augmentation part        4.0185946 magnetization       2.1234858

 eigenvalues of (default mixing * dielectric matrix)
  average eigenvalue GAMMA=   0.9147
  0.9147  0.9147

  free energy =  -0.207960307545E+02  energy without entropy=  -0.207960307545E+02


--------------------------------------------------------------------------------------------------------




----------------------------------------- Iteration    3(   4)  ---------------------------------------


    POTLOK:  cpu time    4.99: real time    5.04
    SETDIJ:  cpu time    5.15: real time    5.16
     EDDAV:  cpu time    4.38: real time    4.38
       DOS:  cpu time    0.00: real time    0.00
    CHARGE:  cpu time    4.32: real time    4.34
    MIXING:  cpu time    0.17: real time    0.17
    --------------------------------------------
      LOOP:  cpu time   19.01: real time   19.09

 eigenvalue-minimisations  :   104
 total energy-change (2. order) : 0.3853700E-05  (-0.9190628E-07)
 number of electron      64.0000000 magnetization       8.0000005
 augmentation part        4.0186283 magnetization       2.1234799

 eigenvalues of (default mixing * dielectric matrix)
  average eigenvalue GAMMA=   3.9793
  9.6155  0.8862  1.4363

  free energy =  -0.207960269008E+02  energy without entropy=  -0.207960269008E+02


--------------------------------------------------------------------------------------------------------




----------------------------------------- Iteration    3(   5)  ---------------------------------------


    POTLOK:  cpu time    5.01: real time    5.02
    SETDIJ:  cpu time    5.12: real time    5.13
     EDDAV:  cpu time    6.31: real time    6.32
       DOS:  cpu time    0.00: real time    0.00
    CHARGE:  cpu time    4.34: real time    4.35
    MIXING:  cpu time    0.19: real time    0.19
    --------------------------------------------
      LOOP:  cpu time   20.97: real time   21.02

 eigenvalue-minimisations  :   176
 total energy-change (2. order) :-0.2386671E-04  (-0.5320520E-05)
 number of electron      64.0000000 magnetization       8.0000009
 augmentation part        4.0183222 magnetization       2.1235839

 eigenvalues of (default mixing * dielectric matrix)
  average eigenvalue GAMMA=   4.1500
 11.5959  3.0370  0.9835  0.9835

  free energy =  -0.207960507675E+02  energy without entropy=  -0.207960507675E+02


--------------------------------------------------------------------------------------------------------




----------------------------------------- Iteration    3(   6)  ---------------------------------------


    POTLOK:  cpu time    5.01: real time    5.07
    SETDIJ:  cpu time    5.08: real time    5.09
     EDDAV:  cpu time    6.55: real time    6.57
       DOS:  cpu time    0.00: real time    0.00
    --------------------------------------------
      LOOP:  cpu time   16.64: real time   16.73

 eigenvalue-minimisations  :   184
 total energy-change (2. order) : 0.4560061E-06  (-0.6377784E-06)
 number of electron      64.0000000 magnetization       8.0000009
 augmentation part        4.0183222 magnetization       2.1235839

  free energy =  -0.207960503115E+02  energy without entropy=  -0.207960503115E+02


--------------------------------------------------------------------------------------------------------




 average (electrostatic) potential at core
  the test charge radii are     1.0325
  (the norm of the test charge is              1.0000)
       1 -85.5660       2 -85.5660       3 -85.5658       4 -85.5661
 
 
 
 E-fermi :  -3.3642     XC(G=0):  -0.5006     alpha+bet : -0.1729


 spin component 1

 k-point     1 :       0.0000    0.0000    0.0000
  band No.  band energies     occupation 
      1     -76.5439      1.00000
      2     -76.3782      1.00000
      3     -76.3781      1.00000
      4     -76.2182      1.00000
      5     -47.1290      1.00000
      6     -47.0157      1.00000
      7     -46.9470      1.00000
      8     -46.9466      1.00000
      9     -46.6301      1.00000
     10     -46.4970      1.00000
     11     -46.4969      1.00000
     12     -46.4003      1.00000
     13     -46.0163      1.00000
     14     -46.0163      1.00000
     15     -45.9174      1.00000
     16     -45.9154      1.00000
     17      -8.1907      1.00000
     18      -7.4734      1.00000
     19      -7.2411      1.00000
     20      -6.7450      1.00000
     21      -6.7154      1.00000
     22      -6.7153      1.00000
     23      -6.5582      1.00000
     24      -6.5574      1.00000
     25      -6.4434      1.00000
     26      -5.7316      1.00000
     27      -5.1311      1.00000
     28      -5.1308      1.00000
     29      -4.5098      1.00000
     30      -4.5095      1.00000
     31      -4.4312      1.00000
     32      -4.2140      1.00000
     33      -4.1071      1.00000
     34      -4.1069      1.00000
     35      -3.8754      1.00000
     36      -3.4685      1.00000
     37      -3.1487      0.00000
     38      -3.1487      0.00000
     39      -2.4888      0.00000
     40      -1.9562      0.00000

 spin component 2

 k-point     1 :       0.0000    0.0000    0.0000
  band No.  band energies     occupation 
      1     -75.3234      1.00000
      2     -75.1521      1.00000
      3     -75.1519      1.00000
      4     -74.9868      1.00000
      5     -46.0277      1.00000
      6     -45.8726      1.00000
      7     -45.8123      1.00000
      8     -45.8119      1.00000
      9     -45.0193      1.00000
     10     -44.9103      1.00000
     11     -44.9102      1.00000
     12     -44.8254      1.00000
     13     -44.8254      1.00000
     14     -44.7789      1.00000
     15     -44.7651      1.00000
     16     -44.7267      1.00000
     17      -7.4132      1.00000
     18      -6.7868      1.00000
     19      -6.0868      1.00000
     20      -6.0090      1.00000
     21      -5.9028      1.00000
     22      -5.9026      1.00000
     23      -5.3606      1.00000
     24      -5.3597      1.00000
     25      -5.2640      1.00000
     26      -4.5589      1.00000
     27      -4.1125      1.00000
     28      -4.1120      1.00000
     29      -2.9096      0.00000
     30      -2.9092      0.00000
     31      -2.7658      0.00000
     32      -2.6588      0.00000
     33      -2.6586      0.00000
     34      -2.5054      0.00000
     35      -2.4934      0.00000
     36      -2.4264      0.00000
     37      -2.4263      0.00000
     38      -2.2068      0.00000
     39      -1.6388      0.00000
     40      -1.4043      0.00000


--------------------------------------------------------------------------------------------------------


 soft charge-density along one line, spin component           1
         0         1         2         3         4         5         6         7         8         9
 total charge-density along one line
 
 soft charge-density along one line, spin component           2
         0         1         2         3         4         5         6         7         8         9
 total charge-density along one line
 
 pseudopotential strength for first ion, spin component:           1
 12.046   0.000  11.367   0.000   2.523   0.000   0.013   0.000  -0.008   0.000  -0.038   0.000  -0.006   0.000   0.003   0.000
 11.367   0.000  10.724   0.000   2.297   0.000   0.012   0.000  -0.008   0.000  -0.036   0.000  -0.006   0.000   0.003   0.000
  2.523   0.000   2.297   0.000   9.601   0.000   0.005   0.000  -0.002   0.000  -0.015   0.000  -0.008   0.000   0.005   0.000
  0.013   0.000   0.012   0.000   0.005   0.000 -33.187   0.000   0.003   0.000  -0.005   0.000  15.380   0.000  -0.003   0.000
 -0.008   0.000  -0.008   0.000  -0.002   0.000   0.003   0.000 -33.177   0.000  -0.008   0.000  -0.003   0.000  15.385   0.000
 -0.038   0.000  -0.036   0.000  -0.015   0.000  -0.005   0.000  -0.008   0.000 -33.173   0.000   0.005   0.000   0.009   0.000
 -0.006   0.000  -0.006   0.000  -0.008   0.000  15.380   0.000  -0.003   0.000   0.005   0.000   7.886   0.000   0.003   0.000
  0.003   0.000   0.003   0.000   0.005   0.000  -0.003   0.000  15.385   0.000   0.009   0.000   0.003   0.000   7.896   0.000
  0.018   0.000   0.017   0.000   0.024   0.000   0.005   0.000   0.009   0.000  15.367   0.000  -0.006   0.000  -0.009   0.000
 -0.005   0.000  -0.005   0.000  -0.005   0.000  -0.014   0.000   0.001   0.000   0.000   0.000   0.007   0.000  -0.001   0.000
  0.003   0.000   0.003   0.000   0.002   0.000  -0.002   0.000   0.003   0.000   0.001   0.000  -0.001   0.000  -0.004   0.000
 -0.003   0.000  -0.003   0.000  -0.001   0.000  -0.003   0.000  -0.002   0.000   0.008   0.000   0.001   0.000   0.003   0.000
 -0.010   0.000  -0.010   0.000  -0.005   0.000   0.001   0.000  -0.010   0.000  -0.004   0.000  -0.001   0.000   0.012   0.000
  0.006   0.000   0.006   0.000   0.006   0.000  -0.008   0.000  -0.001   0.000  -0.009   0.000   0.000   0.000   0.001   0.000
 -0.005   0.000  -0.005   0.000  -0.005   0.000  -0.015   0.000   0.001   0.000   0.000   0.000   0.007   0.000  -0.001   0.000
  0.004   0.000   0.003   0.000   0.002   0.000  -0.002   0.000   0.004   0.000   0.001   0.000  -0.001   0.000  -0.004   0.000
 -0.003   0.000  -0.002   0.000  -0.001   0.000  -0.003   0.000  -0.002   0.000   0.008   0.000   0.001   0.000   0.003   0.000
 -0.010   0.000  -0.010   0.000  -0.005   0.000   0.001   0.000  -0.010   0.000  -0.004   0.000  -0.001   0.000   0.012   0.000
  0.007   0.000   0.006   0.000   0.006   0.000  -0.008   0.000  -0.001   0.000  -0.010   0.000   0.000   0.000   0.001   0.000
 -0.002   0.000  -0.002   0.000   0.002   0.000   0.002   0.000   0.001   0.000  -0.003   0.000  -0.001   0.000  -0.001   0.000
  0.000   0.000   0.000   0.000   0.000   0.000  -0.002   0.000   0.001   0.000   0.002   0.000   0.001   0.000  -0.002   0.000
 -0.000   0.000  -0.000   0.000   0.000   0.000   0.002   0.000  -0.000   0.000   0.002   0.000   0.001   0.000   0.000   0.000
  0.000   0.000   0.000   0.000  -0.000   0.000  -0.001   0.000   0.001   0.000   0.003   0.000   0.001   0.000   0.000   0.000
  0.001   0.000   0.001   0.000  -0.001   0.000   0.002   0.000   0.000   0.000  -0.002   0.000  -0.002   0.000  -0.001   0.000
 -0.000   0.000  -0.000   0.000  -0.000   0.000  -0.000   0.000  -0.001   0.000  -0.003   0.000  -0.001   0.000   0.002   0.000
  0.001   0.000   0.001   0.000  -0.001   0.000   0.000   0.000  -0.000   0.000   0.002   0.000  -0.003   0.000   0.001   0.000
 pseudopotential strength for first ion, spin component:           2
 11.027   0.000  10.402   0.000   1.930   0.000   0.015   0.000  -0.009   0.000  -0.044   0.000   0.002   0.000   0.001   0.000
 10.402   0.000   9.811   0.000   1.738   0.000   0.014   0.000  -0.009   0.000  -0.042   0.000   0.002   0.000   0.001   0.000
  1.930   0.000   1.738   0.000   9.139   0.000  -0.001   0.000  -0.001   0.000   0.002   0.000  -0.004   0.000   0.004   0.000
  0.015   0.000   0.014   0.000  -0.001   0.000 -33.106   0.000   0.002   0.000  -0.001   0.000  15.172   0.000  -0.003   0.000
 -0.009   0.000  -0.009   0.000  -0.001   0.000   0.002   0.000 -33.089   0.000  -0.006   0.000  -0.003   0.000  15.122   0.000
 -0.044   0.000  -0.042   0.000   0.002   0.000  -0.001   0.000  -0.006   0.000 -33.104   0.000  -0.005   0.000   0.007   0.000
  0.002   0.000   0.002   0.000  -0.004   0.000  15.172   0.000  -0.003   0.000  -0.005   0.000   8.009   0.000   0.001   0.000
  0.001   0.000   0.001   0.000   0.004   0.000  -0.003   0.000  15.122   0.000   0.007   0.000   0.001   0.000   8.019   0.000
 -0.007   0.000  -0.007   0.000   0.012   0.000  -0.005   0.000   0.007   0.000  15.185   0.000   0.003   0.000  -0.001   0.000
  0.002   0.000   0.002   0.000   0.002   0.000  -0.009   0.000  -0.001   0.000  -0.013   0.000  -0.002   0.000   0.001   0.000
  0.003   0.000   0.003   0.000  -0.000   0.000  -0.006   0.000  -0.004   0.000  -0.001   0.000   0.003   0.000   0.005   0.000
  0.027   0.000   0.026   0.000   0.005   0.000  -0.003   0.000   0.003   0.000   0.008   0.000   0.000   0.000  -0.002   0.000
 -0.009   0.000  -0.008   0.000   0.000   0.000  -0.001   0.000   0.013   0.000  -0.002   0.000   0.001   0.000  -0.014   0.000
 -0.003   0.000  -0.003   0.000  -0.003   0.000  -0.013   0.000   0.002   0.000   0.008   0.000   0.004   0.000  -0.002   0.000
  0.002   0.000   0.002   0.000   0.002   0.000  -0.009   0.000  -0.001   0.000  -0.013   0.000  -0.002   0.000   0.001   0.000
  0.003   0.000   0.003   0.000  -0.000   0.000  -0.006   0.000  -0.004   0.000  -0.001   0.000   0.003   0.000   0.005   0.000
  0.027   0.000   0.026   0.000   0.005   0.000  -0.003   0.000   0.003   0.000   0.008   0.000   0.000   0.000  -0.002   0.000
 -0.009   0.000  -0.009   0.000   0.000   0.000  -0.001   0.000   0.013   0.000  -0.002   0.000   0.001   0.000  -0.014   0.000
 -0.003   0.000  -0.003   0.000  -0.003   0.000  -0.014   0.000   0.002   0.000   0.008   0.000   0.004   0.000  -0.002   0.000
 -0.003   0.000  -0.003   0.000  -0.000   0.000  -0.002   0.000  -0.001   0.000  -0.005   0.000   0.003   0.000   0.002   0.000
 -0.000   0.000  -0.000   0.000  -0.000   0.000  -0.002   0.000   0.001   0.000  -0.000   0.000   0.003   0.000   0.002   0.000
 -0.001   0.000  -0.001   0.000  -0.000   0.000   0.003   0.000  -0.000   0.000   0.000   0.000  -0.008   0.000  -0.002   0.000
  0.001   0.000   0.001   0.000   0.000   0.000  -0.001   0.000   0.000   0.000   0.002   0.000   0.000   0.000  -0.008   0.000
  0.002   0.000   0.002   0.000   0.001   0.000   0.000   0.000   0.001   0.000   0.003   0.000   0.002   0.000   0.005   0.000
  0.000   0.000   0.000   0.000   0.000   0.000  -0.001   0.000  -0.001   0.000  -0.001   0.000   0.002   0.000  -0.002   0.000
  0.002   0.000   0.002   0.000   0.000   0.000  -0.005   0.000   0.000   0.000   0.001   0.000   0.007   0.000  -0.001   0.000
 total augmentation occupancy for first ion, spin component:           1
 70.016 -70.248   0.790  -0.120   0.066   0.351   0.207  -0.124  -0.607  -0.548  -0.424  -6.762   1.160   0.705   0.084   0.553
-70.248  72.571  -0.792   0.123  -0.068  -0.361  -0.211   0.127   0.619   0.562   0.439   6.957  -1.199  -0.723  -0.086  -0.570
  0.790  -0.792   0.009  -0.002   0.001   0.006   0.002  -0.001  -0.007  -0.005  -0.005  -0.076   0.013   0.006  -0.000   0.006
 -0.120   0.123  -0.002   2.003   0.000  -0.000  -0.017   0.000  -0.000  -0.056  -0.016  -0.009  -0.001  -0.061   0.019   0.008
  0.066  -0.068   0.001   0.000   2.004  -0.000   0.000  -0.018  -0.000  -0.003  -0.009   0.010   0.025   0.004   0.002   0.013
  0.351  -0.361   0.006  -0.000  -0.000   2.003  -0.000  -0.000  -0.016  -0.046  -0.001   0.026  -0.014   0.015   0.036   0.001
  0.207  -0.211   0.002  -0.017   0.000  -0.000   0.013  -0.000  -0.000  -0.043  -0.003  -0.018   0.003   0.016   0.095   0.014
 -0.124   0.127  -0.001   0.000  -0.018  -0.000  -0.000   0.008   0.001   0.007   0.031  -0.013  -0.090  -0.010  -0.005  -0.033
 -0.607   0.619  -0.007  -0.000  -0.000  -0.016  -0.000   0.001   0.013   0.063   0.003   0.053  -0.010  -0.095  -0.038  -0.003
 -0.548   0.562  -0.005  -0.056  -0.003  -0.046  -0.043   0.007   0.063   2.345  -0.110   0.189  -0.043  -1.185  -1.602  -0.055
 -0.424   0.439  -0.005  -0.016  -0.009  -0.001  -0.003   0.031   0.003  -0.110   3.092  -0.033  -0.015  -0.090  -0.054  -1.444
 -6.762   6.957  -0.076  -0.009   0.010   0.026  -0.018  -0.013   0.053   0.189  -0.033   3.022   0.094  -0.243  -0.127   0.006
  1.160  -1.199   0.013  -0.001   0.025  -0.014   0.003  -0.090  -0.010  -0.043  -0.015   0.094   3.136  -0.018   0.051   0.052
  0.705  -0.723   0.006  -0.061   0.004   0.015   0.016  -0.010  -0.095  -1.185  -0.090  -0.243  -0.018   2.961   0.555   0.001
  0.084  -0.086  -0.000   0.019   0.002   0.036   0.095  -0.005  -0.038  -1.602  -0.054  -0.127   0.051   0.555   2.230   0.178
  0.553  -0.570   0.006   0.008   0.013   0.001   0.014  -0.033  -0.003  -0.055  -1.444   0.006   0.052   0.001   0.178   1.352
  6.491  -6.679   0.072   0.002  -0.011  -0.005   0.028   0.011  -0.083  -0.124   0.005  -1.461  -0.015   0.160   0.101  -0.000
 -1.534   1.583  -0.017   0.001  -0.038   0.006  -0.003   0.097   0.021   0.051   0.052  -0.017  -1.582  -0.092  -0.047  -0.055
 -0.106   0.110   0.000   0.033  -0.002  -0.027   0.029   0.006   0.102   0.555   0.001   0.163  -0.091  -1.891  -0.107   0.072
 -0.375   0.386  -0.004   0.005   0.001   0.004  -0.002   0.000  -0.000  -0.079   0.008   0.021  -0.001   0.081   0.111  -0.005
 -0.012   0.012  -0.000   0.003  -0.001  -0.000   0.001  -0.000  -0.000  -0.005  -0.070   0.001   0.003   0.005   0.022   0.088
 -0.101   0.104  -0.001  -0.007  -0.000   0.000  -0.006  -0.000   0.000   0.031  -0.013   0.022  -0.001   0.012  -0.066   0.014
  0.138  -0.142   0.002   0.001  -0.004  -0.002   0.001  -0.007  -0.002  -0.001  -0.024  -0.005   0.070   0.002   0.002   0.030
  0.299  -0.308   0.003   0.000   0.001  -0.007   0.000   0.001  -0.006  -0.008  -0.001  -0.064  -0.010   0.029  -0.000   0.001
  0.020  -0.020   0.000   0.002   0.002   0.002   0.000   0.001   0.001   0.005  -0.037  -0.002  -0.048  -0.008  -0.001   0.056
  0.248  -0.255   0.003   0.009  -0.000   0.001  -0.002  -0.000  -0.001   0.029   0.010  -0.014   0.005  -0.071   0.012  -0.003
 total augmentation occupancy for first ion, spin component:           2
  9.985 -10.027   0.105  -0.004   0.011   0.011  -0.016  -0.020   0.048   1.353  -0.496  -3.200   1.396  -1.744  -0.580   0.164
-10.027  10.059  -0.115   0.004  -0.011  -0.011   0.017   0.021  -0.050  -1.390   0.510   3.275  -1.434   1.792   0.598  -0.169
  0.105  -0.115   0.001  -0.000   0.000   0.000  -0.000  -0.000   0.001   0.016  -0.006  -0.039   0.016  -0.021  -0.007   0.002
 -0.004   0.004  -0.000   0.001  -0.000  -0.000   0.002   0.000  -0.000   0.015  -0.014   0.004  -0.007  -0.012  -0.010   0.009
  0.011  -0.011   0.000  -0.000   0.003   0.000   0.000   0.005  -0.001  -0.004  -0.023   0.014   0.068   0.005   0.003   0.014
  0.011  -0.011   0.000  -0.000   0.000   0.002  -0.000  -0.001   0.003  -0.033  -0.007  -0.011   0.004   0.045   0.021   0.004
 -0.016   0.017  -0.000   0.002   0.000  -0.000  -0.001   0.000  -0.001  -0.008   0.020  -0.006   0.009   0.023  -0.002  -0.011
 -0.020   0.021  -0.000   0.000   0.005  -0.001   0.000   0.002  -0.000   0.004   0.029  -0.019  -0.085  -0.006  -0.002  -0.012
  0.048  -0.050   0.001  -0.000  -0.001   0.003  -0.001  -0.000   0.001   0.043   0.009   0.017  -0.005  -0.052  -0.023  -0.004
  1.353  -1.390   0.016   0.015  -0.004  -0.033  -0.008   0.004   0.043   1.070  -0.180  -0.176  -0.274  -0.902  -0.499   0.097
 -0.496   0.510  -0.006  -0.014  -0.023  -0.007   0.020   0.029   0.009  -0.180   2.936  -0.020   0.009  -0.278   0.095  -1.498
 -3.200   3.275  -0.039   0.004   0.014  -0.011  -0.006  -0.019   0.017  -0.176  -0.020   2.337   0.052   0.230   0.068   0.030
  1.396  -1.434   0.016  -0.007   0.068   0.004   0.009  -0.085  -0.005  -0.274   0.009   0.052   2.922   0.190   0.160  -0.043
 -1.744   1.792  -0.021  -0.012   0.005   0.045   0.023  -0.006  -0.052  -0.902  -0.278   0.230   0.190   1.541   0.517   0.155
 -0.580   0.598  -0.007  -0.010   0.003   0.021  -0.002  -0.002  -0.023  -0.499   0.095   0.068   0.160   0.517   0.145  -0.057
  0.164  -0.169   0.002   0.009   0.014   0.004  -0.011  -0.012  -0.004   0.097  -1.498   0.030  -0.043   0.155  -0.057   0.691
  1.183  -1.206   0.014  -0.002  -0.009   0.004   0.001   0.010  -0.003   0.060   0.030  -1.051  -0.082  -0.079  -0.008  -0.023
 -0.459   0.473  -0.005   0.004  -0.041  -0.002  -0.004   0.034   0.001   0.157  -0.043  -0.083  -1.392  -0.112  -0.085   0.039
  0.748  -0.771   0.009   0.008  -0.004  -0.029  -0.016   0.003   0.024   0.517   0.156  -0.090  -0.117  -0.769  -0.286  -0.087
 -0.121   0.123  -0.001  -0.002  -0.002  -0.005   0.000  -0.000  -0.001  -0.032  -0.002   0.029   0.007   0.035   0.012   0.002
  0.003  -0.003   0.000  -0.002  -0.003  -0.002  -0.000  -0.000  -0.000   0.005  -0.080   0.000  -0.009   0.016  -0.003   0.035
 -0.031   0.032  -0.000   0.010   0.002  -0.002  -0.000  -0.000   0.000   0.013  -0.023   0.021  -0.003   0.004  -0.005   0.012
  0.041  -0.042   0.000   0.000   0.010  -0.001   0.000  -0.002  -0.000  -0.003  -0.021  -0.005   0.061   0.005   0.002   0.008
  0.091  -0.093   0.001  -0.002  -0.005   0.016   0.000   0.001  -0.001  -0.004  -0.003  -0.061  -0.014   0.012   0.003   0.002
 -0.003   0.003  -0.000  -0.003   0.004   0.001  -0.000   0.000   0.000   0.016  -0.050  -0.000  -0.041  -0.003  -0.009   0.023
  0.080  -0.081   0.001  -0.006   0.001   0.001  -0.000   0.000   0.001   0.014   0.002  -0.019  -0.004  -0.029  -0.010  -0.001


------------------------ aborting loop because EDIFF is reached ----------------------------------------


 


 total charge     
 
# of ion     s       p       d       f       tot
------------------------------------------------
  1        2.790   5.974   5.881   0.031  14.676
  2        2.790   5.974   5.881   0.031  14.676
  3        2.790   5.974   5.881   0.031  14.676
  4        2.790   5.974   5.881   0.031  14.676
------------------------------------------------
tot       11.159  23.896  23.525   0.125  58.704

 


 magnetization (x)
 
# of ion     s       p       d       f       tot
------------------------------------------------
  1        0.100   0.008   1.625   0.005   1.738
  2        0.100   0.008   1.625   0.005   1.738
  3        0.100   0.008   1.625   0.005   1.738
  4        0.100   0.008   1.625   0.005   1.738
------------------------------------------------
tot        0.401   0.031   6.499   0.020   6.951

 
    CHARGE:  cpu time    4.33: real time    4.36
    FORLOC:  cpu time    0.07: real time    0.07
    FORNL :  cpu time   23.61: real time   23.68
    FORCOR:  cpu time    9.75: real time    9.77
    FORHAR:  cpu time    0.66: real time    0.66
    MIXING:  cpu time    0.20: real time    0.20
    OFIELD:  cpu time    0.00: real time    0.00

 VOLUME and BASIS-vectors are now :
 -----------------------------------------------------------------------------
  energy-cutoff  :      500.00
  volume of cell :     4913.00
      direct lattice vectors                 reciprocal lattice vectors
    17.000000000  0.000000000  0.000000000     0.058823529  0.000000000  0.000000000
     0.000000000 17.000000000  0.000000000     0.000000000  0.058823529  0.000000000
     0.000000000  0.000000000 17.000000000     0.000000000  0.000000000  0.058823529

  length of vectors
    17.000000000 17.000000000 17.000000000     0.058823529  0.058823529  0.058823529


 FORCES acting on ions
    electron-ion (+dipol)            ewald-force                    non-local-force                 convergence-correction
 -----------------------------------------------------------------------------------------------
   0.128E+04 -.436E+03 0.109E+03   -.127E+04 0.434E+03 -.107E+03   -.746E+01 0.255E+01 -.138E+01   0.524E-01 -.172E-01 -.793E-02
   -.475E+03 -.123E+04 -.320E+03   0.473E+03 0.122E+04 0.317E+03   0.285E+01 0.701E+01 0.259E+01   -.234E-01 -.633E-01 -.854E-02
   -.118E+04 0.403E+03 0.537E+03   0.117E+04 -.401E+03 -.533E+03   0.665E+01 -.228E+01 -.384E+01   -.529E-01 0.212E-01 0.865E-02
   0.374E+03 0.126E+04 -.326E+03   -.372E+03 -.125E+04 0.323E+03   -.204E+01 -.728E+01 0.263E+01   0.188E-01 0.662E-01 -.757E-02
 -----------------------------------------------------------------------------------------------
   0.362E-02 -.882E-02 0.153E-01   0.114E-12 -.227E-12 -.568E-13   -.277E-02 0.276E-02 0.978E-03   -.507E-02 0.688E-02 -.154E-01
 
 
 POSITION                                       TOTAL-FORCE (eV/Angst)
 -----------------------------------------------------------------------------------
     15.48214      0.51853     16.99054        -0.001554      0.002073     -0.005018
      0.55285      1.48233      0.26324         0.002523      0.002307      0.003740
      1.43429     16.50878     16.47548         0.001467     -0.000430     -0.003950
     16.53073     15.49036      0.27074        -0.002437     -0.003950      0.005228
 -----------------------------------------------------------------------------------
    total drift:                               -0.004224      0.000823      0.000895


--------------------------------------------------------------------------------------------------------



  FREE ENERGIE OF THE ION-ELECTRON SYSTEM (eV)
  ---------------------------------------------------
  free  energy   TOTEN  =       -20.79605031 eV

  energy  without entropy=      -20.79605031  energy(sigma->0) =      -20.79605031
 
 d Force = 0.8375319E-04[ 0.147E-04, 0.153E-03]  d Energy = 0.7091614E-04 0.128E-04
 d Force = 0.5204622E+01[ 0.520E+01, 0.521E+01]  d Ewald  = 0.5204621E+01 0.946E-06


--------------------------------------------------------------------------------------------------------


    POTLOK:  cpu time   10.20: real time   10.23


--------------------------------------------------------------------------------------------------------




--------------------------------------------------------------------------------------------------------


  
 reached required accuracy - stopping structural energy minimisation
     LOOP+:  cpu time  168.68: real time  169.41
    4ORBIT:  cpu time    0.00: real time    0.00
 


 total charge     
 
# of ion     s       p       d       f       tot
------------------------------------------------
  1        2.790   5.974   5.881   0.031  14.676
  2        2.790   5.974   5.881   0.031  14.676
  3        2.790   5.974   5.881   0.031  14.676
  4        2.790   5.974   5.881   0.031  14.676
------------------------------------------------
tot       11.159  23.896  23.525   0.125  58.704

 


 magnetization (x)
 
# of ion     s       p       d       f       tot
------------------------------------------------
  1        0.100   0.008   1.625   0.005   1.738
  2        0.100   0.008   1.625   0.005   1.738
  3        0.100   0.008   1.625   0.005   1.738
  4        0.100   0.008   1.625   0.005   1.738
------------------------------------------------
tot        0.401   0.031   6.499   0.020   6.951

 

 total amount of memory used by VASP on root node   431001. kBytes
========================================================================

   base      :      30000. kBytes
   nonlr-proj:        528. kBytes
   fftplans  :     263088. kBytes
   grid      :     127401. kBytes
   one-center:         32. kBytes
   wavefun   :       9952. kBytes
 
  
  
 General timing and accounting informations for this job:
 ========================================================
  
                  Total CPU time used (sec):     1175.565
                            User time (sec):     1097.090
                          System time (sec):       78.475
                         Elapsed time (sec):     1179.584
  
                   Maximum memory used (kb):      786412.
                   Average memory used (kb):           0.
  
                          Minor page faults:       231217
                          Major page faults:            6
                 Voluntary context switches:          604
