CuRu                                    
   1.00000000000000     
    17.0000000000000000    0.0000000000000000    0.0000000000000000
     0.0000000000000000   17.0000000000000000    0.0000000000000000
     0.0000000000000000    0.0000000000000000   17.0000000000000000
   Ru
     4
Direct
  0.9107138385080557  0.0305018795697096  0.9994437714122844
  0.0325203969820579  0.0871957155195327  0.0154845937038702
  0.0843697162437447  0.9711047601155693  0.9691459808845621
  0.9723961070896726  0.9111977036187122  0.0159256539992834
 
  0.00000000E+00  0.00000000E+00  0.00000000E+00
  0.00000000E+00  0.00000000E+00  0.00000000E+00
  0.00000000E+00  0.00000000E+00  0.00000000E+00
  0.00000000E+00  0.00000000E+00  0.00000000E+00
