PROCAR new format
# of k-points:    1         # of bands:  40         # of ions:   4

 k-point    1 :    0.00000000 0.00000000 0.00000000     weight = 1.00000000

band   1 # energy  -76.54385903 # occ.  1.00000000
 
ion      s      p      d      f    tot
  1  0.252  0.000  0.000  0.000  0.252
  2  0.252  0.000  0.000  0.000  0.252
  3  0.251  0.000  0.000  0.000  0.251
  4  0.252  0.000  0.000  0.000  0.252
tot  1.006  0.000  0.000  0.000  1.006
 
band   2 # energy  -76.37821676 # occ.  1.00000000
 
ion      s      p      d      f    tot
  1  0.002  0.000  0.000  0.000  0.003
  2  0.500  0.000  0.000  0.000  0.500
  3  0.002  0.000  0.000  0.000  0.003
  4  0.501  0.000  0.000  0.000  0.501
tot  1.006  0.000  0.000  0.000  1.006
 
band   3 # energy  -76.37805998 # occ.  1.00000000
 
ion      s      p      d      f    tot
  1  0.500  0.000  0.000  0.000  0.500
  2  0.002  0.000  0.000  0.000  0.003
  3  0.501  0.000  0.000  0.000  0.501
  4  0.002  0.000  0.000  0.000  0.003
tot  1.006  0.000  0.000  0.000  1.006
 
band   4 # energy  -76.21821961 # occ.  1.00000000
 
ion      s      p      d      f    tot
  1  0.251  0.000  0.000  0.000  0.251
  2  0.251  0.000  0.000  0.000  0.251
  3  0.251  0.000  0.000  0.000  0.251
  4  0.251  0.000  0.000  0.000  0.251
tot  1.005  0.000  0.000  0.000  1.005
 
band   5 # energy  -47.12901722 # occ.  1.00000000
 
ion      s      p      d      f    tot
  1  0.000  0.245  0.000  0.000  0.246
  2  0.000  0.244  0.000  0.000  0.245
  3  0.000  0.243  0.000  0.000  0.243
  4  0.000  0.244  0.000  0.000  0.244
tot  0.002  0.976  0.001  0.000  0.979
 
band   6 # energy  -47.01571110 # occ.  1.00000000
 
ion      s      p      d      f    tot
  1  0.000  0.248  0.000  0.000  0.248
  2  0.000  0.246  0.000  0.000  0.246
  3  0.000  0.241  0.000  0.000  0.241
  4  0.000  0.243  0.000  0.000  0.244
tot  0.000  0.978  0.002  0.000  0.980
 
band   7 # energy  -46.94702484 # occ.  1.00000000
 
ion      s      p      d      f    tot
  1  0.000  0.255  0.000  0.000  0.255
  2  0.000  0.234  0.000  0.000  0.235
  3  0.000  0.257  0.000  0.000  0.257
  4  0.000  0.236  0.000  0.000  0.236
tot  0.001  0.981  0.001  0.000  0.984
 
band   8 # energy  -46.94659096 # occ.  1.00000000
 
ion      s      p      d      f    tot
  1  0.000  0.231  0.000  0.000  0.232
  2  0.000  0.255  0.000  0.000  0.255
  3  0.000  0.238  0.000  0.000  0.239
  4  0.000  0.257  0.000  0.000  0.257
tot  0.001  0.981  0.001  0.000  0.984
 
band   9 # energy  -46.63007004 # occ.  1.00000000
 
ion      s      p      d      f    tot
  1  0.000  0.247  0.000  0.000  0.247
  2  0.000  0.247  0.000  0.000  0.247
  3  0.000  0.247  0.000  0.000  0.247
  4  0.000  0.247  0.000  0.000  0.247
tot  0.000  0.987  0.000  0.000  0.987
 
band  10 # energy  -46.49701178 # occ.  1.00000000
 
ion      s      p      d      f    tot
  1  0.000  0.004  0.000  0.000  0.004
  2  0.000  0.491  0.000  0.000  0.491
  3  0.000  0.004  0.000  0.000  0.004
  4  0.000  0.492  0.000  0.000  0.492
tot  0.000  0.991  0.000  0.000  0.991
 
band  11 # energy  -46.49693056 # occ.  1.00000000
 
ion      s      p      d      f    tot
  1  0.000  0.491  0.000  0.000  0.491
  2  0.000  0.004  0.000  0.000  0.004
  3  0.000  0.492  0.000  0.000  0.492
  4  0.000  0.004  0.000  0.000  0.004
tot  0.000  0.991  0.000  0.000  0.991
 
band  12 # energy  -46.40025281 # occ.  1.00000000
 
ion      s      p      d      f    tot
  1  0.000  0.249  0.000  0.000  0.249
  2  0.000  0.249  0.000  0.000  0.249
  3  0.000  0.248  0.000  0.000  0.248
  4  0.000  0.248  0.000  0.000  0.248
tot  0.000  0.994  0.000  0.000  0.994
 
band  13 # energy  -46.01631963 # occ.  1.00000000
 
ion      s      p      d      f    tot
  1  0.000  0.242  0.000  0.000  0.243
  2  0.000  0.256  0.000  0.000  0.256
  3  0.000  0.243  0.000  0.000  0.244
  4  0.000  0.257  0.000  0.000  0.257
tot  0.001  0.998  0.001  0.000  1.000
 
band  14 # energy  -46.01627486 # occ.  1.00000000
 
ion      s      p      d      f    tot
  1  0.000  0.256  0.000  0.000  0.256
  2  0.000  0.242  0.000  0.000  0.243
  3  0.000  0.257  0.000  0.000  0.257
  4  0.000  0.243  0.000  0.000  0.243
tot  0.001  0.998  0.001  0.000  1.000
 
band  15 # energy  -45.91744253 # occ.  1.00000000
 
ion      s      p      d      f    tot
  1  0.001  0.250  0.000  0.000  0.251
  2  0.001  0.250  0.000  0.000  0.251
  3  0.000  0.250  0.000  0.000  0.250
  4  0.001  0.250  0.000  0.000  0.250
tot  0.002  1.000  0.001  0.000  1.003
 
band  16 # energy  -45.91538638 # occ.  1.00000000
 
ion      s      p      d      f    tot
  1  0.000  0.251  0.000  0.000  0.251
  2  0.000  0.250  0.000  0.000  0.251
  3  0.000  0.249  0.000  0.000  0.250
  4  0.000  0.250  0.000  0.000  0.250
tot  0.000  1.000  0.001  0.000  1.002
 
band  17 # energy   -8.19065300 # occ.  1.00000000
 
ion      s      p      d      f    tot
  1  0.019  0.002  0.186  0.001  0.208
  2  0.019  0.002  0.186  0.001  0.208
  3  0.019  0.002  0.186  0.001  0.208
  4  0.019  0.002  0.186  0.001  0.208
tot  0.074  0.009  0.743  0.005  0.832
 
band  18 # energy   -7.47343555 # occ.  1.00000000
 
ion      s      p      d      f    tot
  1  0.000  0.002  0.229  0.001  0.232
  2  0.000  0.002  0.229  0.001  0.232
  3  0.000  0.002  0.228  0.001  0.231
  4  0.000  0.002  0.229  0.001  0.232
tot  0.000  0.006  0.915  0.005  0.927
 
band  19 # energy   -7.24106068 # occ.  1.00000000
 
ion      s      p      d      f    tot
  1  0.001  0.001  0.192  0.001  0.195
  2  0.001  0.001  0.192  0.001  0.195
  3  0.001  0.001  0.192  0.001  0.194
  4  0.001  0.001  0.192  0.001  0.195
tot  0.003  0.004  0.768  0.003  0.779
 
band  20 # energy   -6.74500116 # occ.  1.00000000
 
ion      s      p      d      f    tot
  1  0.084  0.001  0.163  0.001  0.249
  2  0.083  0.001  0.160  0.001  0.246
  3  0.081  0.001  0.155  0.001  0.238
  4  0.082  0.001  0.158  0.001  0.242
tot  0.331  0.005  0.636  0.003  0.975
 
band  21 # energy   -6.71541040 # occ.  1.00000000
 
ion      s      p      d      f    tot
  1  0.007  0.002  0.239  0.001  0.249
  2  0.050  0.002  0.179  0.002  0.232
  3  0.007  0.002  0.240  0.001  0.250
  4  0.050  0.002  0.179  0.002  0.232
tot  0.114  0.007  0.838  0.004  0.963
 
band  22 # energy   -6.71525942 # occ.  1.00000000
 
ion      s      p      d      f    tot
  1  0.048  0.002  0.175  0.002  0.227
  2  0.007  0.002  0.238  0.001  0.247
  3  0.051  0.002  0.183  0.002  0.237
  4  0.008  0.002  0.241  0.001  0.252
tot  0.114  0.007  0.838  0.004  0.963
 
band  23 # energy   -6.55820201 # occ.  1.00000000
 
ion      s      p      d      f    tot
  1  0.003  0.001  0.196  0.000  0.200
  2  0.000  0.000  0.211  0.001  0.212
  3  0.003  0.001  0.197  0.000  0.201
  4  0.000  0.000  0.209  0.001  0.210
tot  0.006  0.001  0.813  0.003  0.824
 
band  24 # energy   -6.55738450 # occ.  1.00000000
 
ion      s      p      d      f    tot
  1  0.000  0.000  0.212  0.001  0.213
  2  0.003  0.001  0.197  0.000  0.201
  3  0.000  0.000  0.208  0.001  0.209
  4  0.003  0.001  0.197  0.000  0.201
tot  0.006  0.001  0.813  0.003  0.824
 
band  25 # energy   -6.44341577 # occ.  1.00000000
 
ion      s      p      d      f    tot
  1  0.000  0.000  0.200  0.001  0.201
  2  0.000  0.000  0.201  0.001  0.202
  3  0.000  0.000  0.203  0.001  0.204
  4  0.000  0.000  0.202  0.001  0.203
tot  0.000  0.000  0.807  0.003  0.810
 
band  26 # energy   -5.73155084 # occ.  1.00000000
 
ion      s      p      d      f    tot
  1  0.123  0.000  0.058  0.000  0.182
  2  0.123  0.000  0.058  0.000  0.182
  3  0.123  0.000  0.058  0.000  0.182
  4  0.123  0.000  0.058  0.000  0.182
tot  0.493  0.001  0.232  0.000  0.727
 
band  27 # energy   -5.13112874 # occ.  1.00000000
 
ion      s      p      d      f    tot
  1  0.012  0.000  0.382  0.000  0.395
  2  0.000  0.002  0.008  0.002  0.013
  3  0.012  0.000  0.383  0.000  0.396
  4  0.000  0.002  0.008  0.002  0.013
tot  0.025  0.005  0.782  0.004  0.816
 
band  28 # energy   -5.13075352 # occ.  1.00000000
 
ion      s      p      d      f    tot
  1  0.000  0.002  0.008  0.002  0.013
  2  0.012  0.000  0.383  0.000  0.395
  3  0.000  0.002  0.008  0.002  0.013
  4  0.012  0.000  0.383  0.000  0.395
tot  0.025  0.005  0.782  0.004  0.816
 
band  29 # energy   -4.50984088 # occ.  1.00000000
 
ion      s      p      d      f    tot
  1  0.100  0.001  0.238  0.001  0.340
  2  0.000  0.000  0.085  0.000  0.086
  3  0.100  0.001  0.241  0.001  0.343
  4  0.000  0.000  0.085  0.000  0.086
tot  0.201  0.002  0.649  0.003  0.855
 
band  30 # energy   -4.50954551 # occ.  1.00000000
 
ion      s      p      d      f    tot
  1  0.000  0.000  0.085  0.000  0.086
  2  0.100  0.001  0.239  0.001  0.341
  3  0.000  0.000  0.085  0.000  0.086
  4  0.100  0.001  0.240  0.001  0.342
tot  0.201  0.002  0.650  0.003  0.855
 
band  31 # energy   -4.43117747 # occ.  1.00000000
 
ion      s      p      d      f    tot
  1  0.018  0.000  0.198  0.001  0.217
  2  0.017  0.000  0.198  0.001  0.216
  3  0.017  0.000  0.196  0.001  0.215
  4  0.017  0.000  0.197  0.001  0.215
tot  0.070  0.001  0.789  0.003  0.862
 
band  32 # energy   -4.21402660 # occ.  1.00000000
 
ion      s      p      d      f    tot
  1  0.001  0.001  0.203  0.001  0.206
  2  0.001  0.001  0.203  0.001  0.206
  3  0.001  0.001  0.203  0.001  0.206
  4  0.001  0.001  0.203  0.001  0.206
tot  0.002  0.006  0.812  0.003  0.824
 
band  33 # energy   -4.10708325 # occ.  1.00000000
 
ion      s      p      d      f    tot
  1  0.000  0.000  0.184  0.001  0.185
  2  0.012  0.002  0.210  0.001  0.225
  3  0.000  0.000  0.185  0.001  0.187
  4  0.012  0.002  0.210  0.001  0.225
tot  0.024  0.005  0.789  0.004  0.822
 
band  34 # energy   -4.10694453 # occ.  1.00000000
 
ion      s      p      d      f    tot
  1  0.012  0.002  0.211  0.001  0.225
  2  0.000  0.000  0.184  0.001  0.186
  3  0.012  0.002  0.210  0.001  0.224
  4  0.000  0.000  0.185  0.001  0.186
tot  0.024  0.005  0.789  0.004  0.822
 
band  35 # energy   -3.87541265 # occ.  1.00000000
 
ion      s      p      d      f    tot
  1  0.000  0.001  0.217  0.001  0.219
  2  0.000  0.001  0.216  0.001  0.218
  3  0.000  0.001  0.215  0.001  0.217
  4  0.000  0.001  0.216  0.001  0.218
tot  0.000  0.003  0.864  0.006  0.872
 
band  36 # energy   -3.46853233 # occ.  1.00000000
 
ion      s      p      d      f    tot
  1  0.010  0.003  0.173  0.001  0.186
  2  0.010  0.003  0.173  0.001  0.186
  3  0.010  0.003  0.173  0.001  0.186
  4  0.010  0.003  0.173  0.001  0.186
tot  0.038  0.012  0.691  0.004  0.745
 
band  37 # energy   -3.14872951 # occ.  0.00000000
 
ion      s      p      d      f    tot
  1  0.084  0.006  0.042  0.000  0.133
  2  0.012  0.006  0.061  0.000  0.079
  3  0.084  0.006  0.042  0.000  0.133
  4  0.012  0.006  0.061  0.000  0.079
tot  0.191  0.025  0.206  0.001  0.423
 
band  38 # energy   -3.14868960 # occ.  0.00000000
 
ion      s      p      d      f    tot
  1  0.012  0.006  0.061  0.000  0.079
  2  0.084  0.006  0.042  0.000  0.133
  3  0.012  0.006  0.061  0.000  0.079
  4  0.084  0.006  0.042  0.000  0.133
tot  0.191  0.025  0.206  0.001  0.423
 
band  39 # energy   -2.48878236 # occ.  0.00000000
 
ion      s      p      d      f    tot
  1  0.000  0.004  0.192  0.003  0.199
  2  0.000  0.004  0.192  0.003  0.199
  3  0.000  0.004  0.192  0.003  0.198
  4  0.000  0.004  0.192  0.003  0.199
tot  0.000  0.017  0.767  0.010  0.794
 
band  40 # energy   -1.95623842 # occ.  0.00000000
 
ion      s      p      d      f    tot
  1  0.017  0.009  0.011  0.000  0.037
  2  0.017  0.009  0.011  0.000  0.037
  3  0.017  0.009  0.011  0.000  0.037
  4  0.017  0.009  0.011  0.000  0.037
tot  0.068  0.036  0.045  0.000  0.149
 
# of k-points:    1         # of bands:  40         # of ions:   4

 k-point    1 :    0.00000000 0.00000000 0.00000000     weight = 1.00000000

band   1 # energy  -75.32340236 # occ.  1.00000000
 
ion      s      p      d      f    tot
  1  0.254  0.000  0.000  0.000  0.255
  2  0.254  0.000  0.000  0.000  0.254
  3  0.253  0.000  0.000  0.000  0.253
  4  0.254  0.000  0.000  0.000  0.254
tot  1.015  0.000  0.000  0.000  1.015
 
band   2 # energy  -75.15210890 # occ.  1.00000000
 
ion      s      p      d      f    tot
  1  0.003  0.000  0.000  0.000  0.003
  2  0.504  0.000  0.000  0.000  0.504
  3  0.003  0.000  0.000  0.000  0.003
  4  0.505  0.000  0.000  0.000  0.505
tot  1.014  0.000  0.000  0.000  1.014
 
band   3 # energy  -75.15194977 # occ.  1.00000000
 
ion      s      p      d      f    tot
  1  0.504  0.000  0.000  0.000  0.504
  2  0.002  0.000  0.000  0.000  0.003
  3  0.505  0.000  0.000  0.000  0.505
  4  0.003  0.000  0.000  0.000  0.003
tot  1.014  0.000  0.000  0.000  1.014
 
band   4 # energy  -74.98679163 # occ.  1.00000000
 
ion      s      p      d      f    tot
  1  0.253  0.000  0.000  0.000  0.253
  2  0.253  0.000  0.000  0.000  0.253
  3  0.253  0.000  0.000  0.000  0.253
  4  0.253  0.000  0.000  0.000  0.253
tot  1.013  0.000  0.000  0.000  1.013
 
band   5 # energy  -46.02768573 # occ.  1.00000000
 
ion      s      p      d      f    tot
  1  0.001  0.245  0.000  0.000  0.245
  2  0.001  0.244  0.000  0.000  0.245
  3  0.001  0.242  0.000  0.000  0.243
  4  0.001  0.243  0.000  0.000  0.244
tot  0.002  0.974  0.001  0.000  0.977
 
band   6 # energy  -45.87256528 # occ.  1.00000000
 
ion      s      p      d      f    tot
  1  0.000  0.248  0.001  0.000  0.249
  2  0.000  0.246  0.000  0.000  0.246
  3  0.000  0.240  0.000  0.000  0.240
  4  0.000  0.242  0.000  0.000  0.243
tot  0.000  0.976  0.002  0.000  0.978
 
band   7 # energy  -45.81229270 # occ.  1.00000000
 
ion      s      p      d      f    tot
  1  0.000  0.258  0.000  0.000  0.259
  2  0.000  0.230  0.001  0.000  0.230
  3  0.000  0.260  0.000  0.000  0.261
  4  0.000  0.231  0.001  0.000  0.232
tot  0.001  0.979  0.001  0.001  0.982
 
band   8 # energy  -45.81194137 # occ.  1.00000000
 
ion      s      p      d      f    tot
  1  0.000  0.226  0.001  0.000  0.226
  2  0.000  0.258  0.000  0.000  0.259
  3  0.000  0.235  0.001  0.000  0.236
  4  0.000  0.261  0.000  0.000  0.262
tot  0.001  0.979  0.001  0.001  0.982
 
band   9 # energy  -45.01929236 # occ.  1.00000000
 
ion      s      p      d      f    tot
  1  0.000  0.246  0.000  0.000  0.246
  2  0.000  0.246  0.000  0.000  0.246
  3  0.000  0.246  0.000  0.000  0.246
  4  0.000  0.246  0.000  0.000  0.246
tot  0.000  0.985  0.000  0.000  0.985
 
band  10 # energy  -44.91029461 # occ.  1.00000000
 
ion      s      p      d      f    tot
  1  0.000  0.060  0.000  0.000  0.060
  2  0.000  0.435  0.000  0.000  0.435
  3  0.000  0.060  0.000  0.000  0.060
  4  0.000  0.435  0.000  0.000  0.436
tot  0.000  0.990  0.000  0.000  0.991
 
band  11 # energy  -44.91023926 # occ.  1.00000000
 
ion      s      p      d      f    tot
  1  0.000  0.435  0.000  0.000  0.435
  2  0.000  0.060  0.000  0.000  0.060
  3  0.000  0.436  0.000  0.000  0.436
  4  0.000  0.060  0.000  0.000  0.060
tot  0.000  0.990  0.000  0.000  0.991
 
band  12 # energy  -44.82543510 # occ.  1.00000000
 
ion      s      p      d      f    tot
  1  0.000  0.205  0.000  0.000  0.206
  2  0.000  0.291  0.000  0.000  0.292
  3  0.000  0.206  0.000  0.000  0.206
  4  0.000  0.292  0.000  0.000  0.293
tot  0.001  0.995  0.001  0.000  0.997
 
band  13 # energy  -44.82536090 # occ.  1.00000000
 
ion      s      p      d      f    tot
  1  0.000  0.291  0.000  0.000  0.292
  2  0.000  0.205  0.000  0.000  0.206
  3  0.000  0.293  0.000  0.000  0.293
  4  0.000  0.206  0.000  0.000  0.206
tot  0.001  0.995  0.001  0.000  0.997
 
band  14 # energy  -44.77890078 # occ.  1.00000000
 
ion      s      p      d      f    tot
  1  0.000  0.249  0.000  0.000  0.249
  2  0.000  0.248  0.000  0.000  0.248
  3  0.000  0.248  0.000  0.000  0.248
  4  0.000  0.247  0.000  0.000  0.247
tot  0.000  0.992  0.000  0.000  0.992
 
band  15 # energy  -44.76511964 # occ.  1.00000000
 
ion      s      p      d      f    tot
  1  0.000  0.250  0.000  0.000  0.251
  2  0.000  0.250  0.000  0.000  0.251
  3  0.000  0.250  0.000  0.000  0.250
  4  0.000  0.250  0.000  0.000  0.250
tot  0.002  0.999  0.001  0.000  1.002
 
band  16 # energy  -44.72671356 # occ.  1.00000000
 
ion      s      p      d      f    tot
  1  0.000  0.250  0.000  0.000  0.251
  2  0.000  0.250  0.000  0.000  0.250
  3  0.000  0.249  0.000  0.000  0.250
  4  0.000  0.249  0.000  0.000  0.250
tot  0.000  0.999  0.001  0.000  1.001
 
band  17 # energy   -7.41315540 # occ.  1.00000000
 
ion      s      p      d      f    tot
  1  0.026  0.004  0.174  0.001  0.205
  2  0.026  0.004  0.174  0.001  0.205
  3  0.026  0.004  0.174  0.001  0.205
  4  0.026  0.004  0.174  0.001  0.205
tot  0.104  0.015  0.695  0.006  0.820
 
band  18 # energy   -6.78680425 # occ.  1.00000000
 
ion      s      p      d      f    tot
  1  0.000  0.002  0.228  0.001  0.231
  2  0.000  0.002  0.228  0.001  0.231
  3  0.000  0.002  0.227  0.001  0.231
  4  0.000  0.002  0.227  0.001  0.231
tot  0.000  0.008  0.910  0.006  0.924
 
band  19 # energy   -6.08678499 # occ.  1.00000000
 
ion      s      p      d      f    tot
  1  0.146  0.002  0.092  0.001  0.240
  2  0.146  0.002  0.092  0.001  0.239
  3  0.145  0.002  0.091  0.001  0.238
  4  0.145  0.002  0.091  0.001  0.239
tot  0.582  0.006  0.366  0.002  0.956
 
band  20 # energy   -6.00899599 # occ.  1.00000000
 
ion      s      p      d      f    tot
  1  0.001  0.002  0.180  0.001  0.184
  2  0.001  0.002  0.180  0.001  0.184
  3  0.001  0.002  0.180  0.001  0.184
  4  0.001  0.002  0.180  0.001  0.184
tot  0.003  0.008  0.720  0.004  0.735
 
band  21 # energy   -5.90280406 # occ.  1.00000000
 
ion      s      p      d      f    tot
  1  0.006  0.003  0.266  0.001  0.274
  2  0.085  0.002  0.126  0.002  0.215
  3  0.006  0.003  0.266  0.001  0.275
  4  0.085  0.002  0.126  0.002  0.215
tot  0.181  0.009  0.784  0.005  0.979
 
band  22 # energy   -5.90262307 # occ.  1.00000000
 
ion      s      p      d      f    tot
  1  0.084  0.002  0.126  0.002  0.214
  2  0.006  0.003  0.266  0.001  0.274
  3  0.085  0.002  0.126  0.002  0.215
  4  0.006  0.003  0.266  0.001  0.275
tot  0.181  0.009  0.784  0.005  0.979
 
band  23 # energy   -5.36056808 # occ.  1.00000000
 
ion      s      p      d      f    tot
  1  0.002  0.001  0.179  0.000  0.183
  2  0.000  0.000  0.214  0.002  0.215
  3  0.002  0.001  0.180  0.000  0.183
  4  0.000  0.000  0.212  0.002  0.214
tot  0.003  0.003  0.785  0.004  0.795
 
band  24 # energy   -5.35968662 # occ.  1.00000000
 
ion      s      p      d      f    tot
  1  0.000  0.000  0.215  0.002  0.217
  2  0.002  0.001  0.180  0.000  0.183
  3  0.000  0.000  0.211  0.002  0.212
  4  0.002  0.001  0.180  0.000  0.183
tot  0.003  0.003  0.785  0.004  0.795
 
band  25 # energy   -5.26401594 # occ.  1.00000000
 
ion      s      p      d      f    tot
  1  0.000  0.000  0.194  0.001  0.195
  2  0.000  0.000  0.195  0.001  0.196
  3  0.000  0.000  0.198  0.001  0.199
  4  0.000  0.000  0.197  0.001  0.198
tot  0.000  0.001  0.784  0.004  0.788
 
band  26 # energy   -4.55888609 # occ.  1.00000000
 
ion      s      p      d      f    tot
  1  0.041  0.000  0.122  0.000  0.164
  2  0.041  0.000  0.122  0.000  0.164
  3  0.041  0.000  0.122  0.000  0.163
  4  0.041  0.000  0.122  0.000  0.164
tot  0.163  0.000  0.489  0.002  0.654
 
band  27 # energy   -4.11253089 # occ.  1.00000000
 
ion      s      p      d      f    tot
  1  0.024  0.000  0.329  0.000  0.353
  2  0.000  0.004  0.021  0.002  0.026
  3  0.024  0.000  0.329  0.000  0.354
  4  0.000  0.004  0.021  0.002  0.026
tot  0.048  0.008  0.699  0.004  0.760
 
band  28 # energy   -4.11196556 # occ.  1.00000000
 
ion      s      p      d      f    tot
  1  0.000  0.004  0.021  0.002  0.026
  2  0.024  0.000  0.329  0.000  0.353
  3  0.000  0.004  0.021  0.002  0.026
  4  0.024  0.000  0.329  0.000  0.354
tot  0.048  0.008  0.699  0.004  0.760
 
band  29 # energy   -2.90956658 # occ.  0.00000000
 
ion      s      p      d      f    tot
  1  0.076  0.000  0.286  0.001  0.363
  2  0.000  0.000  0.038  0.001  0.038
  3  0.076  0.000  0.288  0.001  0.364
  4  0.000  0.000  0.038  0.001  0.038
tot  0.152  0.001  0.649  0.002  0.804
 
band  30 # energy   -2.90922920 # occ.  0.00000000
 
ion      s      p      d      f    tot
  1  0.000  0.000  0.038  0.001  0.038
  2  0.076  0.000  0.287  0.001  0.363
  3  0.000  0.000  0.038  0.001  0.038
  4  0.076  0.000  0.287  0.001  0.364
tot  0.152  0.001  0.650  0.002  0.804
 
band  31 # energy   -2.76582272 # occ.  0.00000000
 
ion      s      p      d      f    tot
  1  0.012  0.000  0.198  0.001  0.211
  2  0.012  0.000  0.197  0.001  0.211
  3  0.012  0.000  0.198  0.001  0.211
  4  0.012  0.000  0.198  0.001  0.211
tot  0.047  0.002  0.790  0.003  0.842
 
band  32 # energy   -2.65883318 # occ.  0.00000000
 
ion      s      p      d      f    tot
  1  0.000  0.001  0.160  0.001  0.161
  2  0.001  0.002  0.225  0.001  0.229
  3  0.000  0.001  0.161  0.001  0.163
  4  0.001  0.002  0.225  0.001  0.229
tot  0.002  0.006  0.771  0.004  0.783
 
band  33 # energy   -2.65864445 # occ.  0.00000000
 
ion      s      p      d      f    tot
  1  0.001  0.002  0.226  0.001  0.230
  2  0.000  0.001  0.160  0.001  0.162
  3  0.001  0.002  0.225  0.001  0.229
  4  0.000  0.001  0.161  0.001  0.162
tot  0.002  0.006  0.771  0.004  0.783
 
band  34 # energy   -2.50539090 # occ.  0.00000000
 
ion      s      p      d      f    tot
  1  0.000  0.001  0.201  0.001  0.203
  2  0.000  0.001  0.201  0.001  0.203
  3  0.000  0.001  0.200  0.001  0.202
  4  0.000  0.001  0.200  0.001  0.202
tot  0.000  0.005  0.802  0.003  0.810
 
band  35 # energy   -2.49338327 # occ.  0.00000000
 
ion      s      p      d      f    tot
  1  0.000  0.001  0.206  0.001  0.209
  2  0.000  0.001  0.206  0.001  0.208
  3  0.000  0.001  0.205  0.001  0.207
  4  0.000  0.001  0.205  0.001  0.208
tot  0.000  0.005  0.822  0.005  0.832
 
band  36 # energy   -2.42644901 # occ.  0.00000000
 
ion      s      p      d      f    tot
  1  0.000  0.004  0.064  0.001  0.069
  2  0.064  0.006  0.079  0.001  0.150
  3  0.000  0.004  0.064  0.001  0.069
  4  0.064  0.006  0.079  0.001  0.149
tot  0.129  0.020  0.286  0.002  0.436
 
band  37 # energy   -2.42629284 # occ.  0.00000000
 
ion      s      p      d      f    tot
  1  0.064  0.006  0.079  0.001  0.150
  2  0.000  0.004  0.064  0.001  0.069
  3  0.064  0.006  0.079  0.001  0.150
  4  0.000  0.004  0.064  0.001  0.069
tot  0.129  0.020  0.286  0.002  0.436
 
band  38 # energy   -2.20675303 # occ.  0.00000000
 
ion      s      p      d      f    tot
  1  0.011  0.003  0.161  0.001  0.176
  2  0.011  0.003  0.161  0.001  0.176
  3  0.011  0.003  0.161  0.001  0.176
  4  0.011  0.003  0.161  0.001  0.176
tot  0.045  0.011  0.643  0.004  0.703
 
band  39 # energy   -1.63878222 # occ.  0.00000000
 
ion      s      p      d      f    tot
  1  0.000  0.004  0.188  0.003  0.195
  2  0.000  0.004  0.188  0.003  0.195
  3  0.000  0.004  0.188  0.003  0.194
  4  0.000  0.004  0.188  0.003  0.194
tot  0.000  0.017  0.751  0.010  0.778
 
band  40 # energy   -1.40431976 # occ.  0.00000000
 
ion      s      p      d      f    tot
  1  0.013  0.007  0.014  0.000  0.034
  2  0.013  0.007  0.014  0.000  0.034
  3  0.013  0.007  0.014  0.000  0.034
  4  0.013  0.007  0.014  0.000  0.034
tot  0.052  0.028  0.055  0.001  0.136
 
