<?xml version="1.0" encoding="ISO-8859-1"?>
<modeling>
 <generator>
  <i name="program" type="string">vasp </i>
  <i name="version" type="string">5.3.5  </i>
  <i name="subversion" type="string">31Mar14 (build Jan 29 2015 13:51:25) gamma-only                       parallel </i>
  <i name="platform" type="string">LinuxIFC </i>
  <i name="date" type="string">2021 08 20 </i>
  <i name="time" type="string">19:40:05 </i>
 </generator>
 <incar>
  <i type="string" name="SYSTEM"> CuRu</i>
  <i type="string" name="PREC">normal    ! calcululation level (change</i>
  <i type="string" name="ALGO"> NORMAL    !</i>
  <i type="logical" name="ADDGRID"> T  </i>
  <i type="int" name="ISPIN">     2</i>
  <i name="AMIX">      0.02000000</i>
  <i name="BMIX">      0.00001000</i>
  <i name="AMIX_MAG">      0.10000000</i>
  <i name="BMIX_MAG">      0.00001000</i>
  <i type="int" name="NELM">   120</i>
  <i type="int" name="NELMDL">    -8</i>
  <i type="int" name="NELMIN">     6</i>
  <i type="int" name="IBRION">     2</i>
  <i name="EDIFF">      0.00000100</i>
  <i name="EDIFFG">     -0.01000000</i>
  <i type="int" name="NSW">   200</i>
  <i type="int" name="ISIF">     0</i>
  <i name="ENCUT">    500.00000000</i>
  <i name="POTIM">      0.50000000</i>
  <i type="string" name="LREAL"> AUTO</i>
  <i type="logical" name="LPLANE"> T  </i>
  <i type="int" name="ISMEAR">     0</i>
  <i name="SIGMA">      0.00500000</i>
  <i type="int" name="NWRITE">     1</i>
  <i type="logical" name="LWAVE"> F  </i>
  <i type="logical" name="LCHARG"> F  </i>
  <i type="logical" name="LORBIT"> F  </i>
  <i type="logical" name="LASPH"> T  </i>
  <i type="int" name="NELM">   120</i>
  <i type="logical" name="LASPH"> T  </i>
 </incar>
 <kpoints>
  <generation param="Gamma">
   <v type="int" name="divisions">       1        1        1 </v>
   <v name="usershift">      0.00000000       0.00000000       0.00000000 </v>
   <v name="genvec1">      1.00000000       0.00000000       0.00000000 </v>
   <v name="genvec2">      0.00000000       1.00000000       0.00000000 </v>
   <v name="genvec3">      0.00000000       0.00000000       1.00000000 </v>
   <v name="shift">      0.00000000       0.00000000       0.00000000 </v>
  </generation>
  <varray name="kpointlist" >
   <v>       0.00000000       0.00000000       0.00000000 </v>
  </varray>
  <varray name="weights" >
   <v>       1.00000000 </v>
  </varray>
 </kpoints>
 <parameters>
  <separator name="general" >
   <i type="string" name="SYSTEM">CuRu</i>
   <i type="logical" name="LCOMPAT"> F  </i>
  </separator>
  <separator name="electronic" >
   <i type="string" name="PREC">normal</i>
   <i name="ENMAX">    500.00000000</i>
   <i name="ENAUG">    721.35600000</i>
   <i name="EDIFF">      0.00000100</i>
   <i type="int" name="IALGO">    38</i>
   <i type="int" name="IWAVPR">    11</i>
   <i type="int" name="NBANDS">    40</i>
   <i name="NELECT">     64.00000000</i>
   <i type="int" name="TURBO">     0</i>
   <i type="int" name="IRESTART">     0</i>
   <i type="int" name="NREBOOT">     0</i>
   <i type="int" name="NMIN">     0</i>
   <i name="EREF">      0.00000000</i>
   <separator name="electronic smearing" >
    <i type="int" name="ISMEAR">     0</i>
    <i name="SIGMA">      0.00500000</i>
    <i name="KSPACING">      0.50000000</i>
    <i type="logical" name="KGAMMA"> T  </i>
   </separator>
   <separator name="electronic projectors" >
    <i type="logical" name="LREAL"> T  </i>
    <v name="ROPT">     -0.00050000</v>
    <i type="int" name="LMAXPAW">  -100</i>
    <i type="int" name="LMAXMIX">     2</i>
    <i type="logical" name="NLSPLINE"> F  </i>
   </separator>
   <separator name="electronic startup" >
    <i type="int" name="ISTART">     0</i>
    <i type="int" name="ICHARG">     2</i>
    <i type="int" name="INIWAV">     1</i>
   </separator>
   <separator name="electronic spin" >
    <i type="int" name="ISPIN">     2</i>
    <i type="logical" name="LNONCOLLINEAR"> F  </i>
    <v name="MAGMOM">      1.00000000      1.00000000      1.00000000      1.00000000</v>
    <i name="NUPDOWN">     -1.00000000</i>
    <i type="logical" name="LSORBIT"> F  </i>
    <v name="SAXIS">      0.00000000      0.00000000      1.00000000</v>
    <i type="logical" name="LSPIRAL"> F  </i>
    <v name="QSPIRAL">      0.00000000      0.00000000      0.00000000</v>
    <i type="logical" name="LZEROZ"> F  </i>
   </separator>
   <separator name="electronic exchange-correlation" >
    <i type="logical" name="LASPH"> T  </i>
    <i type="logical" name="LMETAGGA"> F  </i>
   </separator>
   <separator name="electronic convergence" >
    <i type="int" name="NELM">   120</i>
    <i type="int" name="NELMDL">    -8</i>
    <i type="int" name="NELMIN">     6</i>
    <i name="ENINI">    500.00000000</i>
    <separator name="electronic convergence detail" >
     <i type="logical" name="LDIAG"> T  </i>
     <i type="logical" name="LSUBROT"> F  </i>
     <i name="WEIMIN">      0.00100000</i>
     <i name="EBREAK">      0.00000001</i>
     <i name="DEPER">      0.30000000</i>
     <i type="int" name="NRMM">     4</i>
     <i name="TIME">      0.40000000</i>
    </separator>
   </separator>
   <separator name="electronic mixer" >
    <i name="AMIX">      0.02000000</i>
    <i name="BMIX">      0.00001000</i>
    <i name="AMIN">      0.02000000</i>
    <i name="AMIX_MAG">      0.10000000</i>
    <i name="BMIX_MAG">      0.00001000</i>
    <separator name="electronic mixer details" >
     <i type="int" name="IMIX">     4</i>
     <i type="int" name="MAXMIX">   -45</i>
     <i name="WC">    100.00000000</i>
     <i type="int" name="INIMIX">     1</i>
     <i type="int" name="MIXPRE">     1</i>
     <i type="int" name="MREMOVE">     5</i>
    </separator>
   </separator>
   <separator name="electronic dipolcorrection" >
    <i type="logical" name="LDIPOL"> F  </i>
    <i type="logical" name="LMONO"> F  </i>
    <i type="int" name="IDIPOL">     0</i>
    <i name="EPSILON">      1.00000000</i>
    <v name="DIPOL">   -100.00000000   -100.00000000   -100.00000000</v>
    <i name="EFIELD">      0.00000000</i>
   </separator>
  </separator>
  <separator name="grids" >
   <i type="int" name="NGX">    96</i>
   <i type="int" name="NGY">    96</i>
   <i type="int" name="NGZ">    96</i>
   <i type="int" name="NGXF">   192</i>
   <i type="int" name="NGYF">   192</i>
   <i type="int" name="NGZF">   192</i>
   <i type="logical" name="ADDGRID"> T  </i>
  </separator>
  <separator name="ionic" >
   <i type="int" name="NSW">   200</i>
   <i type="int" name="IBRION">     2</i>
   <i type="int" name="ISIF">     0</i>
   <i name="PSTRESS">      0.00000000</i>
   <i name="EDIFFG">     -0.01000000</i>
   <i type="int" name="NFREE">     1</i>
   <i name="POTIM">      0.50000000</i>
   <i name="SMASS">     -3.00000000</i>
   <i name="SCALEE">      1.00000000</i>
  </separator>
  <separator name="ionic md" >
   <i name="TEBEG">      0.00010000</i>
   <i name="TEEND">      0.00010000</i>
   <i type="int" name="NBLOCK">     1</i>
   <i type="int" name="KBLOCK">   200</i>
   <i type="int" name="NPACO">   256</i>
   <i name="APACO">     16.00000000</i>
  </separator>
  <separator name="symmetry" >
   <i type="int" name="ISYM">     2</i>
   <i name="SYMPREC">      0.00001000</i>
  </separator>
  <separator name="dos" >
   <i type="logical" name="LORBIT"> F  </i>
   <v name="RWIGS">     -1.00000000</v>
   <i type="int" name="NEDOS">   301</i>
   <i name="EMIN">     10.00000000</i>
   <i name="EMAX">    -10.00000000</i>
   <i name="EFERMI">      0.00000000</i>
  </separator>
  <separator name="writing" >
   <i type="int" name="NWRITE">     1</i>
   <i type="logical" name="LWAVE"> F  </i>
   <i type="logical" name="LCHARG"> F  </i>
   <i type="logical" name="LPARD"> F  </i>
   <i type="logical" name="LVTOT"> F  </i>
   <i type="logical" name="LVHAR"> F  </i>
   <i type="logical" name="LELF"> F  </i>
   <i type="logical" name="LOPTICS"> F  </i>
   <v name="STM">      0.00000000      0.00000000      0.00000000      0.00000000      0.00000000      0.00000000      0.00000000</v>
  </separator>
  <separator name="performance" >
   <i type="int" name="NPAR">     2</i>
   <i type="int" name="NSIM">     4</i>
   <i type="int" name="NBLK">    -1</i>
   <i type="logical" name="LPLANE"> T  </i>
   <i type="logical" name="LSCALAPACK"> T  </i>
   <i type="logical" name="LSCAAWARE"> F  </i>
   <i type="logical" name="LSCALU"> F  </i>
   <i type="logical" name="LASYNC"> F  </i>
   <i type="logical" name="LORBITALREAL"> F  </i>
  </separator>
  <separator name="miscellaneous" >
   <i type="int" name="IDIOT">     3</i>
   <i type="logical" name="LMUSIC"> F  </i>
   <v name="POMASS">    101.07000000</v>
   <v name="DARWINR">      0.00000000</v>
   <v name="DARWINV">      1.00000000</v>
   <i type="logical" name="LCORR"> T  </i>
  </separator>
  <i type="logical" name="GGA_COMPAT"> T  </i>
  <i type="logical" name="LBERRY"> F  </i>
  <i type="int" name="ICORELEVEL">     0</i>
  <i type="logical" name="LDAU"> F  </i>
  <i type="int" name="I_CONSTRAINED_M">     0</i>
  <separator name="electronic exchange-correlation" >
   <i type="string" name="GGA">--</i>
   <i type="int" name="VOSKOWN">     0</i>
   <i type="logical" name="LHFCALC"> F  </i>
   <i type="string" name="PRECFOCK"></i>
   <i type="logical" name="LSYMGRAD"> F  </i>
   <i type="logical" name="LHFONE"> F  </i>
   <i type="logical" name="LRHFCALC"> F  </i>
   <i type="logical" name="LTHOMAS"> F  </i>
   <i type="logical" name="LMODELHF"> F  </i>
   <i name="ENCUT4O">     -1.00000000</i>
   <i type="int" name="EXXOEP">     0</i>
   <i type="int" name="FOURORBIT">     0</i>
   <i name="AEXX">      0.00000000</i>
   <i name="HFALPHA">      0.00000000</i>
   <i name="MCALPHA">      0.00000000</i>
   <i name="ALDAX">      1.00000000</i>
   <i name="AGGAX">      1.00000000</i>
   <i name="ALDAC">      1.00000000</i>
   <i name="AGGAC">      1.00000000</i>
   <i type="int" name="NKREDX">     1</i>
   <i type="int" name="NKREDY">     1</i>
   <i type="int" name="NKREDZ">     1</i>
   <i type="logical" name="SHIFTRED"> F  </i>
   <i type="logical" name="ODDONLY"> F  </i>
   <i type="logical" name="EVENONLY"> F  </i>
   <i type="int" name="LMAXFOCK">     0</i>
   <i type="int" name="NMAXFOCKAE">     0</i>
   <i type="logical" name="LFOCKAEDFT"> F  </i>
   <i name="HFSCREEN">      0.00000000</i>
   <i name="HFSCREENC">      0.00000000</i>
   <i type="int" name="NBANDSGWLOW">     0</i>
  </separator>
  <separator name="vdW DFT" >
   <i type="logical" name="LUSE_VDW"> F  </i>
   <i name="Zab_VDW">     -0.84910000</i>
   <i name="PARAM1">      0.12340000</i>
   <i name="PARAM2">      1.00000000</i>
   <i name="PARAM3">      0.00000000</i>
  </separator>
  <separator name="model GW" >
   <i type="int" name="MODEL_GW">     0</i>
   <i name="MODEL_EPS0">    736.95000000</i>
   <i name="MODEL_ALPHA">      1.00000000</i>
  </separator>
  <separator name="linear response parameters" >
   <i type="logical" name="LEPSILON"> F  </i>
   <i type="logical" name="LRPA"> F  </i>
   <i type="logical" name="LNABLA"> F  </i>
   <i type="logical" name="LVEL"> F  </i>
   <i type="int" name="KINTER">     0</i>
   <i name="CSHIFT">      0.10000000</i>
   <i name="OMEGAMAX">     -1.00000000</i>
   <i name="DEG_THRESHOLD">      0.00200000</i>
  </separator>
  <separator name="orbital magnetization" >
   <i type="logical" name="NUCIND"> F  </i>
   <v name="MAGPOS">      0.00000000      0.00000000      0.00000000</v>
   <i type="logical" name="LNICSALL"> T  </i>
   <i type="logical" name="ORBITALMAG"> F  </i>
   <i type="logical" name="LMAGBLOCH"> F  </i>
   <i type="logical" name="LCHIMAG"> F  </i>
   <i type="logical" name="LGAUGE"> T  </i>
   <i type="int" name="MAGATOM">     0</i>
   <v name="MAGDIPOL">      0.00000000      0.00000000      0.00000000</v>
   <v name="AVECCONST">      0.00000000      0.00000000      0.00000000</v>
  </separator>
  <separator name="response functions" >
   <i type="logical" name="LADDER"> F  </i>
   <i type="logical" name="LFXC"> F  </i>
   <i type="logical" name="LHARTREE"> T  </i>
   <i type="int" name="IBSE">     0</i>
   <i type="logical" name="LTCTE"> F  </i>
   <i type="logical" name="LTETE"> F  </i>
   <i type="logical" name="LTRIPLET"> F  </i>
   <i type="logical" name="LFXCEPS"> F  </i>
   <i type="logical" name="LFXHEG"> F  </i>
   <i type="logical" name="L2ORDER"> F  </i>
   <i type="logical" name="LUSEW"> F  </i>
   <i name="ENCUTGW">     -2.00000000</i>
   <i name="ENCUTGWSOFT">     -2.00000000</i>
   <i name="ENCUTLF">     -1.00000000</i>
   <i type="int" name="LMAXMP2">    -1</i>
   <i name="SCISSOR">      0.00000000</i>
   <i type="int" name="NOMEGA">     0</i>
   <i type="int" name="NOMEGAR">     0</i>
   <i type="int" name="NBANDSGW">    -1</i>
   <i type="int" name="NBANDSO">    -1</i>
   <i type="int" name="NBANDSV">    -1</i>
   <i type="int" name="NELM">   120</i>
   <i type="int" name="DIM">     3</i>
   <i type="int" name="ANTIRES">     0</i>
   <i name="OMEGAMAX">    -30.00000000</i>
   <i name="OMEGAMIN">    -30.00000000</i>
   <i name="OMEGATL">   -200.00000000</i>
   <i type="int" name="OMEGAGRID">     0</i>
   <i name="CSHIFT">     -0.10000000</i>
   <i type="logical" name="SELFENERGY"> F  </i>
   <i type="logical" name="LSPECTRAL"> F  </i>
   <i type="logical" name="ODDONLYGW"> F  </i>
   <i type="logical" name="EVENONLYGW"> F  </i>
   <i type="int" name="NKREDLFX">     1</i>
   <i type="int" name="NKREDLFY">     1</i>
   <i type="int" name="NKREDLFZ">     1</i>
   <i type="int" name="MAXMEM">  1800</i>
   <i type="int" name="TELESCOPE">     0</i>
   <i type="int" name="TAUPAR">     1</i>
  </separator>
  <separator name="External order field" >
   <i name="OFIELD_KAPPA">      0.00000000</i>
   <v name="OFIELD_K">      0.00000000      0.00000000      0.00000000</v>
   <i name="OFIELD_Q6_NEAR">      0.00000000</i>
   <i name="OFIELD_Q6_FAR">      0.00000000</i>
   <i name="OFIELD_A">      0.00000000</i>
  </separator>
 </parameters>
 <atominfo>
  <atoms>       4 </atoms>
  <types>       1 </types>
  <array name="atoms" >
   <dimension dim="1">ion</dimension>
   <field type="string">element</field>
   <field type="int">atomtype</field>
   <set>
    <rc><c>Ru</c><c>   1</c></rc>
    <rc><c>Ru</c><c>   1</c></rc>
    <rc><c>Ru</c><c>   1</c></rc>
    <rc><c>Ru</c><c>   1</c></rc>
   </set>
  </array>
  <array name="atomtypes" >
   <dimension dim="1">type</dimension>
   <field type="int">atomspertype</field>
   <field type="string">element</field>
   <field>mass</field>
   <field>valence</field>
   <field type="string">pseudopotential</field>
   <set>
    <rc><c>   4</c><c>Ru</c><c>    101.07000000</c><c>     16.00000000</c><c>  PAW Ru_sv_GW 23Mar2010                </c></rc>
   </set>
  </array>
 </atominfo>
 <structure name="initialpos" >
  <crystal>
   <varray name="basis" >
    <v>      17.00000000       0.00000000       0.00000000 </v>
    <v>       0.00000000      17.00000000       0.00000000 </v>
    <v>       0.00000000       0.00000000      17.00000000 </v>
   </varray>
   <i name="volume">   4913.00000000 </i>
   <varray name="rec_basis" >
    <v>       0.05882353       0.00000000       0.00000000 </v>
    <v>       0.00000000       0.05882353       0.00000000 </v>
    <v>       0.00000000       0.00000000       0.05882353 </v>
   </varray>
  </crystal>
  <varray name="positions" >
   <v>       0.91062347       0.03053053       0.99943400 </v>
   <v>       0.03255529       0.08727365       0.01550976 </v>
   <v>       0.08443876       0.97107471       0.96910829 </v>
   <v>       0.97238253       0.91112118       0.01594794 </v>
  </varray>
 </structure>
 <calculation>
  <scstep>
   <time name="dav">    6.99    7.00</time>
   <time name="total">   17.19   17.28</time>
   <energy>
    <i name="alphaZ">      8.51738001 </i>
    <i name="ewald">   3876.96269919 </i>
    <i name="hartreedc"> -13020.40443482 </i>
    <i name="XCdc">    340.61962486 </i>
    <i name="pawpsdc">   8835.05689339 </i>
    <i name="pawaedc">  -8638.22802046 </i>
    <i name="eentropy">     -0.00000000 </i>
    <i name="bandstr">   -467.77023731 </i>
    <i name="atom">  10379.00329021 </i>
    <i name="e_fr_energy">   1313.75719508 </i>
    <i name="e_wo_entrp">   1313.75719508 </i>
    <i name="e_0_energy">   1313.75719508 </i>
   </energy>
  </scstep>
  <scstep>
   <time name="dav">   10.08   10.15</time>
   <time name="total">   10.08   10.15</time>
   <energy>
    <i name="e_fr_energy">    434.05609376 </i>
    <i name="e_wo_entrp">    434.05609446 </i>
    <i name="e_0_energy">    434.05609411 </i>
   </energy>
  </scstep>
  <scstep>
   <time name="dav">    8.78    8.80</time>
   <time name="total">    8.78    8.80</time>
   <energy>
    <i name="e_fr_energy">     39.12766885 </i>
    <i name="e_wo_entrp">     39.12766885 </i>
    <i name="e_0_energy">     39.12766885 </i>
   </energy>
  </scstep>
  <scstep>
   <time name="dav">    7.88    7.90</time>
   <time name="total">    7.88    7.90</time>
   <energy>
    <i name="e_fr_energy">    -11.75808488 </i>
    <i name="e_wo_entrp">    -11.75808488 </i>
    <i name="e_0_energy">    -11.75808488 </i>
   </energy>
  </scstep>
  <scstep>
   <time name="dav">    7.23    7.26</time>
   <time name="total">    7.23    7.26</time>
   <energy>
    <i name="e_fr_energy">    -21.10574235 </i>
    <i name="e_wo_entrp">    -21.10574235 </i>
    <i name="e_0_energy">    -21.10574235 </i>
   </energy>
  </scstep>
  <scstep>
   <time name="dav">    8.57    8.62</time>
   <time name="total">    8.57    8.62</time>
   <energy>
    <i name="e_fr_energy">    -23.34001969 </i>
    <i name="e_wo_entrp">    -23.34001969 </i>
    <i name="e_0_energy">    -23.34001969 </i>
   </energy>
  </scstep>
  <scstep>
   <time name="dav">    7.47    7.50</time>
   <time name="total">    7.47    7.50</time>
   <energy>
    <i name="e_fr_energy">    -23.52315848 </i>
    <i name="e_wo_entrp">    -23.52315848 </i>
    <i name="e_0_energy">    -23.52315848 </i>
   </energy>
  </scstep>
  <scstep>
   <time name="dav">    7.21    7.29</time>
   <time name="total">   11.74   11.83</time>
   <energy>
    <i name="e_fr_energy">    -23.53294649 </i>
    <i name="e_wo_entrp">    -23.53294649 </i>
    <i name="e_0_energy">    -23.53294649 </i>
   </energy>
  </scstep>
  <scstep>
   <time name="dav">    7.67    7.68</time>
   <time name="total">   22.44   22.51</time>
   <energy>
    <i name="e_fr_energy">    -23.12398066 </i>
    <i name="e_wo_entrp">    -23.12398066 </i>
    <i name="e_0_energy">    -23.12398066 </i>
   </energy>
  </scstep>
  <scstep>
   <time name="dav">    6.54    6.55</time>
   <time name="total">   21.29   21.38</time>
   <energy>
    <i name="e_fr_energy">    -19.48287680 </i>
    <i name="e_wo_entrp">    -19.48268636 </i>
    <i name="e_0_energy">    -19.48278158 </i>
   </energy>
  </scstep>
  <scstep>
   <time name="dav">    7.21    7.23</time>
   <time name="total">   21.99   22.07</time>
   <energy>
    <i name="e_fr_energy">    -20.45717466 </i>
    <i name="e_wo_entrp">    -20.45435379 </i>
    <i name="e_0_energy">    -20.45576423 </i>
   </energy>
  </scstep>
  <scstep>
   <time name="dav">    7.42    7.44</time>
   <time name="total">   22.25   22.36</time>
   <energy>
    <i name="e_fr_energy">    -21.16882369 </i>
    <i name="e_wo_entrp">    -21.16882368 </i>
    <i name="e_0_energy">    -21.16882368 </i>
   </energy>
  </scstep>
  <scstep>
   <time name="dav">    6.96    6.97</time>
   <time name="total">   21.77   21.84</time>
   <energy>
    <i name="e_fr_energy">    -21.82367999 </i>
    <i name="e_wo_entrp">    -21.82367999 </i>
    <i name="e_0_energy">    -21.82367999 </i>
   </energy>
  </scstep>
  <scstep>
   <time name="dav">    7.58    7.59</time>
   <time name="total">   22.47   22.53</time>
   <energy>
    <i name="e_fr_energy">    -21.18083164 </i>
    <i name="e_wo_entrp">    -21.18083164 </i>
    <i name="e_0_energy">    -21.18083164 </i>
   </energy>
  </scstep>
  <scstep>
   <time name="dav">    8.07    8.09</time>
   <time name="total">   22.96   23.04</time>
   <energy>
    <i name="e_fr_energy">    -21.05621047 </i>
    <i name="e_wo_entrp">    -21.05621047 </i>
    <i name="e_0_energy">    -21.05621047 </i>
   </energy>
  </scstep>
  <scstep>
   <time name="dav">    6.74    6.75</time>
   <time name="total">   21.54   21.72</time>
   <energy>
    <i name="e_fr_energy">    -20.94712315 </i>
    <i name="e_wo_entrp">    -20.94712315 </i>
    <i name="e_0_energy">    -20.94712315 </i>
   </energy>
  </scstep>
  <scstep>
   <time name="dav">    7.59    7.61</time>
   <time name="total">   22.63   22.70</time>
   <energy>
    <i name="e_fr_energy">    -20.87696716 </i>
    <i name="e_wo_entrp">    -20.87696716 </i>
    <i name="e_0_energy">    -20.87696716 </i>
   </energy>
  </scstep>
  <scstep>
   <time name="dav">    7.36    7.38</time>
   <time name="total">   22.38   22.47</time>
   <energy>
    <i name="e_fr_energy">    -20.84013320 </i>
    <i name="e_wo_entrp">    -20.84013320 </i>
    <i name="e_0_energy">    -20.84013320 </i>
   </energy>
  </scstep>
  <scstep>
   <time name="dav">    7.59    7.60</time>
   <time name="total">   22.57   22.61</time>
   <energy>
    <i name="e_fr_energy">    -20.79621208 </i>
    <i name="e_wo_entrp">    -20.79621208 </i>
    <i name="e_0_energy">    -20.79621208 </i>
   </energy>
  </scstep>
  <scstep>
   <time name="dav">    7.37    7.39</time>
   <time name="total">   22.44   22.48</time>
   <energy>
    <i name="e_fr_energy">    -20.79437996 </i>
    <i name="e_wo_entrp">    -20.79437996 </i>
    <i name="e_0_energy">    -20.79437996 </i>
   </energy>
  </scstep>
  <scstep>
   <time name="dav">    7.62    7.63</time>
   <time name="total">   22.67   22.73</time>
   <energy>
    <i name="e_fr_energy">    -20.79442169 </i>
    <i name="e_wo_entrp">    -20.79442169 </i>
    <i name="e_0_energy">    -20.79442169 </i>
   </energy>
  </scstep>
  <scstep>
   <time name="dav">    7.16    7.18</time>
   <time name="total">   22.24   22.28</time>
   <energy>
    <i name="e_fr_energy">    -20.79495622 </i>
    <i name="e_wo_entrp">    -20.79495622 </i>
    <i name="e_0_energy">    -20.79495622 </i>
   </energy>
  </scstep>
  <scstep>
   <time name="dav">    7.38    7.41</time>
   <time name="total">   22.52   22.60</time>
   <energy>
    <i name="e_fr_energy">    -20.79632065 </i>
    <i name="e_wo_entrp">    -20.79632065 </i>
    <i name="e_0_energy">    -20.79632065 </i>
   </energy>
  </scstep>
  <scstep>
   <time name="dav">    7.42    7.45</time>
   <time name="total">   22.59   22.68</time>
   <energy>
    <i name="e_fr_energy">    -20.79625410 </i>
    <i name="e_wo_entrp">    -20.79625410 </i>
    <i name="e_0_energy">    -20.79625410 </i>
   </energy>
  </scstep>
  <scstep>
   <time name="dav">    8.21    8.24</time>
   <time name="total">   23.36   23.51</time>
   <energy>
    <i name="e_fr_energy">    -20.79528279 </i>
    <i name="e_wo_entrp">    -20.79528279 </i>
    <i name="e_0_energy">    -20.79528279 </i>
   </energy>
  </scstep>
  <scstep>
   <time name="dav">    8.71    8.72</time>
   <time name="total">   24.04   24.11</time>
   <energy>
    <i name="e_fr_energy">    -20.79584489 </i>
    <i name="e_wo_entrp">    -20.79584489 </i>
    <i name="e_0_energy">    -20.79584489 </i>
   </energy>
  </scstep>
  <scstep>
   <time name="dav">    7.58    7.59</time>
   <time name="total">   22.95   23.00</time>
   <energy>
    <i name="e_fr_energy">    -20.79577488 </i>
    <i name="e_wo_entrp">    -20.79577488 </i>
    <i name="e_0_energy">    -20.79577488 </i>
   </energy>
  </scstep>
  <scstep>
   <time name="dav">    6.59    6.60</time>
   <time name="total">   21.99   22.03</time>
   <energy>
    <i name="e_fr_energy">    -20.79604408 </i>
    <i name="e_wo_entrp">    -20.79604408 </i>
    <i name="e_0_energy">    -20.79604408 </i>
   </energy>
  </scstep>
  <scstep>
   <time name="dav">    6.96    6.97</time>
   <time name="total">   22.31   22.37</time>
   <energy>
    <i name="e_fr_energy">    -20.79598152 </i>
    <i name="e_wo_entrp">    -20.79598152 </i>
    <i name="e_0_energy">    -20.79598152 </i>
   </energy>
  </scstep>
  <scstep>
   <time name="dav">    7.86    7.87</time>
   <time name="total">   23.25   23.34</time>
   <energy>
    <i name="e_fr_energy">    -20.79590519 </i>
    <i name="e_wo_entrp">    -20.79590519 </i>
    <i name="e_0_energy">    -20.79590519 </i>
   </energy>
  </scstep>
  <scstep>
   <time name="dav">    6.97    6.98</time>
   <time name="total">   22.49   22.54</time>
   <energy>
    <i name="e_fr_energy">    -20.79588886 </i>
    <i name="e_wo_entrp">    -20.79588886 </i>
    <i name="e_0_energy">    -20.79588886 </i>
   </energy>
  </scstep>
  <scstep>
   <time name="dav">    6.75    6.76</time>
   <time name="total">   22.30   22.33</time>
   <energy>
    <i name="e_fr_energy">    -20.79588802 </i>
    <i name="e_wo_entrp">    -20.79588802 </i>
    <i name="e_0_energy">    -20.79588802 </i>
   </energy>
  </scstep>
  <scstep>
   <time name="dav">    7.01    7.03</time>
   <time name="total">   22.61   22.68</time>
   <energy>
    <i name="e_fr_energy">    -20.79589668 </i>
    <i name="e_wo_entrp">    -20.79589668 </i>
    <i name="e_0_energy">    -20.79589668 </i>
   </energy>
  </scstep>
  <scstep>
   <time name="dav">    6.85    6.86</time>
   <time name="total">   22.55   22.60</time>
   <energy>
    <i name="e_fr_energy">    -20.79589783 </i>
    <i name="e_wo_entrp">    -20.79589783 </i>
    <i name="e_0_energy">    -20.79589783 </i>
   </energy>
  </scstep>
  <scstep>
   <time name="dav">    3.99    4.00</time>
   <time name="total">   14.26   14.29</time>
   <energy>
    <i name="alphaZ">      8.51738001 </i>
    <i name="ewald">   3876.96269919 </i>
    <i name="hartreedc"> -12940.80091084 </i>
    <i name="XCdc">    337.60419402 </i>
    <i name="pawpsdc">  11102.27216753 </i>
    <i name="pawaedc"> -10899.66704474 </i>
    <i name="eentropy">     -0.00000000 </i>
    <i name="bandstr">  -1884.68767240 </i>
    <i name="atom">  10379.00329021 </i>
    <i name="e_fr_energy">    -20.79589702 </i>
    <i name="e_wo_entrp">    -20.79589702 </i>
    <i name="e_0_energy">    -20.79589702 </i>
   </energy>
  </scstep>
  <structure>
   <crystal>
    <varray name="basis" >
     <v>      17.00000000       0.00000000       0.00000000 </v>
     <v>       0.00000000      17.00000000       0.00000000 </v>
     <v>       0.00000000       0.00000000      17.00000000 </v>
    </varray>
    <i name="volume">   4913.00000000 </i>
    <varray name="rec_basis" >
     <v>       0.05882353       0.00000000       0.00000000 </v>
     <v>       0.00000000       0.05882353       0.00000000 </v>
     <v>       0.00000000       0.00000000       0.05882353 </v>
    </varray>
   </crystal>
   <varray name="positions" >
    <v>       0.91062347       0.03053053       0.99943400 </v>
    <v>       0.03255529       0.08727365       0.01550976 </v>
    <v>       0.08443876       0.97107471       0.96910829 </v>
    <v>       0.97238253       0.91112118       0.01594794 </v>
   </varray>
  </structure>
  <varray name="forces" >
   <v>       0.05263940      -0.01668856       0.00569186 </v>
   <v>      -0.02032761      -0.04539519      -0.01466213 </v>
   <v>      -0.04022079       0.01750662       0.02195258 </v>
   <v>       0.00790901       0.04457714      -0.01298230 </v>
  </varray>
  <energy>
   <i name="e_fr_energy">    -20.79589702 </i>
   <i name="e_wo_entrp">    -20.79589702 </i>
   <i name="e_0_energy">     -0.00000000 </i>
  </energy>
  <time name="totalsc">  728.91  731.37</time>
 </calculation>
 <calculation>
  <scstep>
   <time name="dav">    5.96    5.97</time>
   <time name="total">   20.66   20.73</time>
   <energy>
    <i name="alphaZ">      8.51738001 </i>
    <i name="ewald">   3890.12499564 </i>
    <i name="hartreedc"> -12953.64981661 </i>
    <i name="XCdc">    337.64313595 </i>
    <i name="pawpsdc">  11103.56859712 </i>
    <i name="pawaedc"> -10900.95937198 </i>
    <i name="eentropy">     -0.00000000 </i>
    <i name="bandstr">  -1885.04219809 </i>
    <i name="atom">  10379.00329021 </i>
    <i name="e_fr_energy">    -20.79398774 </i>
    <i name="e_wo_entrp">    -20.79398774 </i>
    <i name="e_0_energy">    -20.79398774 </i>
   </energy>
  </scstep>
  <scstep>
   <time name="dav">    5.91    5.92</time>
   <time name="total">   20.70   20.74</time>
   <energy>
    <i name="e_fr_energy">    -20.79571788 </i>
    <i name="e_wo_entrp">    -20.79571788 </i>
    <i name="e_0_energy">    -20.79571788 </i>
   </energy>
  </scstep>
  <scstep>
   <time name="dav">    7.65    7.66</time>
   <time name="total">   22.35   22.42</time>
   <energy>
    <i name="e_fr_energy">    -20.79583800 </i>
    <i name="e_wo_entrp">    -20.79583800 </i>
    <i name="e_0_energy">    -20.79583800 </i>
   </energy>
  </scstep>
  <scstep>
   <time name="dav">    6.14    6.15</time>
   <time name="total">   20.88   20.92</time>
   <energy>
    <i name="e_fr_energy">    -20.79581654 </i>
    <i name="e_wo_entrp">    -20.79581654 </i>
    <i name="e_0_energy">    -20.79581654 </i>
   </energy>
  </scstep>
  <scstep>
   <time name="dav">    7.23    7.24</time>
   <time name="total">   21.92   21.96</time>
   <energy>
    <i name="e_fr_energy">    -20.79593118 </i>
    <i name="e_wo_entrp">    -20.79593118 </i>
    <i name="e_0_energy">    -20.79593118 </i>
   </energy>
  </scstep>
  <scstep>
   <time name="dav">    7.44    7.45</time>
   <time name="total">   22.22   22.30</time>
   <energy>
    <i name="e_fr_energy">    -20.79594504 </i>
    <i name="e_wo_entrp">    -20.79594504 </i>
    <i name="e_0_energy">    -20.79594504 </i>
   </energy>
  </scstep>
  <scstep>
   <time name="dav">    6.56    6.57</time>
   <time name="total">   21.28   21.31</time>
   <energy>
    <i name="e_fr_energy">    -20.79596730 </i>
    <i name="e_wo_entrp">    -20.79596730 </i>
    <i name="e_0_energy">    -20.79596730 </i>
   </energy>
  </scstep>
  <scstep>
   <time name="dav">    6.08    6.09</time>
   <time name="total">   20.85   20.90</time>
   <energy>
    <i name="e_fr_energy">    -20.79597652 </i>
    <i name="e_wo_entrp">    -20.79597652 </i>
    <i name="e_0_energy">    -20.79597652 </i>
   </energy>
  </scstep>
  <scstep>
   <time name="dav">    6.51    6.53</time>
   <time name="total">   21.30   21.37</time>
   <energy>
    <i name="e_fr_energy">    -20.79597855 </i>
    <i name="e_wo_entrp">    -20.79597855 </i>
    <i name="e_0_energy">    -20.79597855 </i>
   </energy>
  </scstep>
  <scstep>
   <time name="dav">    3.92    3.92</time>
   <time name="total">   14.12   14.15</time>
   <energy>
    <i name="alphaZ">      8.51738001 </i>
    <i name="ewald">   3890.12499564 </i>
    <i name="hartreedc"> -12953.38072754 </i>
    <i name="XCdc">    337.64159674 </i>
    <i name="pawpsdc">  11123.21122647 </i>
    <i name="pawaedc"> -10920.56016188 </i>
    <i name="eentropy">     -0.00000000 </i>
    <i name="bandstr">  -1885.35357905 </i>
    <i name="atom">  10379.00329021 </i>
    <i name="e_fr_energy">    -20.79597940 </i>
    <i name="e_wo_entrp">    -20.79597940 </i>
    <i name="e_0_energy">    -20.79597940 </i>
   </energy>
  </scstep>
  <structure>
   <crystal>
    <varray name="basis" >
     <v>      17.00000000       0.00000000       0.00000000 </v>
     <v>       0.00000000      17.00000000       0.00000000 </v>
     <v>       0.00000000       0.00000000      17.00000000 </v>
    </varray>
    <i name="volume">   4913.00000000 </i>
    <varray name="rec_basis" >
     <v>       0.05882353       0.00000000       0.00000000 </v>
     <v>       0.00000000       0.05882353       0.00000000 </v>
     <v>       0.00000000       0.00000000       0.05882353 </v>
    </varray>
   </crystal>
   <varray name="positions" >
    <v>       0.91077285       0.03048317       0.99945015 </v>
    <v>       0.03249761       0.08714482       0.01546816 </v>
    <v>       0.08432463       0.97112439       0.96917059 </v>
    <v>       0.97240497       0.91124768       0.01591110 </v>
   </varray>
  </structure>
  <varray name="forces" >
   <v>      -0.03667376       0.01369028      -0.01012612 </v>
   <v>       0.01650164       0.03430319       0.01444974 </v>
   <v>       0.02971739      -0.01169159      -0.01884444 </v>
   <v>      -0.00954528      -0.03630187       0.01452082 </v>
  </varray>
  <energy>
   <i name="e_fr_energy">    -20.79597940 </i>
   <i name="e_wo_entrp">    -20.79597940 </i>
   <i name="e_0_energy">     -0.00000000 </i>
  </energy>
  <time name="totalsc">  256.33  256.96</time>
 </calculation>
 <calculation>
  <scstep>
   <time name="dav">    5.92    5.94</time>
   <time name="total">   20.41   20.55</time>
   <energy>
    <i name="alphaZ">      8.51738001 </i>
    <i name="ewald">   3884.92037453 </i>
    <i name="hartreedc"> -12948.29831758 </i>
    <i name="XCdc">    337.62594186 </i>
    <i name="pawpsdc">  11123.28966553 </i>
    <i name="pawaedc"> -10920.63947206 </i>
    <i name="eentropy">     -0.00000000 </i>
    <i name="bandstr">  -1885.21461495 </i>
    <i name="atom">  10379.00329021 </i>
    <i name="e_fr_energy">    -20.79575244 </i>
    <i name="e_wo_entrp">    -20.79575244 </i>
    <i name="e_0_energy">    -20.79575244 </i>
   </energy>
  </scstep>
  <scstep>
   <time name="dav">    5.90    5.92</time>
   <time name="total">   20.58   20.64</time>
   <energy>
    <i name="e_fr_energy">    -20.79601016 </i>
    <i name="e_wo_entrp">    -20.79601016 </i>
    <i name="e_0_energy">    -20.79601016 </i>
   </energy>
  </scstep>
  <scstep>
   <time name="dav">    7.61    7.73</time>
   <time name="total">   22.25   22.41</time>
   <energy>
    <i name="e_fr_energy">    -20.79603075 </i>
    <i name="e_wo_entrp">    -20.79603075 </i>
    <i name="e_0_energy">    -20.79603075 </i>
   </energy>
  </scstep>
  <scstep>
   <time name="dav">    4.38    4.38</time>
   <time name="total">   19.01   19.09</time>
   <energy>
    <i name="e_fr_energy">    -20.79602690 </i>
    <i name="e_wo_entrp">    -20.79602690 </i>
    <i name="e_0_energy">    -20.79602690 </i>
   </energy>
  </scstep>
  <scstep>
   <time name="dav">    6.31    6.32</time>
   <time name="total">   20.97   21.02</time>
   <energy>
    <i name="e_fr_energy">    -20.79605077 </i>
    <i name="e_wo_entrp">    -20.79605077 </i>
    <i name="e_0_energy">    -20.79605077 </i>
   </energy>
  </scstep>
  <scstep>
   <time name="dav">    6.55    6.57</time>
   <time name="total">   16.64   16.73</time>
   <energy>
    <i name="alphaZ">      8.51738001 </i>
    <i name="ewald">   3884.92037453 </i>
    <i name="hartreedc"> -12948.43542721 </i>
    <i name="XCdc">    337.62755032 </i>
    <i name="pawpsdc">  11120.44142416 </i>
    <i name="pawaedc"> -10917.79952053 </i>
    <i name="eentropy">     -0.00000000 </i>
    <i name="bandstr">  -1885.07112180 </i>
    <i name="atom">  10379.00329021 </i>
    <i name="e_fr_energy">    -20.79605031 </i>
    <i name="e_wo_entrp">    -20.79605031 </i>
    <i name="e_0_energy">    -20.79605031 </i>
   </energy>
  </scstep>
  <structure>
   <crystal>
    <varray name="basis" >
     <v>      17.00000000       0.00000000       0.00000000 </v>
     <v>       0.00000000      17.00000000       0.00000000 </v>
     <v>       0.00000000       0.00000000      17.00000000 </v>
    </varray>
    <i name="volume">   4913.00000000 </i>
    <varray name="rec_basis" >
     <v>       0.05882353       0.00000000       0.00000000 </v>
     <v>       0.00000000       0.05882353       0.00000000 </v>
     <v>       0.00000000       0.00000000       0.05882353 </v>
    </varray>
   </crystal>
   <varray name="positions" >
    <v>       0.91071384       0.03050188       0.99944377 </v>
    <v>       0.03252040       0.08719572       0.01548459 </v>
    <v>       0.08436972       0.97110476       0.96914598 </v>
    <v>       0.97239611       0.91119770       0.01592565 </v>
   </varray>
  </structure>
  <varray name="forces" >
   <v>      -0.00155357       0.00207280      -0.00501775 </v>
   <v>       0.00252324       0.00230744       0.00373992 </v>
   <v>       0.00146719      -0.00043042      -0.00394972 </v>
   <v>      -0.00243686      -0.00394982       0.00522755 </v>
  </varray>
  <energy>
   <i name="e_fr_energy">    -20.79605031 </i>
   <i name="e_wo_entrp">    -20.79605031 </i>
   <i name="e_0_energy">     -0.00000000 </i>
  </energy>
  <time name="totalsc">  168.68  169.41</time>
  <eigenvalues>
   <array>
    <dimension dim="1">band</dimension>
    <dimension dim="2">kpoint</dimension>
    <dimension dim="3">spin</dimension>
    <field>eigene</field>
    <field>occ</field>
    <set>
     <set comment="spin 1">
      <set comment="kpoint 1">
       <r>  -76.5439    1.0000 </r>
       <r>  -76.3782    1.0000 </r>
       <r>  -76.3781    1.0000 </r>
       <r>  -76.2182    1.0000 </r>
       <r>  -47.1290    1.0000 </r>
       <r>  -47.0157    1.0000 </r>
       <r>  -46.9470    1.0000 </r>
       <r>  -46.9466    1.0000 </r>
       <r>  -46.6301    1.0000 </r>
       <r>  -46.4970    1.0000 </r>
       <r>  -46.4969    1.0000 </r>
       <r>  -46.4003    1.0000 </r>
       <r>  -46.0163    1.0000 </r>
       <r>  -46.0163    1.0000 </r>
       <r>  -45.9174    1.0000 </r>
       <r>  -45.9154    1.0000 </r>
       <r>   -8.1907    1.0000 </r>
       <r>   -7.4734    1.0000 </r>
       <r>   -7.2411    1.0000 </r>
       <r>   -6.7450    1.0000 </r>
       <r>   -6.7154    1.0000 </r>
       <r>   -6.7153    1.0000 </r>
       <r>   -6.5582    1.0000 </r>
       <r>   -6.5574    1.0000 </r>
       <r>   -6.4434    1.0000 </r>
       <r>   -5.7316    1.0000 </r>
       <r>   -5.1311    1.0000 </r>
       <r>   -5.1308    1.0000 </r>
       <r>   -4.5098    1.0000 </r>
       <r>   -4.5095    1.0000 </r>
       <r>   -4.4312    1.0000 </r>
       <r>   -4.2140    1.0000 </r>
       <r>   -4.1071    1.0000 </r>
       <r>   -4.1069    1.0000 </r>
       <r>   -3.8754    1.0000 </r>
       <r>   -3.4685    1.0000 </r>
       <r>   -3.1487    0.0000 </r>
       <r>   -3.1487    0.0000 </r>
       <r>   -2.4888    0.0000 </r>
       <r>   -1.9562    0.0000 </r>
      </set>
     </set>
     <set comment="spin 2">
      <set comment="kpoint 1">
       <r>  -75.3234    1.0000 </r>
       <r>  -75.1521    1.0000 </r>
       <r>  -75.1519    1.0000 </r>
       <r>  -74.9868    1.0000 </r>
       <r>  -46.0277    1.0000 </r>
       <r>  -45.8726    1.0000 </r>
       <r>  -45.8123    1.0000 </r>
       <r>  -45.8119    1.0000 </r>
       <r>  -45.0193    1.0000 </r>
       <r>  -44.9103    1.0000 </r>
       <r>  -44.9102    1.0000 </r>
       <r>  -44.8254    1.0000 </r>
       <r>  -44.8254    1.0000 </r>
       <r>  -44.7789    1.0000 </r>
       <r>  -44.7651    1.0000 </r>
       <r>  -44.7267    1.0000 </r>
       <r>   -7.4132    1.0000 </r>
       <r>   -6.7868    1.0000 </r>
       <r>   -6.0868    1.0000 </r>
       <r>   -6.0090    1.0000 </r>
       <r>   -5.9028    1.0000 </r>
       <r>   -5.9026    1.0000 </r>
       <r>   -5.3606    1.0000 </r>
       <r>   -5.3597    1.0000 </r>
       <r>   -5.2640    1.0000 </r>
       <r>   -4.5589    1.0000 </r>
       <r>   -4.1125    1.0000 </r>
       <r>   -4.1120    1.0000 </r>
       <r>   -2.9096    0.0000 </r>
       <r>   -2.9092    0.0000 </r>
       <r>   -2.7658    0.0000 </r>
       <r>   -2.6588    0.0000 </r>
       <r>   -2.6586    0.0000 </r>
       <r>   -2.5054    0.0000 </r>
       <r>   -2.4934    0.0000 </r>
       <r>   -2.4264    0.0000 </r>
       <r>   -2.4263    0.0000 </r>
       <r>   -2.2068    0.0000 </r>
       <r>   -1.6388    0.0000 </r>
       <r>   -1.4043    0.0000 </r>
      </set>
     </set>
    </set>
   </array>
  </eigenvalues>
  <separator name="orbital magnetization" >
   <v name="MAGDIPOLOUT">      0.00000000      0.00000000      0.00000000</v>
  </separator>
  <dos>
   <i name="efermi">     -3.36420940 </i>
   <total>
    <array>
     <dimension dim="1">gridpoints</dimension>
     <dimension dim="2">spin</dimension>
     <field>energy</field>
     <field>total</field>
     <field>integrated</field>
     <set>
      <set comment="spin 1">
       <r>   -80.3008     0.0000     0.0000 </r>
       <r>   -80.0253     0.0000     0.0000 </r>
       <r>   -79.7498     0.0000     0.0000 </r>
       <r>   -79.4743     0.0000     0.0000 </r>
       <r>   -79.1988     0.0000     0.0000 </r>
       <r>   -78.9233     0.0000     0.0000 </r>
       <r>   -78.6478     0.0000     0.0000 </r>
       <r>   -78.3723     0.0000     0.0000 </r>
       <r>   -78.0967     0.0000     0.0000 </r>
       <r>   -77.8212     0.0000     0.0000 </r>
       <r>   -77.5457     0.0000     0.0000 </r>
       <r>   -77.2702     0.0000     0.0000 </r>
       <r>   -76.9947     0.0000     0.0000 </r>
       <r>   -76.7192     0.0000     0.0000 </r>
       <r>   -76.4437     0.0000     1.0000 </r>
       <r>   -76.1682     0.0000     4.0000 </r>
       <r>   -75.8926     0.0000     4.0000 </r>
       <r>   -75.6171     0.0000     4.0000 </r>
       <r>   -75.3416     0.0000     4.0000 </r>
       <r>   -75.0661     0.0000     4.0000 </r>
       <r>   -74.7906     0.0000     4.0000 </r>
       <r>   -74.5151     0.0000     4.0000 </r>
       <r>   -74.2396     0.0000     4.0000 </r>
       <r>   -73.9641     0.0000     4.0000 </r>
       <r>   -73.6886     0.0000     4.0000 </r>
       <r>   -73.4130     0.0000     4.0000 </r>
       <r>   -73.1375     0.0000     4.0000 </r>
       <r>   -72.8620     0.0000     4.0000 </r>
       <r>   -72.5865     0.0000     4.0000 </r>
       <r>   -72.3110     0.0000     4.0000 </r>
       <r>   -72.0355     0.0000     4.0000 </r>
       <r>   -71.7600     0.0000     4.0000 </r>
       <r>   -71.4845     0.0000     4.0000 </r>
       <r>   -71.2090     0.0000     4.0000 </r>
       <r>   -70.9334     0.0000     4.0000 </r>
       <r>   -70.6579     0.0000     4.0000 </r>
       <r>   -70.3824     0.0000     4.0000 </r>
       <r>   -70.1069     0.0000     4.0000 </r>
       <r>   -69.8314     0.0000     4.0000 </r>
       <r>   -69.5559     0.0000     4.0000 </r>
       <r>   -69.2804     0.0000     4.0000 </r>
       <r>   -69.0049     0.0000     4.0000 </r>
       <r>   -68.7293     0.0000     4.0000 </r>
       <r>   -68.4538     0.0000     4.0000 </r>
       <r>   -68.1783     0.0000     4.0000 </r>
       <r>   -67.9028     0.0000     4.0000 </r>
       <r>   -67.6273     0.0000     4.0000 </r>
       <r>   -67.3518     0.0000     4.0000 </r>
       <r>   -67.0763     0.0000     4.0000 </r>
       <r>   -66.8008     0.0000     4.0000 </r>
       <r>   -66.5253     0.0000     4.0000 </r>
       <r>   -66.2497     0.0000     4.0000 </r>
       <r>   -65.9742     0.0000     4.0000 </r>
       <r>   -65.6987     0.0000     4.0000 </r>
       <r>   -65.4232     0.0000     4.0000 </r>
       <r>   -65.1477     0.0000     4.0000 </r>
       <r>   -64.8722     0.0000     4.0000 </r>
       <r>   -64.5967     0.0000     4.0000 </r>
       <r>   -64.3212     0.0000     4.0000 </r>
       <r>   -64.0456     0.0000     4.0000 </r>
       <r>   -63.7701     0.0000     4.0000 </r>
       <r>   -63.4946     0.0000     4.0000 </r>
       <r>   -63.2191     0.0000     4.0000 </r>
       <r>   -62.9436     0.0000     4.0000 </r>
       <r>   -62.6681     0.0000     4.0000 </r>
       <r>   -62.3926     0.0000     4.0000 </r>
       <r>   -62.1171     0.0000     4.0000 </r>
       <r>   -61.8416     0.0000     4.0000 </r>
       <r>   -61.5660     0.0000     4.0000 </r>
       <r>   -61.2905     0.0000     4.0000 </r>
       <r>   -61.0150     0.0000     4.0000 </r>
       <r>   -60.7395     0.0000     4.0000 </r>
       <r>   -60.4640     0.0000     4.0000 </r>
       <r>   -60.1885     0.0000     4.0000 </r>
       <r>   -59.9130     0.0000     4.0000 </r>
       <r>   -59.6375     0.0000     4.0000 </r>
       <r>   -59.3620     0.0000     4.0000 </r>
       <r>   -59.0864     0.0000     4.0000 </r>
       <r>   -58.8109     0.0000     4.0000 </r>
       <r>   -58.5354     0.0000     4.0000 </r>
       <r>   -58.2599     0.0000     4.0000 </r>
       <r>   -57.9844     0.0000     4.0000 </r>
       <r>   -57.7089     0.0000     4.0000 </r>
       <r>   -57.4334     0.0000     4.0000 </r>
       <r>   -57.1579     0.0000     4.0000 </r>
       <r>   -56.8823     0.0000     4.0000 </r>
       <r>   -56.6068     0.0000     4.0000 </r>
       <r>   -56.3313     0.0000     4.0000 </r>
       <r>   -56.0558     0.0000     4.0000 </r>
       <r>   -55.7803     0.0000     4.0000 </r>
       <r>   -55.5048     0.0000     4.0000 </r>
       <r>   -55.2293     0.0000     4.0000 </r>
       <r>   -54.9538     0.0000     4.0000 </r>
       <r>   -54.6783     0.0000     4.0000 </r>
       <r>   -54.4027     0.0000     4.0000 </r>
       <r>   -54.1272     0.0000     4.0000 </r>
       <r>   -53.8517     0.0000     4.0000 </r>
       <r>   -53.5762     0.0000     4.0000 </r>
       <r>   -53.3007     0.0000     4.0000 </r>
       <r>   -53.0252     0.0000     4.0000 </r>
       <r>   -52.7497     0.0000     4.0000 </r>
       <r>   -52.4742     0.0000     4.0000 </r>
       <r>   -52.1986     0.0000     4.0000 </r>
       <r>   -51.9231     0.0000     4.0000 </r>
       <r>   -51.6476     0.0000     4.0000 </r>
       <r>   -51.3721     0.0000     4.0000 </r>
       <r>   -51.0966     0.0000     4.0000 </r>
       <r>   -50.8211     0.0000     4.0000 </r>
       <r>   -50.5456     0.0000     4.0000 </r>
       <r>   -50.2701     0.0000     4.0000 </r>
       <r>   -49.9946     0.0000     4.0000 </r>
       <r>   -49.7190     0.0000     4.0000 </r>
       <r>   -49.4435     0.0000     4.0000 </r>
       <r>   -49.1680     0.0000     4.0000 </r>
       <r>   -48.8925     0.0000     4.0000 </r>
       <r>   -48.6170     0.0000     4.0000 </r>
       <r>   -48.3415     0.0000     4.0000 </r>
       <r>   -48.0660     0.0000     4.0000 </r>
       <r>   -47.7905     0.0000     4.0000 </r>
       <r>   -47.5150     0.0000     4.0000 </r>
       <r>   -47.2394     0.0000     4.0000 </r>
       <r>   -46.9639     0.0000     6.0000 </r>
       <r>   -46.6884     0.0000     8.0000 </r>
       <r>   -46.4129     0.0006    11.0002 </r>
       <r>   -46.1374     0.0000    12.0000 </r>
       <r>   -45.8619     0.0000    16.0000 </r>
       <r>   -45.5864     0.0000    16.0000 </r>
       <r>   -45.3109     0.0000    16.0000 </r>
       <r>   -45.0353     0.0000    16.0000 </r>
       <r>   -44.7598     0.0000    16.0000 </r>
       <r>   -44.4843     0.0000    16.0000 </r>
       <r>   -44.2088     0.0000    16.0000 </r>
       <r>   -43.9333     0.0000    16.0000 </r>
       <r>   -43.6578     0.0000    16.0000 </r>
       <r>   -43.3823     0.0000    16.0000 </r>
       <r>   -43.1068     0.0000    16.0000 </r>
       <r>   -42.8313     0.0000    16.0000 </r>
       <r>   -42.5557     0.0000    16.0000 </r>
       <r>   -42.2802     0.0000    16.0000 </r>
       <r>   -42.0047     0.0000    16.0000 </r>
       <r>   -41.7292     0.0000    16.0000 </r>
       <r>   -41.4537     0.0000    16.0000 </r>
       <r>   -41.1782     0.0000    16.0000 </r>
       <r>   -40.9027     0.0000    16.0000 </r>
       <r>   -40.6272     0.0000    16.0000 </r>
       <r>   -40.3516     0.0000    16.0000 </r>
       <r>   -40.0761     0.0000    16.0000 </r>
       <r>   -39.8006     0.0000    16.0000 </r>
       <r>   -39.5251     0.0000    16.0000 </r>
       <r>   -39.2496     0.0000    16.0000 </r>
       <r>   -38.9741     0.0000    16.0000 </r>
       <r>   -38.6986     0.0000    16.0000 </r>
       <r>   -38.4231     0.0000    16.0000 </r>
       <r>   -38.1476     0.0000    16.0000 </r>
       <r>   -37.8720     0.0000    16.0000 </r>
       <r>   -37.5965     0.0000    16.0000 </r>
       <r>   -37.3210     0.0000    16.0000 </r>
       <r>   -37.0455     0.0000    16.0000 </r>
       <r>   -36.7700     0.0000    16.0000 </r>
       <r>   -36.4945     0.0000    16.0000 </r>
       <r>   -36.2190     0.0000    16.0000 </r>
       <r>   -35.9435     0.0000    16.0000 </r>
       <r>   -35.6679     0.0000    16.0000 </r>
       <r>   -35.3924     0.0000    16.0000 </r>
       <r>   -35.1169     0.0000    16.0000 </r>
       <r>   -34.8414     0.0000    16.0000 </r>
       <r>   -34.5659     0.0000    16.0000 </r>
       <r>   -34.2904     0.0000    16.0000 </r>
       <r>   -34.0149     0.0000    16.0000 </r>
       <r>   -33.7394     0.0000    16.0000 </r>
       <r>   -33.4639     0.0000    16.0000 </r>
       <r>   -33.1883     0.0000    16.0000 </r>
       <r>   -32.9128     0.0000    16.0000 </r>
       <r>   -32.6373     0.0000    16.0000 </r>
       <r>   -32.3618     0.0000    16.0000 </r>
       <r>   -32.0863     0.0000    16.0000 </r>
       <r>   -31.8108     0.0000    16.0000 </r>
       <r>   -31.5353     0.0000    16.0000 </r>
       <r>   -31.2598     0.0000    16.0000 </r>
       <r>   -30.9843     0.0000    16.0000 </r>
       <r>   -30.7087     0.0000    16.0000 </r>
       <r>   -30.4332     0.0000    16.0000 </r>
       <r>   -30.1577     0.0000    16.0000 </r>
       <r>   -29.8822     0.0000    16.0000 </r>
       <r>   -29.6067     0.0000    16.0000 </r>
       <r>   -29.3312     0.0000    16.0000 </r>
       <r>   -29.0557     0.0000    16.0000 </r>
       <r>   -28.7802     0.0000    16.0000 </r>
       <r>   -28.5046     0.0000    16.0000 </r>
       <r>   -28.2291     0.0000    16.0000 </r>
       <r>   -27.9536     0.0000    16.0000 </r>
       <r>   -27.6781     0.0000    16.0000 </r>
       <r>   -27.4026     0.0000    16.0000 </r>
       <r>   -27.1271     0.0000    16.0000 </r>
       <r>   -26.8516     0.0000    16.0000 </r>
       <r>   -26.5761     0.0000    16.0000 </r>
       <r>   -26.3006     0.0000    16.0000 </r>
       <r>   -26.0250     0.0000    16.0000 </r>
       <r>   -25.7495     0.0000    16.0000 </r>
       <r>   -25.4740     0.0000    16.0000 </r>
       <r>   -25.1985     0.0000    16.0000 </r>
       <r>   -24.9230     0.0000    16.0000 </r>
       <r>   -24.6475     0.0000    16.0000 </r>
       <r>   -24.3720     0.0000    16.0000 </r>
       <r>   -24.0965     0.0000    16.0000 </r>
       <r>   -23.8209     0.0000    16.0000 </r>
       <r>   -23.5454     0.0000    16.0000 </r>
       <r>   -23.2699     0.0000    16.0000 </r>
       <r>   -22.9944     0.0000    16.0000 </r>
       <r>   -22.7189     0.0000    16.0000 </r>
       <r>   -22.4434     0.0000    16.0000 </r>
       <r>   -22.1679     0.0000    16.0000 </r>
       <r>   -21.8924     0.0000    16.0000 </r>
       <r>   -21.6169     0.0000    16.0000 </r>
       <r>   -21.3413     0.0000    16.0000 </r>
       <r>   -21.0658     0.0000    16.0000 </r>
       <r>   -20.7903     0.0000    16.0000 </r>
       <r>   -20.5148     0.0000    16.0000 </r>
       <r>   -20.2393     0.0000    16.0000 </r>
       <r>   -19.9638     0.0000    16.0000 </r>
       <r>   -19.6883     0.0000    16.0000 </r>
       <r>   -19.4128     0.0000    16.0000 </r>
       <r>   -19.1373     0.0000    16.0000 </r>
       <r>   -18.8617     0.0000    16.0000 </r>
       <r>   -18.5862     0.0000    16.0000 </r>
       <r>   -18.3107     0.0000    16.0000 </r>
       <r>   -18.0352     0.0000    16.0000 </r>
       <r>   -17.7597     0.0000    16.0000 </r>
       <r>   -17.4842     0.0000    16.0000 </r>
       <r>   -17.2087     0.0000    16.0000 </r>
       <r>   -16.9332     0.0000    16.0000 </r>
       <r>   -16.6576     0.0000    16.0000 </r>
       <r>   -16.3821     0.0000    16.0000 </r>
       <r>   -16.1066     0.0000    16.0000 </r>
       <r>   -15.8311     0.0000    16.0000 </r>
       <r>   -15.5556     0.0000    16.0000 </r>
       <r>   -15.2801     0.0000    16.0000 </r>
       <r>   -15.0046     0.0000    16.0000 </r>
       <r>   -14.7291     0.0000    16.0000 </r>
       <r>   -14.4536     0.0000    16.0000 </r>
       <r>   -14.1780     0.0000    16.0000 </r>
       <r>   -13.9025     0.0000    16.0000 </r>
       <r>   -13.6270     0.0000    16.0000 </r>
       <r>   -13.3515     0.0000    16.0000 </r>
       <r>   -13.0760     0.0000    16.0000 </r>
       <r>   -12.8005     0.0000    16.0000 </r>
       <r>   -12.5250     0.0000    16.0000 </r>
       <r>   -12.2495     0.0000    16.0000 </r>
       <r>   -11.9739     0.0000    16.0000 </r>
       <r>   -11.6984     0.0000    16.0000 </r>
       <r>   -11.4229     0.0000    16.0000 </r>
       <r>   -11.1474     0.0000    16.0000 </r>
       <r>   -10.8719     0.0000    16.0000 </r>
       <r>   -10.5964     0.0000    16.0000 </r>
       <r>   -10.3209     0.0000    16.0000 </r>
       <r>   -10.0454     0.0000    16.0000 </r>
       <r>    -9.7699     0.0000    16.0000 </r>
       <r>    -9.4943     0.0000    16.0000 </r>
       <r>    -9.2188     0.0000    16.0000 </r>
       <r>    -8.9433     0.0000    16.0000 </r>
       <r>    -8.6678     0.0000    16.0000 </r>
       <r>    -8.3923     0.0000    16.0000 </r>
       <r>    -8.1168     0.0000    17.0000 </r>
       <r>    -7.8413     0.0000    17.0000 </r>
       <r>    -7.5658     0.0000    17.0000 </r>
       <r>    -7.2903     0.0000    18.0000 </r>
       <r>    -7.0147     0.0000    19.0000 </r>
       <r>    -6.7392     3.4437    19.9488 </r>
       <r>    -6.4637     0.0000    24.0000 </r>
       <r>    -6.1882     0.0000    25.0000 </r>
       <r>    -5.9127     0.0000    25.0000 </r>
       <r>    -5.6372     0.0000    26.0000 </r>
       <r>    -5.3617     0.0000    26.0000 </r>
       <r>    -5.0862     0.0000    28.0000 </r>
       <r>    -4.8106     0.0000    28.0000 </r>
       <r>    -4.5351     0.0000    28.0000 </r>
       <r>    -4.2596     0.0000    31.0000 </r>
       <r>    -3.9841     0.0000    34.0000 </r>
       <r>    -3.7086     0.0000    35.0000 </r>
       <r>    -3.4331     3.6296    36.0000 </r>
       <r>    -3.1576     0.0441    36.0122 </r>
       <r>    -2.8821     0.0000    38.0000 </r>
       <r>    -2.6066     0.0000    38.0000 </r>
       <r>    -2.3310     0.0000    39.0000 </r>
       <r>    -2.0555     0.0000    39.0000 </r>
       <r>    -1.7800     0.0000    40.0000 </r>
       <r>    -1.5045     0.0000    40.0000 </r>
       <r>    -1.2290     0.0000    40.0000 </r>
       <r>    -0.9535     0.0000    40.0000 </r>
       <r>    -0.6780     0.0000    40.0000 </r>
       <r>    -0.4025     0.0000    40.0000 </r>
       <r>    -0.1269     0.0000    40.0000 </r>
       <r>     0.1486     0.0000    40.0000 </r>
       <r>     0.4241     0.0000    40.0000 </r>
       <r>     0.6996     0.0000    40.0000 </r>
       <r>     0.9751     0.0000    40.0000 </r>
       <r>     1.2506     0.0000    40.0000 </r>
       <r>     1.5261     0.0000    40.0000 </r>
       <r>     1.8016     0.0000    40.0000 </r>
       <r>     2.0771     0.0000    40.0000 </r>
       <r>     2.3527     0.0000    40.0000 </r>
      </set>
      <set comment="spin 2">
       <r>   -80.3008     0.0000     0.0000 </r>
       <r>   -80.0253     0.0000     0.0000 </r>
       <r>   -79.7498     0.0000     0.0000 </r>
       <r>   -79.4743     0.0000     0.0000 </r>
       <r>   -79.1988     0.0000     0.0000 </r>
       <r>   -78.9233     0.0000     0.0000 </r>
       <r>   -78.6478     0.0000     0.0000 </r>
       <r>   -78.3723     0.0000     0.0000 </r>
       <r>   -78.0967     0.0000     0.0000 </r>
       <r>   -77.8212     0.0000     0.0000 </r>
       <r>   -77.5457     0.0000     0.0000 </r>
       <r>   -77.2702     0.0000     0.0000 </r>
       <r>   -76.9947     0.0000     0.0000 </r>
       <r>   -76.7192     0.0000     0.0000 </r>
       <r>   -76.4437     0.0000     0.0000 </r>
       <r>   -76.1682     0.0000     0.0000 </r>
       <r>   -75.8926     0.0000     0.0000 </r>
       <r>   -75.6171     0.0000     0.0000 </r>
       <r>   -75.3416     0.0000     0.0000 </r>
       <r>   -75.0661     0.0000     3.0000 </r>
       <r>   -74.7906     0.0000     4.0000 </r>
       <r>   -74.5151     0.0000     4.0000 </r>
       <r>   -74.2396     0.0000     4.0000 </r>
       <r>   -73.9641     0.0000     4.0000 </r>
       <r>   -73.6886     0.0000     4.0000 </r>
       <r>   -73.4130     0.0000     4.0000 </r>
       <r>   -73.1375     0.0000     4.0000 </r>
       <r>   -72.8620     0.0000     4.0000 </r>
       <r>   -72.5865     0.0000     4.0000 </r>
       <r>   -72.3110     0.0000     4.0000 </r>
       <r>   -72.0355     0.0000     4.0000 </r>
       <r>   -71.7600     0.0000     4.0000 </r>
       <r>   -71.4845     0.0000     4.0000 </r>
       <r>   -71.2090     0.0000     4.0000 </r>
       <r>   -70.9334     0.0000     4.0000 </r>
       <r>   -70.6579     0.0000     4.0000 </r>
       <r>   -70.3824     0.0000     4.0000 </r>
       <r>   -70.1069     0.0000     4.0000 </r>
       <r>   -69.8314     0.0000     4.0000 </r>
       <r>   -69.5559     0.0000     4.0000 </r>
       <r>   -69.2804     0.0000     4.0000 </r>
       <r>   -69.0049     0.0000     4.0000 </r>
       <r>   -68.7293     0.0000     4.0000 </r>
       <r>   -68.4538     0.0000     4.0000 </r>
       <r>   -68.1783     0.0000     4.0000 </r>
       <r>   -67.9028     0.0000     4.0000 </r>
       <r>   -67.6273     0.0000     4.0000 </r>
       <r>   -67.3518     0.0000     4.0000 </r>
       <r>   -67.0763     0.0000     4.0000 </r>
       <r>   -66.8008     0.0000     4.0000 </r>
       <r>   -66.5253     0.0000     4.0000 </r>
       <r>   -66.2497     0.0000     4.0000 </r>
       <r>   -65.9742     0.0000     4.0000 </r>
       <r>   -65.6987     0.0000     4.0000 </r>
       <r>   -65.4232     0.0000     4.0000 </r>
       <r>   -65.1477     0.0000     4.0000 </r>
       <r>   -64.8722     0.0000     4.0000 </r>
       <r>   -64.5967     0.0000     4.0000 </r>
       <r>   -64.3212     0.0000     4.0000 </r>
       <r>   -64.0456     0.0000     4.0000 </r>
       <r>   -63.7701     0.0000     4.0000 </r>
       <r>   -63.4946     0.0000     4.0000 </r>
       <r>   -63.2191     0.0000     4.0000 </r>
       <r>   -62.9436     0.0000     4.0000 </r>
       <r>   -62.6681     0.0000     4.0000 </r>
       <r>   -62.3926     0.0000     4.0000 </r>
       <r>   -62.1171     0.0000     4.0000 </r>
       <r>   -61.8416     0.0000     4.0000 </r>
       <r>   -61.5660     0.0000     4.0000 </r>
       <r>   -61.2905     0.0000     4.0000 </r>
       <r>   -61.0150     0.0000     4.0000 </r>
       <r>   -60.7395     0.0000     4.0000 </r>
       <r>   -60.4640     0.0000     4.0000 </r>
       <r>   -60.1885     0.0000     4.0000 </r>
       <r>   -59.9130     0.0000     4.0000 </r>
       <r>   -59.6375     0.0000     4.0000 </r>
       <r>   -59.3620     0.0000     4.0000 </r>
       <r>   -59.0864     0.0000     4.0000 </r>
       <r>   -58.8109     0.0000     4.0000 </r>
       <r>   -58.5354     0.0000     4.0000 </r>
       <r>   -58.2599     0.0000     4.0000 </r>
       <r>   -57.9844     0.0000     4.0000 </r>
       <r>   -57.7089     0.0000     4.0000 </r>
       <r>   -57.4334     0.0000     4.0000 </r>
       <r>   -57.1579     0.0000     4.0000 </r>
       <r>   -56.8823     0.0000     4.0000 </r>
       <r>   -56.6068     0.0000     4.0000 </r>
       <r>   -56.3313     0.0000     4.0000 </r>
       <r>   -56.0558     0.0000     4.0000 </r>
       <r>   -55.7803     0.0000     4.0000 </r>
       <r>   -55.5048     0.0000     4.0000 </r>
       <r>   -55.2293     0.0000     4.0000 </r>
       <r>   -54.9538     0.0000     4.0000 </r>
       <r>   -54.6783     0.0000     4.0000 </r>
       <r>   -54.4027     0.0000     4.0000 </r>
       <r>   -54.1272     0.0000     4.0000 </r>
       <r>   -53.8517     0.0000     4.0000 </r>
       <r>   -53.5762     0.0000     4.0000 </r>
       <r>   -53.3007     0.0000     4.0000 </r>
       <r>   -53.0252     0.0000     4.0000 </r>
       <r>   -52.7497     0.0000     4.0000 </r>
       <r>   -52.4742     0.0000     4.0000 </r>
       <r>   -52.1986     0.0000     4.0000 </r>
       <r>   -51.9231     0.0000     4.0000 </r>
       <r>   -51.6476     0.0000     4.0000 </r>
       <r>   -51.3721     0.0000     4.0000 </r>
       <r>   -51.0966     0.0000     4.0000 </r>
       <r>   -50.8211     0.0000     4.0000 </r>
       <r>   -50.5456     0.0000     4.0000 </r>
       <r>   -50.2701     0.0000     4.0000 </r>
       <r>   -49.9946     0.0000     4.0000 </r>
       <r>   -49.7190     0.0000     4.0000 </r>
       <r>   -49.4435     0.0000     4.0000 </r>
       <r>   -49.1680     0.0000     4.0000 </r>
       <r>   -48.8925     0.0000     4.0000 </r>
       <r>   -48.6170     0.0000     4.0000 </r>
       <r>   -48.3415     0.0000     4.0000 </r>
       <r>   -48.0660     0.0000     4.0000 </r>
       <r>   -47.7905     0.0000     4.0000 </r>
       <r>   -47.5150     0.0000     4.0000 </r>
       <r>   -47.2394     0.0000     4.0000 </r>
       <r>   -46.9639     0.0000     4.0000 </r>
       <r>   -46.6884     0.0000     4.0000 </r>
       <r>   -46.4129     0.0000     4.0000 </r>
       <r>   -46.1374     0.0000     4.0000 </r>
       <r>   -45.8619     3.6251     5.9987 </r>
       <r>   -45.5864     0.0000     8.0000 </r>
       <r>   -45.3109     0.0000     8.0000 </r>
       <r>   -45.0353     0.0000     8.0000 </r>
       <r>   -44.7598     7.0144    14.9325 </r>
       <r>   -44.4843     0.0000    16.0000 </r>
       <r>   -44.2088     0.0000    16.0000 </r>
       <r>   -43.9333     0.0000    16.0000 </r>
       <r>   -43.6578     0.0000    16.0000 </r>
       <r>   -43.3823     0.0000    16.0000 </r>
       <r>   -43.1068     0.0000    16.0000 </r>
       <r>   -42.8313     0.0000    16.0000 </r>
       <r>   -42.5557     0.0000    16.0000 </r>
       <r>   -42.2802     0.0000    16.0000 </r>
       <r>   -42.0047     0.0000    16.0000 </r>
       <r>   -41.7292     0.0000    16.0000 </r>
       <r>   -41.4537     0.0000    16.0000 </r>
       <r>   -41.1782     0.0000    16.0000 </r>
       <r>   -40.9027     0.0000    16.0000 </r>
       <r>   -40.6272     0.0000    16.0000 </r>
       <r>   -40.3516     0.0000    16.0000 </r>
       <r>   -40.0761     0.0000    16.0000 </r>
       <r>   -39.8006     0.0000    16.0000 </r>
       <r>   -39.5251     0.0000    16.0000 </r>
       <r>   -39.2496     0.0000    16.0000 </r>
       <r>   -38.9741     0.0000    16.0000 </r>
       <r>   -38.6986     0.0000    16.0000 </r>
       <r>   -38.4231     0.0000    16.0000 </r>
       <r>   -38.1476     0.0000    16.0000 </r>
       <r>   -37.8720     0.0000    16.0000 </r>
       <r>   -37.5965     0.0000    16.0000 </r>
       <r>   -37.3210     0.0000    16.0000 </r>
       <r>   -37.0455     0.0000    16.0000 </r>
       <r>   -36.7700     0.0000    16.0000 </r>
       <r>   -36.4945     0.0000    16.0000 </r>
       <r>   -36.2190     0.0000    16.0000 </r>
       <r>   -35.9435     0.0000    16.0000 </r>
       <r>   -35.6679     0.0000    16.0000 </r>
       <r>   -35.3924     0.0000    16.0000 </r>
       <r>   -35.1169     0.0000    16.0000 </r>
       <r>   -34.8414     0.0000    16.0000 </r>
       <r>   -34.5659     0.0000    16.0000 </r>
       <r>   -34.2904     0.0000    16.0000 </r>
       <r>   -34.0149     0.0000    16.0000 </r>
       <r>   -33.7394     0.0000    16.0000 </r>
       <r>   -33.4639     0.0000    16.0000 </r>
       <r>   -33.1883     0.0000    16.0000 </r>
       <r>   -32.9128     0.0000    16.0000 </r>
       <r>   -32.6373     0.0000    16.0000 </r>
       <r>   -32.3618     0.0000    16.0000 </r>
       <r>   -32.0863     0.0000    16.0000 </r>
       <r>   -31.8108     0.0000    16.0000 </r>
       <r>   -31.5353     0.0000    16.0000 </r>
       <r>   -31.2598     0.0000    16.0000 </r>
       <r>   -30.9843     0.0000    16.0000 </r>
       <r>   -30.7087     0.0000    16.0000 </r>
       <r>   -30.4332     0.0000    16.0000 </r>
       <r>   -30.1577     0.0000    16.0000 </r>
       <r>   -29.8822     0.0000    16.0000 </r>
       <r>   -29.6067     0.0000    16.0000 </r>
       <r>   -29.3312     0.0000    16.0000 </r>
       <r>   -29.0557     0.0000    16.0000 </r>
       <r>   -28.7802     0.0000    16.0000 </r>
       <r>   -28.5046     0.0000    16.0000 </r>
       <r>   -28.2291     0.0000    16.0000 </r>
       <r>   -27.9536     0.0000    16.0000 </r>
       <r>   -27.6781     0.0000    16.0000 </r>
       <r>   -27.4026     0.0000    16.0000 </r>
       <r>   -27.1271     0.0000    16.0000 </r>
       <r>   -26.8516     0.0000    16.0000 </r>
       <r>   -26.5761     0.0000    16.0000 </r>
       <r>   -26.3006     0.0000    16.0000 </r>
       <r>   -26.0250     0.0000    16.0000 </r>
       <r>   -25.7495     0.0000    16.0000 </r>
       <r>   -25.4740     0.0000    16.0000 </r>
       <r>   -25.1985     0.0000    16.0000 </r>
       <r>   -24.9230     0.0000    16.0000 </r>
       <r>   -24.6475     0.0000    16.0000 </r>
       <r>   -24.3720     0.0000    16.0000 </r>
       <r>   -24.0965     0.0000    16.0000 </r>
       <r>   -23.8209     0.0000    16.0000 </r>
       <r>   -23.5454     0.0000    16.0000 </r>
       <r>   -23.2699     0.0000    16.0000 </r>
       <r>   -22.9944     0.0000    16.0000 </r>
       <r>   -22.7189     0.0000    16.0000 </r>
       <r>   -22.4434     0.0000    16.0000 </r>
       <r>   -22.1679     0.0000    16.0000 </r>
       <r>   -21.8924     0.0000    16.0000 </r>
       <r>   -21.6169     0.0000    16.0000 </r>
       <r>   -21.3413     0.0000    16.0000 </r>
       <r>   -21.0658     0.0000    16.0000 </r>
       <r>   -20.7903     0.0000    16.0000 </r>
       <r>   -20.5148     0.0000    16.0000 </r>
       <r>   -20.2393     0.0000    16.0000 </r>
       <r>   -19.9638     0.0000    16.0000 </r>
       <r>   -19.6883     0.0000    16.0000 </r>
       <r>   -19.4128     0.0000    16.0000 </r>
       <r>   -19.1373     0.0000    16.0000 </r>
       <r>   -18.8617     0.0000    16.0000 </r>
       <r>   -18.5862     0.0000    16.0000 </r>
       <r>   -18.3107     0.0000    16.0000 </r>
       <r>   -18.0352     0.0000    16.0000 </r>
       <r>   -17.7597     0.0000    16.0000 </r>
       <r>   -17.4842     0.0000    16.0000 </r>
       <r>   -17.2087     0.0000    16.0000 </r>
       <r>   -16.9332     0.0000    16.0000 </r>
       <r>   -16.6576     0.0000    16.0000 </r>
       <r>   -16.3821     0.0000    16.0000 </r>
       <r>   -16.1066     0.0000    16.0000 </r>
       <r>   -15.8311     0.0000    16.0000 </r>
       <r>   -15.5556     0.0000    16.0000 </r>
       <r>   -15.2801     0.0000    16.0000 </r>
       <r>   -15.0046     0.0000    16.0000 </r>
       <r>   -14.7291     0.0000    16.0000 </r>
       <r>   -14.4536     0.0000    16.0000 </r>
       <r>   -14.1780     0.0000    16.0000 </r>
       <r>   -13.9025     0.0000    16.0000 </r>
       <r>   -13.6270     0.0000    16.0000 </r>
       <r>   -13.3515     0.0000    16.0000 </r>
       <r>   -13.0760     0.0000    16.0000 </r>
       <r>   -12.8005     0.0000    16.0000 </r>
       <r>   -12.5250     0.0000    16.0000 </r>
       <r>   -12.2495     0.0000    16.0000 </r>
       <r>   -11.9739     0.0000    16.0000 </r>
       <r>   -11.6984     0.0000    16.0000 </r>
       <r>   -11.4229     0.0000    16.0000 </r>
       <r>   -11.1474     0.0000    16.0000 </r>
       <r>   -10.8719     0.0000    16.0000 </r>
       <r>   -10.5964     0.0000    16.0000 </r>
       <r>   -10.3209     0.0000    16.0000 </r>
       <r>   -10.0454     0.0000    16.0000 </r>
       <r>    -9.7699     0.0000    16.0000 </r>
       <r>    -9.4943     0.0000    16.0000 </r>
       <r>    -9.2188     0.0000    16.0000 </r>
       <r>    -8.9433     0.0000    16.0000 </r>
       <r>    -8.6678     0.0000    16.0000 </r>
       <r>    -8.3923     0.0000    16.0000 </r>
       <r>    -8.1168     0.0000    16.0000 </r>
       <r>    -7.8413     0.0000    16.0000 </r>
       <r>    -7.5658     0.0000    16.0000 </r>
       <r>    -7.2903     0.0000    17.0000 </r>
       <r>    -7.0147     0.0000    17.0000 </r>
       <r>    -6.7392     0.0000    18.0000 </r>
       <r>    -6.4637     0.0000    18.0000 </r>
       <r>    -6.1882     0.0000    18.0000 </r>
       <r>    -5.9127     0.0174    20.0048 </r>
       <r>    -5.6372     0.0000    22.0000 </r>
       <r>    -5.3617     2.4147    22.6653 </r>
       <r>    -5.0862     0.0000    25.0000 </r>
       <r>    -4.8106     0.0000    25.0000 </r>
       <r>    -4.5351     3.6296    26.0000 </r>
       <r>    -4.2596     0.0000    26.0000 </r>
       <r>    -3.9841     0.0000    28.0000 </r>
       <r>    -3.7086     0.0000    28.0000 </r>
       <r>    -3.4331     0.0000    28.0000 </r>
       <r>    -3.1576     0.0000    28.0000 </r>
       <r>    -2.8821     7.2592    30.0000 </r>
       <r>    -2.6066     0.0000    33.0000 </r>
       <r>    -2.3310     0.0000    37.0000 </r>
       <r>    -2.0555     0.0000    38.0000 </r>
       <r>    -1.7800     0.0000    38.0000 </r>
       <r>    -1.5045     0.0000    39.0000 </r>
       <r>    -1.2290     0.0000    40.0000 </r>
       <r>    -0.9535     0.0000    40.0000 </r>
       <r>    -0.6780     0.0000    40.0000 </r>
       <r>    -0.4025     0.0000    40.0000 </r>
       <r>    -0.1269     0.0000    40.0000 </r>
       <r>     0.1486     0.0000    40.0000 </r>
       <r>     0.4241     0.0000    40.0000 </r>
       <r>     0.6996     0.0000    40.0000 </r>
       <r>     0.9751     0.0000    40.0000 </r>
       <r>     1.2506     0.0000    40.0000 </r>
       <r>     1.5261     0.0000    40.0000 </r>
       <r>     1.8016     0.0000    40.0000 </r>
       <r>     2.0771     0.0000    40.0000 </r>
       <r>     2.3527     0.0000    40.0000 </r>
      </set>
     </set>
    </array>
   </total>
   <partial>
    <array>
     <dimension dim="1">gridpoints</dimension>
     <dimension dim="2">spin</dimension>
     <dimension dim="3">ion</dimension>
     <field>energy</field>
     <field>  s</field>
     <field>  p</field>
     <field>  d</field>
     <field>  f</field>
     <set>
      <set comment="ion 1">
       <set comment="spin 1">
        <r>   -80.3008     0.0000     0.0000     0.0000     0.0000 </r>
        <r>   -80.0253     0.0000     0.0000     0.0000     0.0000 </r>
        <r>   -79.7498     0.0000     0.0000     0.0000     0.0000 </r>
        <r>   -79.4743     0.0000     0.0000     0.0000     0.0000 </r>
        <r>   -79.1988     0.0000     0.0000     0.0000     0.0000 </r>
        <r>   -78.9233     0.0000     0.0000     0.0000     0.0000 </r>
        <r>   -78.6478     0.0000     0.0000     0.0000     0.0000 </r>
        <r>   -78.3723     0.0000     0.0000     0.0000     0.0000 </r>
        <r>   -78.0967     0.0000     0.0000     0.0000     0.0000 </r>
        <r>   -77.8212     0.0000     0.0000     0.0000     0.0000 </r>
        <r>   -77.5457     0.0000     0.0000     0.0000     0.0000 </r>
        <r>   -77.2702     0.0000     0.0000     0.0000     0.0000 </r>
        <r>   -76.9947     0.0000     0.0000     0.0000     0.0000 </r>
        <r>   -76.7192     0.0000     0.0000     0.0000     0.0000 </r>
        <r>   -76.4437     0.0000     0.0000     0.0000     0.0000 </r>
        <r>   -76.1682     0.0000     0.0000     0.0000     0.0000 </r>
        <r>   -75.8926     0.0000     0.0000     0.0000     0.0000 </r>
        <r>   -75.6171     0.0000     0.0000     0.0000     0.0000 </r>
        <r>   -75.3416     0.0000     0.0000     0.0000     0.0000 </r>
        <r>   -75.0661     0.0000     0.0000     0.0000     0.0000 </r>
        <r>   -74.7906     0.0000     0.0000     0.0000     0.0000 </r>
        <r>   -74.5151     0.0000     0.0000     0.0000     0.0000 </r>
        <r>   -74.2396     0.0000     0.0000     0.0000     0.0000 </r>
        <r>   -73.9641     0.0000     0.0000     0.0000     0.0000 </r>
        <r>   -73.6886     0.0000     0.0000     0.0000     0.0000 </r>
        <r>   -73.4130     0.0000     0.0000     0.0000     0.0000 </r>
        <r>   -73.1375     0.0000     0.0000     0.0000     0.0000 </r>
        <r>   -72.8620     0.0000     0.0000     0.0000     0.0000 </r>
        <r>   -72.5865     0.0000     0.0000     0.0000     0.0000 </r>
        <r>   -72.3110     0.0000     0.0000     0.0000     0.0000 </r>
        <r>   -72.0355     0.0000     0.0000     0.0000     0.0000 </r>
        <r>   -71.7600     0.0000     0.0000     0.0000     0.0000 </r>
        <r>   -71.4845     0.0000     0.0000     0.0000     0.0000 </r>
        <r>   -71.2090     0.0000     0.0000     0.0000     0.0000 </r>
        <r>   -70.9334     0.0000     0.0000     0.0000     0.0000 </r>
        <r>   -70.6579     0.0000     0.0000     0.0000     0.0000 </r>
        <r>   -70.3824     0.0000     0.0000     0.0000     0.0000 </r>
        <r>   -70.1069     0.0000     0.0000     0.0000     0.0000 </r>
        <r>   -69.8314     0.0000     0.0000     0.0000     0.0000 </r>
        <r>   -69.5559     0.0000     0.0000     0.0000     0.0000 </r>
        <r>   -69.2804     0.0000     0.0000     0.0000     0.0000 </r>
        <r>   -69.0049     0.0000     0.0000     0.0000     0.0000 </r>
        <r>   -68.7293     0.0000     0.0000     0.0000     0.0000 </r>
        <r>   -68.4538     0.0000     0.0000     0.0000     0.0000 </r>
        <r>   -68.1783     0.0000     0.0000     0.0000     0.0000 </r>
        <r>   -67.9028     0.0000     0.0000     0.0000     0.0000 </r>
        <r>   -67.6273     0.0000     0.0000     0.0000     0.0000 </r>
        <r>   -67.3518     0.0000     0.0000     0.0000     0.0000 </r>
        <r>   -67.0763     0.0000     0.0000     0.0000     0.0000 </r>
        <r>   -66.8008     0.0000     0.0000     0.0000     0.0000 </r>
        <r>   -66.5253     0.0000     0.0000     0.0000     0.0000 </r>
        <r>   -66.2497     0.0000     0.0000     0.0000     0.0000 </r>
        <r>   -65.9742     0.0000     0.0000     0.0000     0.0000 </r>
        <r>   -65.6987     0.0000     0.0000     0.0000     0.0000 </r>
        <r>   -65.4232     0.0000     0.0000     0.0000     0.0000 </r>
        <r>   -65.1477     0.0000     0.0000     0.0000     0.0000 </r>
        <r>   -64.8722     0.0000     0.0000     0.0000     0.0000 </r>
        <r>   -64.5967     0.0000     0.0000     0.0000     0.0000 </r>
        <r>   -64.3212     0.0000     0.0000     0.0000     0.0000 </r>
        <r>   -64.0456     0.0000     0.0000     0.0000     0.0000 </r>
        <r>   -63.7701     0.0000     0.0000     0.0000     0.0000 </r>
        <r>   -63.4946     0.0000     0.0000     0.0000     0.0000 </r>
        <r>   -63.2191     0.0000     0.0000     0.0000     0.0000 </r>
        <r>   -62.9436     0.0000     0.0000     0.0000     0.0000 </r>
        <r>   -62.6681     0.0000     0.0000     0.0000     0.0000 </r>
        <r>   -62.3926     0.0000     0.0000     0.0000     0.0000 </r>
        <r>   -62.1171     0.0000     0.0000     0.0000     0.0000 </r>
        <r>   -61.8416     0.0000     0.0000     0.0000     0.0000 </r>
        <r>   -61.5660     0.0000     0.0000     0.0000     0.0000 </r>
        <r>   -61.2905     0.0000     0.0000     0.0000     0.0000 </r>
        <r>   -61.0150     0.0000     0.0000     0.0000     0.0000 </r>
        <r>   -60.7395     0.0000     0.0000     0.0000     0.0000 </r>
        <r>   -60.4640     0.0000     0.0000     0.0000     0.0000 </r>
        <r>   -60.1885     0.0000     0.0000     0.0000     0.0000 </r>
        <r>   -59.9130     0.0000     0.0000     0.0000     0.0000 </r>
        <r>   -59.6375     0.0000     0.0000     0.0000     0.0000 </r>
        <r>   -59.3620     0.0000     0.0000     0.0000     0.0000 </r>
        <r>   -59.0864     0.0000     0.0000     0.0000     0.0000 </r>
        <r>   -58.8109     0.0000     0.0000     0.0000     0.0000 </r>
        <r>   -58.5354     0.0000     0.0000     0.0000     0.0000 </r>
        <r>   -58.2599     0.0000     0.0000     0.0000     0.0000 </r>
        <r>   -57.9844     0.0000     0.0000     0.0000     0.0000 </r>
        <r>   -57.7089     0.0000     0.0000     0.0000     0.0000 </r>
        <r>   -57.4334     0.0000     0.0000     0.0000     0.0000 </r>
        <r>   -57.1579     0.0000     0.0000     0.0000     0.0000 </r>
        <r>   -56.8823     0.0000     0.0000     0.0000     0.0000 </r>
        <r>   -56.6068     0.0000     0.0000     0.0000     0.0000 </r>
        <r>   -56.3313     0.0000     0.0000     0.0000     0.0000 </r>
        <r>   -56.0558     0.0000     0.0000     0.0000     0.0000 </r>
        <r>   -55.7803     0.0000     0.0000     0.0000     0.0000 </r>
        <r>   -55.5048     0.0000     0.0000     0.0000     0.0000 </r>
        <r>   -55.2293     0.0000     0.0000     0.0000     0.0000 </r>
        <r>   -54.9538     0.0000     0.0000     0.0000     0.0000 </r>
        <r>   -54.6783     0.0000     0.0000     0.0000     0.0000 </r>
        <r>   -54.4027     0.0000     0.0000     0.0000     0.0000 </r>
        <r>   -54.1272     0.0000     0.0000     0.0000     0.0000 </r>
        <r>   -53.8517     0.0000     0.0000     0.0000     0.0000 </r>
        <r>   -53.5762     0.0000     0.0000     0.0000     0.0000 </r>
        <r>   -53.3007     0.0000     0.0000     0.0000     0.0000 </r>
        <r>   -53.0252     0.0000     0.0000     0.0000     0.0000 </r>
        <r>   -52.7497     0.0000     0.0000     0.0000     0.0000 </r>
        <r>   -52.4742     0.0000     0.0000     0.0000     0.0000 </r>
        <r>   -52.1986     0.0000     0.0000     0.0000     0.0000 </r>
        <r>   -51.9231     0.0000     0.0000     0.0000     0.0000 </r>
        <r>   -51.6476     0.0000     0.0000     0.0000     0.0000 </r>
        <r>   -51.3721     0.0000     0.0000     0.0000     0.0000 </r>
        <r>   -51.0966     0.0000     0.0000     0.0000     0.0000 </r>
        <r>   -50.8211     0.0000     0.0000     0.0000     0.0000 </r>
        <r>   -50.5456     0.0000     0.0000     0.0000     0.0000 </r>
        <r>   -50.2701     0.0000     0.0000     0.0000     0.0000 </r>
        <r>   -49.9946     0.0000     0.0000     0.0000     0.0000 </r>
        <r>   -49.7190     0.0000     0.0000     0.0000     0.0000 </r>
        <r>   -49.4435     0.0000     0.0000     0.0000     0.0000 </r>
        <r>   -49.1680     0.0000     0.0000     0.0000     0.0000 </r>
        <r>   -48.8925     0.0000     0.0000     0.0000     0.0000 </r>
        <r>   -48.6170     0.0000     0.0000     0.0000     0.0000 </r>
        <r>   -48.3415     0.0000     0.0000     0.0000     0.0000 </r>
        <r>   -48.0660     0.0000     0.0000     0.0000     0.0000 </r>
        <r>   -47.7905     0.0000     0.0000     0.0000     0.0000 </r>
        <r>   -47.5150     0.0000     0.0000     0.0000     0.0000 </r>
        <r>   -47.2394     0.0000     0.0000     0.0000     0.0000 </r>
        <r>   -46.9639     0.0000     0.0000     0.0000     0.0000 </r>
        <r>   -46.6884     0.0000     0.0000     0.0000     0.0000 </r>
        <r>   -46.4129     0.0000     0.0002     0.0000     0.0000 </r>
        <r>   -46.1374     0.0000     0.0000     0.0000     0.0000 </r>
        <r>   -45.8619     0.0000     0.0000     0.0000     0.0000 </r>
        <r>   -45.5864     0.0000     0.0000     0.0000     0.0000 </r>
        <r>   -45.3109     0.0000     0.0000     0.0000     0.0000 </r>
        <r>   -45.0353     0.0000     0.0000     0.0000     0.0000 </r>
        <r>   -44.7598     0.0000     0.0000     0.0000     0.0000 </r>
        <r>   -44.4843     0.0000     0.0000     0.0000     0.0000 </r>
        <r>   -44.2088     0.0000     0.0000     0.0000     0.0000 </r>
        <r>   -43.9333     0.0000     0.0000     0.0000     0.0000 </r>
        <r>   -43.6578     0.0000     0.0000     0.0000     0.0000 </r>
        <r>   -43.3823     0.0000     0.0000     0.0000     0.0000 </r>
        <r>   -43.1068     0.0000     0.0000     0.0000     0.0000 </r>
        <r>   -42.8313     0.0000     0.0000     0.0000     0.0000 </r>
        <r>   -42.5557     0.0000     0.0000     0.0000     0.0000 </r>
        <r>   -42.2802     0.0000     0.0000     0.0000     0.0000 </r>
        <r>   -42.0047     0.0000     0.0000     0.0000     0.0000 </r>
        <r>   -41.7292     0.0000     0.0000     0.0000     0.0000 </r>
        <r>   -41.4537     0.0000     0.0000     0.0000     0.0000 </r>
        <r>   -41.1782     0.0000     0.0000     0.0000     0.0000 </r>
        <r>   -40.9027     0.0000     0.0000     0.0000     0.0000 </r>
        <r>   -40.6272     0.0000     0.0000     0.0000     0.0000 </r>
        <r>   -40.3516     0.0000     0.0000     0.0000     0.0000 </r>
        <r>   -40.0761     0.0000     0.0000     0.0000     0.0000 </r>
        <r>   -39.8006     0.0000     0.0000     0.0000     0.0000 </r>
        <r>   -39.5251     0.0000     0.0000     0.0000     0.0000 </r>
        <r>   -39.2496     0.0000     0.0000     0.0000     0.0000 </r>
        <r>   -38.9741     0.0000     0.0000     0.0000     0.0000 </r>
        <r>   -38.6986     0.0000     0.0000     0.0000     0.0000 </r>
        <r>   -38.4231     0.0000     0.0000     0.0000     0.0000 </r>
        <r>   -38.1476     0.0000     0.0000     0.0000     0.0000 </r>
        <r>   -37.8720     0.0000     0.0000     0.0000     0.0000 </r>
        <r>   -37.5965     0.0000     0.0000     0.0000     0.0000 </r>
        <r>   -37.3210     0.0000     0.0000     0.0000     0.0000 </r>
        <r>   -37.0455     0.0000     0.0000     0.0000     0.0000 </r>
        <r>   -36.7700     0.0000     0.0000     0.0000     0.0000 </r>
        <r>   -36.4945     0.0000     0.0000     0.0000     0.0000 </r>
        <r>   -36.2190     0.0000     0.0000     0.0000     0.0000 </r>
        <r>   -35.9435     0.0000     0.0000     0.0000     0.0000 </r>
        <r>   -35.6679     0.0000     0.0000     0.0000     0.0000 </r>
        <r>   -35.3924     0.0000     0.0000     0.0000     0.0000 </r>
        <r>   -35.1169     0.0000     0.0000     0.0000     0.0000 </r>
        <r>   -34.8414     0.0000     0.0000     0.0000     0.0000 </r>
        <r>   -34.5659     0.0000     0.0000     0.0000     0.0000 </r>
        <r>   -34.2904     0.0000     0.0000     0.0000     0.0000 </r>
        <r>   -34.0149     0.0000     0.0000     0.0000     0.0000 </r>
        <r>   -33.7394     0.0000     0.0000     0.0000     0.0000 </r>
        <r>   -33.4639     0.0000     0.0000     0.0000     0.0000 </r>
        <r>   -33.1883     0.0000     0.0000     0.0000     0.0000 </r>
        <r>   -32.9128     0.0000     0.0000     0.0000     0.0000 </r>
        <r>   -32.6373     0.0000     0.0000     0.0000     0.0000 </r>
        <r>   -32.3618     0.0000     0.0000     0.0000     0.0000 </r>
        <r>   -32.0863     0.0000     0.0000     0.0000     0.0000 </r>
        <r>   -31.8108     0.0000     0.0000     0.0000     0.0000 </r>
        <r>   -31.5353     0.0000     0.0000     0.0000     0.0000 </r>
        <r>   -31.2598     0.0000     0.0000     0.0000     0.0000 </r>
        <r>   -30.9843     0.0000     0.0000     0.0000     0.0000 </r>
        <r>   -30.7087     0.0000     0.0000     0.0000     0.0000 </r>
        <r>   -30.4332     0.0000     0.0000     0.0000     0.0000 </r>
        <r>   -30.1577     0.0000     0.0000     0.0000     0.0000 </r>
        <r>   -29.8822     0.0000     0.0000     0.0000     0.0000 </r>
        <r>   -29.6067     0.0000     0.0000     0.0000     0.0000 </r>
        <r>   -29.3312     0.0000     0.0000     0.0000     0.0000 </r>
        <r>   -29.0557     0.0000     0.0000     0.0000     0.0000 </r>
        <r>   -28.7802     0.0000     0.0000     0.0000     0.0000 </r>
        <r>   -28.5046     0.0000     0.0000     0.0000     0.0000 </r>
        <r>   -28.2291     0.0000     0.0000     0.0000     0.0000 </r>
        <r>   -27.9536     0.0000     0.0000     0.0000     0.0000 </r>
        <r>   -27.6781     0.0000     0.0000     0.0000     0.0000 </r>
        <r>   -27.4026     0.0000     0.0000     0.0000     0.0000 </r>
        <r>   -27.1271     0.0000     0.0000     0.0000     0.0000 </r>
        <r>   -26.8516     0.0000     0.0000     0.0000     0.0000 </r>
        <r>   -26.5761     0.0000     0.0000     0.0000     0.0000 </r>
        <r>   -26.3006     0.0000     0.0000     0.0000     0.0000 </r>
        <r>   -26.0250     0.0000     0.0000     0.0000     0.0000 </r>
        <r>   -25.7495     0.0000     0.0000     0.0000     0.0000 </r>
        <r>   -25.4740     0.0000     0.0000     0.0000     0.0000 </r>
        <r>   -25.1985     0.0000     0.0000     0.0000     0.0000 </r>
        <r>   -24.9230     0.0000     0.0000     0.0000     0.0000 </r>
        <r>   -24.6475     0.0000     0.0000     0.0000     0.0000 </r>
        <r>   -24.3720     0.0000     0.0000     0.0000     0.0000 </r>
        <r>   -24.0965     0.0000     0.0000     0.0000     0.0000 </r>
        <r>   -23.8209     0.0000     0.0000     0.0000     0.0000 </r>
        <r>   -23.5454     0.0000     0.0000     0.0000     0.0000 </r>
        <r>   -23.2699     0.0000     0.0000     0.0000     0.0000 </r>
        <r>   -22.9944     0.0000     0.0000     0.0000     0.0000 </r>
        <r>   -22.7189     0.0000     0.0000     0.0000     0.0000 </r>
        <r>   -22.4434     0.0000     0.0000     0.0000     0.0000 </r>
        <r>   -22.1679     0.0000     0.0000     0.0000     0.0000 </r>
        <r>   -21.8924     0.0000     0.0000     0.0000     0.0000 </r>
        <r>   -21.6169     0.0000     0.0000     0.0000     0.0000 </r>
        <r>   -21.3413     0.0000     0.0000     0.0000     0.0000 </r>
        <r>   -21.0658     0.0000     0.0000     0.0000     0.0000 </r>
        <r>   -20.7903     0.0000     0.0000     0.0000     0.0000 </r>
        <r>   -20.5148     0.0000     0.0000     0.0000     0.0000 </r>
        <r>   -20.2393     0.0000     0.0000     0.0000     0.0000 </r>
        <r>   -19.9638     0.0000     0.0000     0.0000     0.0000 </r>
        <r>   -19.6883     0.0000     0.0000     0.0000     0.0000 </r>
        <r>   -19.4128     0.0000     0.0000     0.0000     0.0000 </r>
        <r>   -19.1373     0.0000     0.0000     0.0000     0.0000 </r>
        <r>   -18.8617     0.0000     0.0000     0.0000     0.0000 </r>
        <r>   -18.5862     0.0000     0.0000     0.0000     0.0000 </r>
        <r>   -18.3107     0.0000     0.0000     0.0000     0.0000 </r>
        <r>   -18.0352     0.0000     0.0000     0.0000     0.0000 </r>
        <r>   -17.7597     0.0000     0.0000     0.0000     0.0000 </r>
        <r>   -17.4842     0.0000     0.0000     0.0000     0.0000 </r>
        <r>   -17.2087     0.0000     0.0000     0.0000     0.0000 </r>
        <r>   -16.9332     0.0000     0.0000     0.0000     0.0000 </r>
        <r>   -16.6576     0.0000     0.0000     0.0000     0.0000 </r>
        <r>   -16.3821     0.0000     0.0000     0.0000     0.0000 </r>
        <r>   -16.1066     0.0000     0.0000     0.0000     0.0000 </r>
        <r>   -15.8311     0.0000     0.0000     0.0000     0.0000 </r>
        <r>   -15.5556     0.0000     0.0000     0.0000     0.0000 </r>
        <r>   -15.2801     0.0000     0.0000     0.0000     0.0000 </r>
        <r>   -15.0046     0.0000     0.0000     0.0000     0.0000 </r>
        <r>   -14.7291     0.0000     0.0000     0.0000     0.0000 </r>
        <r>   -14.4536     0.0000     0.0000     0.0000     0.0000 </r>
        <r>   -14.1780     0.0000     0.0000     0.0000     0.0000 </r>
        <r>   -13.9025     0.0000     0.0000     0.0000     0.0000 </r>
        <r>   -13.6270     0.0000     0.0000     0.0000     0.0000 </r>
        <r>   -13.3515     0.0000     0.0000     0.0000     0.0000 </r>
        <r>   -13.0760     0.0000     0.0000     0.0000     0.0000 </r>
        <r>   -12.8005     0.0000     0.0000     0.0000     0.0000 </r>
        <r>   -12.5250     0.0000     0.0000     0.0000     0.0000 </r>
        <r>   -12.2495     0.0000     0.0000     0.0000     0.0000 </r>
        <r>   -11.9739     0.0000     0.0000     0.0000     0.0000 </r>
        <r>   -11.6984     0.0000     0.0000     0.0000     0.0000 </r>
        <r>   -11.4229     0.0000     0.0000     0.0000     0.0000 </r>
        <r>   -11.1474     0.0000     0.0000     0.0000     0.0000 </r>
        <r>   -10.8719     0.0000     0.0000     0.0000     0.0000 </r>
        <r>   -10.5964     0.0000     0.0000     0.0000     0.0000 </r>
        <r>   -10.3209     0.0000     0.0000     0.0000     0.0000 </r>
        <r>   -10.0454     0.0000     0.0000     0.0000     0.0000 </r>
        <r>    -9.7699     0.0000     0.0000     0.0000     0.0000 </r>
        <r>    -9.4943     0.0000     0.0000     0.0000     0.0000 </r>
        <r>    -9.2188     0.0000     0.0000     0.0000     0.0000 </r>
        <r>    -8.9433     0.0000     0.0000     0.0000     0.0000 </r>
        <r>    -8.6678     0.0000     0.0000     0.0000     0.0000 </r>
        <r>    -8.3923     0.0000     0.0000     0.0000     0.0000 </r>
        <r>    -8.1168     0.0000     0.0000     0.0000     0.0000 </r>
        <r>    -7.8413     0.0000     0.0000     0.0000     0.0000 </r>
        <r>    -7.5658     0.0000     0.0000     0.0000     0.0000 </r>
        <r>    -7.2903     0.0000     0.0000     0.0000     0.0000 </r>
        <r>    -7.0147     0.0000     0.0000     0.0000     0.0000 </r>
        <r>    -6.7392     0.2903     0.0042     0.5606     0.0026 </r>
        <r>    -6.4637     0.0000     0.0000     0.0000     0.0000 </r>
        <r>    -6.1882     0.0000     0.0000     0.0000     0.0000 </r>
        <r>    -5.9127     0.0000     0.0000     0.0000     0.0000 </r>
        <r>    -5.6372     0.0000     0.0000     0.0000     0.0000 </r>
        <r>    -5.3617     0.0000     0.0000     0.0000     0.0000 </r>
        <r>    -5.0862     0.0000     0.0000     0.0000     0.0000 </r>
        <r>    -4.8106     0.0000     0.0000     0.0000     0.0000 </r>
        <r>    -4.5351     0.0000     0.0000     0.0000     0.0000 </r>
        <r>    -4.2596     0.0000     0.0000     0.0000     0.0000 </r>
        <r>    -3.9841     0.0000     0.0000     0.0000     0.0000 </r>
        <r>    -3.7086     0.0000     0.0000     0.0000     0.0000 </r>
        <r>    -3.4331     0.0345     0.0108     0.6274     0.0040 </r>
        <r>    -3.1576     0.0021     0.0003     0.0023     0.0000 </r>
        <r>    -2.8821     0.0000     0.0000     0.0000     0.0000 </r>
        <r>    -2.6066     0.0000     0.0000     0.0000     0.0000 </r>
        <r>    -2.3310     0.0000     0.0000     0.0000     0.0000 </r>
        <r>    -2.0555     0.0000     0.0000     0.0000     0.0000 </r>
        <r>    -1.7800     0.0000     0.0000     0.0000     0.0000 </r>
        <r>    -1.5045     0.0000     0.0000     0.0000     0.0000 </r>
        <r>    -1.2290     0.0000     0.0000     0.0000     0.0000 </r>
        <r>    -0.9535     0.0000     0.0000     0.0000     0.0000 </r>
        <r>    -0.6780     0.0000     0.0000     0.0000     0.0000 </r>
        <r>    -0.4025     0.0000     0.0000     0.0000     0.0000 </r>
        <r>    -0.1269     0.0000     0.0000     0.0000     0.0000 </r>
        <r>     0.1486     0.0000     0.0000     0.0000     0.0000 </r>
        <r>     0.4241     0.0000     0.0000     0.0000     0.0000 </r>
        <r>     0.6996     0.0000     0.0000     0.0000     0.0000 </r>
        <r>     0.9751     0.0000     0.0000     0.0000     0.0000 </r>
        <r>     1.2506     0.0000     0.0000     0.0000     0.0000 </r>
        <r>     1.5261     0.0000     0.0000     0.0000     0.0000 </r>
        <r>     1.8016     0.0000     0.0000     0.0000     0.0000 </r>
        <r>     2.0771     0.0000     0.0000     0.0000     0.0000 </r>
        <r>     2.3527     0.0000     0.0000     0.0000     0.0000 </r>
       </set>
       <set comment="spin 2">
        <r>   -80.3008     0.0000     0.0000     0.0000     0.0000 </r>
        <r>   -80.0253     0.0000     0.0000     0.0000     0.0000 </r>
        <r>   -79.7498     0.0000     0.0000     0.0000     0.0000 </r>
        <r>   -79.4743     0.0000     0.0000     0.0000     0.0000 </r>
        <r>   -79.1988     0.0000     0.0000     0.0000     0.0000 </r>
        <r>   -78.9233     0.0000     0.0000     0.0000     0.0000 </r>
        <r>   -78.6478     0.0000     0.0000     0.0000     0.0000 </r>
        <r>   -78.3723     0.0000     0.0000     0.0000     0.0000 </r>
        <r>   -78.0967     0.0000     0.0000     0.0000     0.0000 </r>
        <r>   -77.8212     0.0000     0.0000     0.0000     0.0000 </r>
        <r>   -77.5457     0.0000     0.0000     0.0000     0.0000 </r>
        <r>   -77.2702     0.0000     0.0000     0.0000     0.0000 </r>
        <r>   -76.9947     0.0000     0.0000     0.0000     0.0000 </r>
        <r>   -76.7192     0.0000     0.0000     0.0000     0.0000 </r>
        <r>   -76.4437     0.0000     0.0000     0.0000     0.0000 </r>
        <r>   -76.1682     0.0000     0.0000     0.0000     0.0000 </r>
        <r>   -75.8926     0.0000     0.0000     0.0000     0.0000 </r>
        <r>   -75.6171     0.0000     0.0000     0.0000     0.0000 </r>
        <r>   -75.3416     0.0000     0.0000     0.0000     0.0000 </r>
        <r>   -75.0661     0.0000     0.0000     0.0000     0.0000 </r>
        <r>   -74.7906     0.0000     0.0000     0.0000     0.0000 </r>
        <r>   -74.5151     0.0000     0.0000     0.0000     0.0000 </r>
        <r>   -74.2396     0.0000     0.0000     0.0000     0.0000 </r>
        <r>   -73.9641     0.0000     0.0000     0.0000     0.0000 </r>
        <r>   -73.6886     0.0000     0.0000     0.0000     0.0000 </r>
        <r>   -73.4130     0.0000     0.0000     0.0000     0.0000 </r>
        <r>   -73.1375     0.0000     0.0000     0.0000     0.0000 </r>
        <r>   -72.8620     0.0000     0.0000     0.0000     0.0000 </r>
        <r>   -72.5865     0.0000     0.0000     0.0000     0.0000 </r>
        <r>   -72.3110     0.0000     0.0000     0.0000     0.0000 </r>
        <r>   -72.0355     0.0000     0.0000     0.0000     0.0000 </r>
        <r>   -71.7600     0.0000     0.0000     0.0000     0.0000 </r>
        <r>   -71.4845     0.0000     0.0000     0.0000     0.0000 </r>
        <r>   -71.2090     0.0000     0.0000     0.0000     0.0000 </r>
        <r>   -70.9334     0.0000     0.0000     0.0000     0.0000 </r>
        <r>   -70.6579     0.0000     0.0000     0.0000     0.0000 </r>
        <r>   -70.3824     0.0000     0.0000     0.0000     0.0000 </r>
        <r>   -70.1069     0.0000     0.0000     0.0000     0.0000 </r>
        <r>   -69.8314     0.0000     0.0000     0.0000     0.0000 </r>
        <r>   -69.5559     0.0000     0.0000     0.0000     0.0000 </r>
        <r>   -69.2804     0.0000     0.0000     0.0000     0.0000 </r>
        <r>   -69.0049     0.0000     0.0000     0.0000     0.0000 </r>
        <r>   -68.7293     0.0000     0.0000     0.0000     0.0000 </r>
        <r>   -68.4538     0.0000     0.0000     0.0000     0.0000 </r>
        <r>   -68.1783     0.0000     0.0000     0.0000     0.0000 </r>
        <r>   -67.9028     0.0000     0.0000     0.0000     0.0000 </r>
        <r>   -67.6273     0.0000     0.0000     0.0000     0.0000 </r>
        <r>   -67.3518     0.0000     0.0000     0.0000     0.0000 </r>
        <r>   -67.0763     0.0000     0.0000     0.0000     0.0000 </r>
        <r>   -66.8008     0.0000     0.0000     0.0000     0.0000 </r>
        <r>   -66.5253     0.0000     0.0000     0.0000     0.0000 </r>
        <r>   -66.2497     0.0000     0.0000     0.0000     0.0000 </r>
        <r>   -65.9742     0.0000     0.0000     0.0000     0.0000 </r>
        <r>   -65.6987     0.0000     0.0000     0.0000     0.0000 </r>
        <r>   -65.4232     0.0000     0.0000     0.0000     0.0000 </r>
        <r>   -65.1477     0.0000     0.0000     0.0000     0.0000 </r>
        <r>   -64.8722     0.0000     0.0000     0.0000     0.0000 </r>
        <r>   -64.5967     0.0000     0.0000     0.0000     0.0000 </r>
        <r>   -64.3212     0.0000     0.0000     0.0000     0.0000 </r>
        <r>   -64.0456     0.0000     0.0000     0.0000     0.0000 </r>
        <r>   -63.7701     0.0000     0.0000     0.0000     0.0000 </r>
        <r>   -63.4946     0.0000     0.0000     0.0000     0.0000 </r>
        <r>   -63.2191     0.0000     0.0000     0.0000     0.0000 </r>
        <r>   -62.9436     0.0000     0.0000     0.0000     0.0000 </r>
        <r>   -62.6681     0.0000     0.0000     0.0000     0.0000 </r>
        <r>   -62.3926     0.0000     0.0000     0.0000     0.0000 </r>
        <r>   -62.1171     0.0000     0.0000     0.0000     0.0000 </r>
        <r>   -61.8416     0.0000     0.0000     0.0000     0.0000 </r>
        <r>   -61.5660     0.0000     0.0000     0.0000     0.0000 </r>
        <r>   -61.2905     0.0000     0.0000     0.0000     0.0000 </r>
        <r>   -61.0150     0.0000     0.0000     0.0000     0.0000 </r>
        <r>   -60.7395     0.0000     0.0000     0.0000     0.0000 </r>
        <r>   -60.4640     0.0000     0.0000     0.0000     0.0000 </r>
        <r>   -60.1885     0.0000     0.0000     0.0000     0.0000 </r>
        <r>   -59.9130     0.0000     0.0000     0.0000     0.0000 </r>
        <r>   -59.6375     0.0000     0.0000     0.0000     0.0000 </r>
        <r>   -59.3620     0.0000     0.0000     0.0000     0.0000 </r>
        <r>   -59.0864     0.0000     0.0000     0.0000     0.0000 </r>
        <r>   -58.8109     0.0000     0.0000     0.0000     0.0000 </r>
        <r>   -58.5354     0.0000     0.0000     0.0000     0.0000 </r>
        <r>   -58.2599     0.0000     0.0000     0.0000     0.0000 </r>
        <r>   -57.9844     0.0000     0.0000     0.0000     0.0000 </r>
        <r>   -57.7089     0.0000     0.0000     0.0000     0.0000 </r>
        <r>   -57.4334     0.0000     0.0000     0.0000     0.0000 </r>
        <r>   -57.1579     0.0000     0.0000     0.0000     0.0000 </r>
        <r>   -56.8823     0.0000     0.0000     0.0000     0.0000 </r>
        <r>   -56.6068     0.0000     0.0000     0.0000     0.0000 </r>
        <r>   -56.3313     0.0000     0.0000     0.0000     0.0000 </r>
        <r>   -56.0558     0.0000     0.0000     0.0000     0.0000 </r>
        <r>   -55.7803     0.0000     0.0000     0.0000     0.0000 </r>
        <r>   -55.5048     0.0000     0.0000     0.0000     0.0000 </r>
        <r>   -55.2293     0.0000     0.0000     0.0000     0.0000 </r>
        <r>   -54.9538     0.0000     0.0000     0.0000     0.0000 </r>
        <r>   -54.6783     0.0000     0.0000     0.0000     0.0000 </r>
        <r>   -54.4027     0.0000     0.0000     0.0000     0.0000 </r>
        <r>   -54.1272     0.0000     0.0000     0.0000     0.0000 </r>
        <r>   -53.8517     0.0000     0.0000     0.0000     0.0000 </r>
        <r>   -53.5762     0.0000     0.0000     0.0000     0.0000 </r>
        <r>   -53.3007     0.0000     0.0000     0.0000     0.0000 </r>
        <r>   -53.0252     0.0000     0.0000     0.0000     0.0000 </r>
        <r>   -52.7497     0.0000     0.0000     0.0000     0.0000 </r>
        <r>   -52.4742     0.0000     0.0000     0.0000     0.0000 </r>
        <r>   -52.1986     0.0000     0.0000     0.0000     0.0000 </r>
        <r>   -51.9231     0.0000     0.0000     0.0000     0.0000 </r>
        <r>   -51.6476     0.0000     0.0000     0.0000     0.0000 </r>
        <r>   -51.3721     0.0000     0.0000     0.0000     0.0000 </r>
        <r>   -51.0966     0.0000     0.0000     0.0000     0.0000 </r>
        <r>   -50.8211     0.0000     0.0000     0.0000     0.0000 </r>
        <r>   -50.5456     0.0000     0.0000     0.0000     0.0000 </r>
        <r>   -50.2701     0.0000     0.0000     0.0000     0.0000 </r>
        <r>   -49.9946     0.0000     0.0000     0.0000     0.0000 </r>
        <r>   -49.7190     0.0000     0.0000     0.0000     0.0000 </r>
        <r>   -49.4435     0.0000     0.0000     0.0000     0.0000 </r>
        <r>   -49.1680     0.0000     0.0000     0.0000     0.0000 </r>
        <r>   -48.8925     0.0000     0.0000     0.0000     0.0000 </r>
        <r>   -48.6170     0.0000     0.0000     0.0000     0.0000 </r>
        <r>   -48.3415     0.0000     0.0000     0.0000     0.0000 </r>
        <r>   -48.0660     0.0000     0.0000     0.0000     0.0000 </r>
        <r>   -47.7905     0.0000     0.0000     0.0000     0.0000 </r>
        <r>   -47.5150     0.0000     0.0000     0.0000     0.0000 </r>
        <r>   -47.2394     0.0000     0.0000     0.0000     0.0000 </r>
        <r>   -46.9639     0.0000     0.0000     0.0000     0.0000 </r>
        <r>   -46.6884     0.0000     0.0000     0.0000     0.0000 </r>
        <r>   -46.4129     0.0000     0.0000     0.0000     0.0000 </r>
        <r>   -46.1374     0.0000     0.0000     0.0000     0.0000 </r>
        <r>   -45.8619     0.0000     0.8999     0.0018     0.0004 </r>
        <r>   -45.5864     0.0000     0.0000     0.0000     0.0000 </r>
        <r>   -45.3109     0.0000     0.0000     0.0000     0.0000 </r>
        <r>   -45.0353     0.0000     0.0000     0.0000     0.0000 </r>
        <r>   -44.7598     0.0014     1.7495     0.0007     0.0000 </r>
        <r>   -44.4843     0.0000     0.0000     0.0000     0.0000 </r>
        <r>   -44.2088     0.0000     0.0000     0.0000     0.0000 </r>
        <r>   -43.9333     0.0000     0.0000     0.0000     0.0000 </r>
        <r>   -43.6578     0.0000     0.0000     0.0000     0.0000 </r>
        <r>   -43.3823     0.0000     0.0000     0.0000     0.0000 </r>
        <r>   -43.1068     0.0000     0.0000     0.0000     0.0000 </r>
        <r>   -42.8313     0.0000     0.0000     0.0000     0.0000 </r>
        <r>   -42.5557     0.0000     0.0000     0.0000     0.0000 </r>
        <r>   -42.2802     0.0000     0.0000     0.0000     0.0000 </r>
        <r>   -42.0047     0.0000     0.0000     0.0000     0.0000 </r>
        <r>   -41.7292     0.0000     0.0000     0.0000     0.0000 </r>
        <r>   -41.4537     0.0000     0.0000     0.0000     0.0000 </r>
        <r>   -41.1782     0.0000     0.0000     0.0000     0.0000 </r>
        <r>   -40.9027     0.0000     0.0000     0.0000     0.0000 </r>
        <r>   -40.6272     0.0000     0.0000     0.0000     0.0000 </r>
        <r>   -40.3516     0.0000     0.0000     0.0000     0.0000 </r>
        <r>   -40.0761     0.0000     0.0000     0.0000     0.0000 </r>
        <r>   -39.8006     0.0000     0.0000     0.0000     0.0000 </r>
        <r>   -39.5251     0.0000     0.0000     0.0000     0.0000 </r>
        <r>   -39.2496     0.0000     0.0000     0.0000     0.0000 </r>
        <r>   -38.9741     0.0000     0.0000     0.0000     0.0000 </r>
        <r>   -38.6986     0.0000     0.0000     0.0000     0.0000 </r>
        <r>   -38.4231     0.0000     0.0000     0.0000     0.0000 </r>
        <r>   -38.1476     0.0000     0.0000     0.0000     0.0000 </r>
        <r>   -37.8720     0.0000     0.0000     0.0000     0.0000 </r>
        <r>   -37.5965     0.0000     0.0000     0.0000     0.0000 </r>
        <r>   -37.3210     0.0000     0.0000     0.0000     0.0000 </r>
        <r>   -37.0455     0.0000     0.0000     0.0000     0.0000 </r>
        <r>   -36.7700     0.0000     0.0000     0.0000     0.0000 </r>
        <r>   -36.4945     0.0000     0.0000     0.0000     0.0000 </r>
        <r>   -36.2190     0.0000     0.0000     0.0000     0.0000 </r>
        <r>   -35.9435     0.0000     0.0000     0.0000     0.0000 </r>
        <r>   -35.6679     0.0000     0.0000     0.0000     0.0000 </r>
        <r>   -35.3924     0.0000     0.0000     0.0000     0.0000 </r>
        <r>   -35.1169     0.0000     0.0000     0.0000     0.0000 </r>
        <r>   -34.8414     0.0000     0.0000     0.0000     0.0000 </r>
        <r>   -34.5659     0.0000     0.0000     0.0000     0.0000 </r>
        <r>   -34.2904     0.0000     0.0000     0.0000     0.0000 </r>
        <r>   -34.0149     0.0000     0.0000     0.0000     0.0000 </r>
        <r>   -33.7394     0.0000     0.0000     0.0000     0.0000 </r>
        <r>   -33.4639     0.0000     0.0000     0.0000     0.0000 </r>
        <r>   -33.1883     0.0000     0.0000     0.0000     0.0000 </r>
        <r>   -32.9128     0.0000     0.0000     0.0000     0.0000 </r>
        <r>   -32.6373     0.0000     0.0000     0.0000     0.0000 </r>
        <r>   -32.3618     0.0000     0.0000     0.0000     0.0000 </r>
        <r>   -32.0863     0.0000     0.0000     0.0000     0.0000 </r>
        <r>   -31.8108     0.0000     0.0000     0.0000     0.0000 </r>
        <r>   -31.5353     0.0000     0.0000     0.0000     0.0000 </r>
        <r>   -31.2598     0.0000     0.0000     0.0000     0.0000 </r>
        <r>   -30.9843     0.0000     0.0000     0.0000     0.0000 </r>
        <r>   -30.7087     0.0000     0.0000     0.0000     0.0000 </r>
        <r>   -30.4332     0.0000     0.0000     0.0000     0.0000 </r>
        <r>   -30.1577     0.0000     0.0000     0.0000     0.0000 </r>
        <r>   -29.8822     0.0000     0.0000     0.0000     0.0000 </r>
        <r>   -29.6067     0.0000     0.0000     0.0000     0.0000 </r>
        <r>   -29.3312     0.0000     0.0000     0.0000     0.0000 </r>
        <r>   -29.0557     0.0000     0.0000     0.0000     0.0000 </r>
        <r>   -28.7802     0.0000     0.0000     0.0000     0.0000 </r>
        <r>   -28.5046     0.0000     0.0000     0.0000     0.0000 </r>
        <r>   -28.2291     0.0000     0.0000     0.0000     0.0000 </r>
        <r>   -27.9536     0.0000     0.0000     0.0000     0.0000 </r>
        <r>   -27.6781     0.0000     0.0000     0.0000     0.0000 </r>
        <r>   -27.4026     0.0000     0.0000     0.0000     0.0000 </r>
        <r>   -27.1271     0.0000     0.0000     0.0000     0.0000 </r>
        <r>   -26.8516     0.0000     0.0000     0.0000     0.0000 </r>
        <r>   -26.5761     0.0000     0.0000     0.0000     0.0000 </r>
        <r>   -26.3006     0.0000     0.0000     0.0000     0.0000 </r>
        <r>   -26.0250     0.0000     0.0000     0.0000     0.0000 </r>
        <r>   -25.7495     0.0000     0.0000     0.0000     0.0000 </r>
        <r>   -25.4740     0.0000     0.0000     0.0000     0.0000 </r>
        <r>   -25.1985     0.0000     0.0000     0.0000     0.0000 </r>
        <r>   -24.9230     0.0000     0.0000     0.0000     0.0000 </r>
        <r>   -24.6475     0.0000     0.0000     0.0000     0.0000 </r>
        <r>   -24.3720     0.0000     0.0000     0.0000     0.0000 </r>
        <r>   -24.0965     0.0000     0.0000     0.0000     0.0000 </r>
        <r>   -23.8209     0.0000     0.0000     0.0000     0.0000 </r>
        <r>   -23.5454     0.0000     0.0000     0.0000     0.0000 </r>
        <r>   -23.2699     0.0000     0.0000     0.0000     0.0000 </r>
        <r>   -22.9944     0.0000     0.0000     0.0000     0.0000 </r>
        <r>   -22.7189     0.0000     0.0000     0.0000     0.0000 </r>
        <r>   -22.4434     0.0000     0.0000     0.0000     0.0000 </r>
        <r>   -22.1679     0.0000     0.0000     0.0000     0.0000 </r>
        <r>   -21.8924     0.0000     0.0000     0.0000     0.0000 </r>
        <r>   -21.6169     0.0000     0.0000     0.0000     0.0000 </r>
        <r>   -21.3413     0.0000     0.0000     0.0000     0.0000 </r>
        <r>   -21.0658     0.0000     0.0000     0.0000     0.0000 </r>
        <r>   -20.7903     0.0000     0.0000     0.0000     0.0000 </r>
        <r>   -20.5148     0.0000     0.0000     0.0000     0.0000 </r>
        <r>   -20.2393     0.0000     0.0000     0.0000     0.0000 </r>
        <r>   -19.9638     0.0000     0.0000     0.0000     0.0000 </r>
        <r>   -19.6883     0.0000     0.0000     0.0000     0.0000 </r>
        <r>   -19.4128     0.0000     0.0000     0.0000     0.0000 </r>
        <r>   -19.1373     0.0000     0.0000     0.0000     0.0000 </r>
        <r>   -18.8617     0.0000     0.0000     0.0000     0.0000 </r>
        <r>   -18.5862     0.0000     0.0000     0.0000     0.0000 </r>
        <r>   -18.3107     0.0000     0.0000     0.0000     0.0000 </r>
        <r>   -18.0352     0.0000     0.0000     0.0000     0.0000 </r>
        <r>   -17.7597     0.0000     0.0000     0.0000     0.0000 </r>
        <r>   -17.4842     0.0000     0.0000     0.0000     0.0000 </r>
        <r>   -17.2087     0.0000     0.0000     0.0000     0.0000 </r>
        <r>   -16.9332     0.0000     0.0000     0.0000     0.0000 </r>
        <r>   -16.6576     0.0000     0.0000     0.0000     0.0000 </r>
        <r>   -16.3821     0.0000     0.0000     0.0000     0.0000 </r>
        <r>   -16.1066     0.0000     0.0000     0.0000     0.0000 </r>
        <r>   -15.8311     0.0000     0.0000     0.0000     0.0000 </r>
        <r>   -15.5556     0.0000     0.0000     0.0000     0.0000 </r>
        <r>   -15.2801     0.0000     0.0000     0.0000     0.0000 </r>
        <r>   -15.0046     0.0000     0.0000     0.0000     0.0000 </r>
        <r>   -14.7291     0.0000     0.0000     0.0000     0.0000 </r>
        <r>   -14.4536     0.0000     0.0000     0.0000     0.0000 </r>
        <r>   -14.1780     0.0000     0.0000     0.0000     0.0000 </r>
        <r>   -13.9025     0.0000     0.0000     0.0000     0.0000 </r>
        <r>   -13.6270     0.0000     0.0000     0.0000     0.0000 </r>
        <r>   -13.3515     0.0000     0.0000     0.0000     0.0000 </r>
        <r>   -13.0760     0.0000     0.0000     0.0000     0.0000 </r>
        <r>   -12.8005     0.0000     0.0000     0.0000     0.0000 </r>
        <r>   -12.5250     0.0000     0.0000     0.0000     0.0000 </r>
        <r>   -12.2495     0.0000     0.0000     0.0000     0.0000 </r>
        <r>   -11.9739     0.0000     0.0000     0.0000     0.0000 </r>
        <r>   -11.6984     0.0000     0.0000     0.0000     0.0000 </r>
        <r>   -11.4229     0.0000     0.0000     0.0000     0.0000 </r>
        <r>   -11.1474     0.0000     0.0000     0.0000     0.0000 </r>
        <r>   -10.8719     0.0000     0.0000     0.0000     0.0000 </r>
        <r>   -10.5964     0.0000     0.0000     0.0000     0.0000 </r>
        <r>   -10.3209     0.0000     0.0000     0.0000     0.0000 </r>
        <r>   -10.0454     0.0000     0.0000     0.0000     0.0000 </r>
        <r>    -9.7699     0.0000     0.0000     0.0000     0.0000 </r>
        <r>    -9.4943     0.0000     0.0000     0.0000     0.0000 </r>
        <r>    -9.2188     0.0000     0.0000     0.0000     0.0000 </r>
        <r>    -8.9433     0.0000     0.0000     0.0000     0.0000 </r>
        <r>    -8.6678     0.0000     0.0000     0.0000     0.0000 </r>
        <r>    -8.3923     0.0000     0.0000     0.0000     0.0000 </r>
        <r>    -8.1168     0.0000     0.0000     0.0000     0.0000 </r>
        <r>    -7.8413     0.0000     0.0000     0.0000     0.0000 </r>
        <r>    -7.5658     0.0000     0.0000     0.0000     0.0000 </r>
        <r>    -7.2903     0.0000     0.0000     0.0000     0.0000 </r>
        <r>    -7.0147     0.0000     0.0000     0.0000     0.0000 </r>
        <r>    -6.7392     0.0000     0.0000     0.0000     0.0000 </r>
        <r>    -6.4637     0.0000     0.0000     0.0000     0.0000 </r>
        <r>    -6.1882     0.0000     0.0000     0.0000     0.0000 </r>
        <r>    -5.9127     0.0007     0.0000     0.0035     0.0000 </r>
        <r>    -5.6372     0.0000     0.0000     0.0000     0.0000 </r>
        <r>    -5.3617     0.0022     0.0019     0.4704     0.0022 </r>
        <r>    -5.0862     0.0000     0.0000     0.0000     0.0000 </r>
        <r>    -4.8106     0.0000     0.0000     0.0000     0.0000 </r>
        <r>    -4.5351     0.1478     0.0004     0.4437     0.0017 </r>
        <r>    -4.2596     0.0000     0.0000     0.0000     0.0000 </r>
        <r>    -3.9841     0.0000     0.0000     0.0000     0.0000 </r>
        <r>    -3.7086     0.0000     0.0000     0.0000     0.0000 </r>
        <r>    -3.4331     0.0000     0.0000     0.0000     0.0000 </r>
        <r>    -3.1576     0.0000     0.0000     0.0000     0.0000 </r>
        <r>    -2.8821     0.2753     0.0014     1.1762     0.0037 </r>
        <r>    -2.6066     0.0000     0.0000     0.0000     0.0000 </r>
        <r>    -2.3310     0.0000     0.0000     0.0000     0.0000 </r>
        <r>    -2.0555     0.0000     0.0000     0.0000     0.0000 </r>
        <r>    -1.7800     0.0000     0.0000     0.0000     0.0000 </r>
        <r>    -1.5045     0.0000     0.0000     0.0000     0.0000 </r>
        <r>    -1.2290     0.0000     0.0000     0.0000     0.0000 </r>
        <r>    -0.9535     0.0000     0.0000     0.0000     0.0000 </r>
        <r>    -0.6780     0.0000     0.0000     0.0000     0.0000 </r>
        <r>    -0.4025     0.0000     0.0000     0.0000     0.0000 </r>
        <r>    -0.1269     0.0000     0.0000     0.0000     0.0000 </r>
        <r>     0.1486     0.0000     0.0000     0.0000     0.0000 </r>
        <r>     0.4241     0.0000     0.0000     0.0000     0.0000 </r>
        <r>     0.6996     0.0000     0.0000     0.0000     0.0000 </r>
        <r>     0.9751     0.0000     0.0000     0.0000     0.0000 </r>
        <r>     1.2506     0.0000     0.0000     0.0000     0.0000 </r>
        <r>     1.5261     0.0000     0.0000     0.0000     0.0000 </r>
        <r>     1.8016     0.0000     0.0000     0.0000     0.0000 </r>
        <r>     2.0771     0.0000     0.0000     0.0000     0.0000 </r>
        <r>     2.3527     0.0000     0.0000     0.0000     0.0000 </r>
       </set>
      </set>
      <set comment="ion 2">
       <set comment="spin 1">
        <r>   -80.3008     0.0000     0.0000     0.0000     0.0000 </r>
        <r>   -80.0253     0.0000     0.0000     0.0000     0.0000 </r>
        <r>   -79.7498     0.0000     0.0000     0.0000     0.0000 </r>
        <r>   -79.4743     0.0000     0.0000     0.0000     0.0000 </r>
        <r>   -79.1988     0.0000     0.0000     0.0000     0.0000 </r>
        <r>   -78.9233     0.0000     0.0000     0.0000     0.0000 </r>
        <r>   -78.6478     0.0000     0.0000     0.0000     0.0000 </r>
        <r>   -78.3723     0.0000     0.0000     0.0000     0.0000 </r>
        <r>   -78.0967     0.0000     0.0000     0.0000     0.0000 </r>
        <r>   -77.8212     0.0000     0.0000     0.0000     0.0000 </r>
        <r>   -77.5457     0.0000     0.0000     0.0000     0.0000 </r>
        <r>   -77.2702     0.0000     0.0000     0.0000     0.0000 </r>
        <r>   -76.9947     0.0000     0.0000     0.0000     0.0000 </r>
        <r>   -76.7192     0.0000     0.0000     0.0000     0.0000 </r>
        <r>   -76.4437     0.0000     0.0000     0.0000     0.0000 </r>
        <r>   -76.1682     0.0000     0.0000     0.0000     0.0000 </r>
        <r>   -75.8926     0.0000     0.0000     0.0000     0.0000 </r>
        <r>   -75.6171     0.0000     0.0000     0.0000     0.0000 </r>
        <r>   -75.3416     0.0000     0.0000     0.0000     0.0000 </r>
        <r>   -75.0661     0.0000     0.0000     0.0000     0.0000 </r>
        <r>   -74.7906     0.0000     0.0000     0.0000     0.0000 </r>
        <r>   -74.5151     0.0000     0.0000     0.0000     0.0000 </r>
        <r>   -74.2396     0.0000     0.0000     0.0000     0.0000 </r>
        <r>   -73.9641     0.0000     0.0000     0.0000     0.0000 </r>
        <r>   -73.6886     0.0000     0.0000     0.0000     0.0000 </r>
        <r>   -73.4130     0.0000     0.0000     0.0000     0.0000 </r>
        <r>   -73.1375     0.0000     0.0000     0.0000     0.0000 </r>
        <r>   -72.8620     0.0000     0.0000     0.0000     0.0000 </r>
        <r>   -72.5865     0.0000     0.0000     0.0000     0.0000 </r>
        <r>   -72.3110     0.0000     0.0000     0.0000     0.0000 </r>
        <r>   -72.0355     0.0000     0.0000     0.0000     0.0000 </r>
        <r>   -71.7600     0.0000     0.0000     0.0000     0.0000 </r>
        <r>   -71.4845     0.0000     0.0000     0.0000     0.0000 </r>
        <r>   -71.2090     0.0000     0.0000     0.0000     0.0000 </r>
        <r>   -70.9334     0.0000     0.0000     0.0000     0.0000 </r>
        <r>   -70.6579     0.0000     0.0000     0.0000     0.0000 </r>
        <r>   -70.3824     0.0000     0.0000     0.0000     0.0000 </r>
        <r>   -70.1069     0.0000     0.0000     0.0000     0.0000 </r>
        <r>   -69.8314     0.0000     0.0000     0.0000     0.0000 </r>
        <r>   -69.5559     0.0000     0.0000     0.0000     0.0000 </r>
        <r>   -69.2804     0.0000     0.0000     0.0000     0.0000 </r>
        <r>   -69.0049     0.0000     0.0000     0.0000     0.0000 </r>
        <r>   -68.7293     0.0000     0.0000     0.0000     0.0000 </r>
        <r>   -68.4538     0.0000     0.0000     0.0000     0.0000 </r>
        <r>   -68.1783     0.0000     0.0000     0.0000     0.0000 </r>
        <r>   -67.9028     0.0000     0.0000     0.0000     0.0000 </r>
        <r>   -67.6273     0.0000     0.0000     0.0000     0.0000 </r>
        <r>   -67.3518     0.0000     0.0000     0.0000     0.0000 </r>
        <r>   -67.0763     0.0000     0.0000     0.0000     0.0000 </r>
        <r>   -66.8008     0.0000     0.0000     0.0000     0.0000 </r>
        <r>   -66.5253     0.0000     0.0000     0.0000     0.0000 </r>
        <r>   -66.2497     0.0000     0.0000     0.0000     0.0000 </r>
        <r>   -65.9742     0.0000     0.0000     0.0000     0.0000 </r>
        <r>   -65.6987     0.0000     0.0000     0.0000     0.0000 </r>
        <r>   -65.4232     0.0000     0.0000     0.0000     0.0000 </r>
        <r>   -65.1477     0.0000     0.0000     0.0000     0.0000 </r>
        <r>   -64.8722     0.0000     0.0000     0.0000     0.0000 </r>
        <r>   -64.5967     0.0000     0.0000     0.0000     0.0000 </r>
        <r>   -64.3212     0.0000     0.0000     0.0000     0.0000 </r>
        <r>   -64.0456     0.0000     0.0000     0.0000     0.0000 </r>
        <r>   -63.7701     0.0000     0.0000     0.0000     0.0000 </r>
        <r>   -63.4946     0.0000     0.0000     0.0000     0.0000 </r>
        <r>   -63.2191     0.0000     0.0000     0.0000     0.0000 </r>
        <r>   -62.9436     0.0000     0.0000     0.0000     0.0000 </r>
        <r>   -62.6681     0.0000     0.0000     0.0000     0.0000 </r>
        <r>   -62.3926     0.0000     0.0000     0.0000     0.0000 </r>
        <r>   -62.1171     0.0000     0.0000     0.0000     0.0000 </r>
        <r>   -61.8416     0.0000     0.0000     0.0000     0.0000 </r>
        <r>   -61.5660     0.0000     0.0000     0.0000     0.0000 </r>
        <r>   -61.2905     0.0000     0.0000     0.0000     0.0000 </r>
        <r>   -61.0150     0.0000     0.0000     0.0000     0.0000 </r>
        <r>   -60.7395     0.0000     0.0000     0.0000     0.0000 </r>
        <r>   -60.4640     0.0000     0.0000     0.0000     0.0000 </r>
        <r>   -60.1885     0.0000     0.0000     0.0000     0.0000 </r>
        <r>   -59.9130     0.0000     0.0000     0.0000     0.0000 </r>
        <r>   -59.6375     0.0000     0.0000     0.0000     0.0000 </r>
        <r>   -59.3620     0.0000     0.0000     0.0000     0.0000 </r>
        <r>   -59.0864     0.0000     0.0000     0.0000     0.0000 </r>
        <r>   -58.8109     0.0000     0.0000     0.0000     0.0000 </r>
        <r>   -58.5354     0.0000     0.0000     0.0000     0.0000 </r>
        <r>   -58.2599     0.0000     0.0000     0.0000     0.0000 </r>
        <r>   -57.9844     0.0000     0.0000     0.0000     0.0000 </r>
        <r>   -57.7089     0.0000     0.0000     0.0000     0.0000 </r>
        <r>   -57.4334     0.0000     0.0000     0.0000     0.0000 </r>
        <r>   -57.1579     0.0000     0.0000     0.0000     0.0000 </r>
        <r>   -56.8823     0.0000     0.0000     0.0000     0.0000 </r>
        <r>   -56.6068     0.0000     0.0000     0.0000     0.0000 </r>
        <r>   -56.3313     0.0000     0.0000     0.0000     0.0000 </r>
        <r>   -56.0558     0.0000     0.0000     0.0000     0.0000 </r>
        <r>   -55.7803     0.0000     0.0000     0.0000     0.0000 </r>
        <r>   -55.5048     0.0000     0.0000     0.0000     0.0000 </r>
        <r>   -55.2293     0.0000     0.0000     0.0000     0.0000 </r>
        <r>   -54.9538     0.0000     0.0000     0.0000     0.0000 </r>
        <r>   -54.6783     0.0000     0.0000     0.0000     0.0000 </r>
        <r>   -54.4027     0.0000     0.0000     0.0000     0.0000 </r>
        <r>   -54.1272     0.0000     0.0000     0.0000     0.0000 </r>
        <r>   -53.8517     0.0000     0.0000     0.0000     0.0000 </r>
        <r>   -53.5762     0.0000     0.0000     0.0000     0.0000 </r>
        <r>   -53.3007     0.0000     0.0000     0.0000     0.0000 </r>
        <r>   -53.0252     0.0000     0.0000     0.0000     0.0000 </r>
        <r>   -52.7497     0.0000     0.0000     0.0000     0.0000 </r>
        <r>   -52.4742     0.0000     0.0000     0.0000     0.0000 </r>
        <r>   -52.1986     0.0000     0.0000     0.0000     0.0000 </r>
        <r>   -51.9231     0.0000     0.0000     0.0000     0.0000 </r>
        <r>   -51.6476     0.0000     0.0000     0.0000     0.0000 </r>
        <r>   -51.3721     0.0000     0.0000     0.0000     0.0000 </r>
        <r>   -51.0966     0.0000     0.0000     0.0000     0.0000 </r>
        <r>   -50.8211     0.0000     0.0000     0.0000     0.0000 </r>
        <r>   -50.5456     0.0000     0.0000     0.0000     0.0000 </r>
        <r>   -50.2701     0.0000     0.0000     0.0000     0.0000 </r>
        <r>   -49.9946     0.0000     0.0000     0.0000     0.0000 </r>
        <r>   -49.7190     0.0000     0.0000     0.0000     0.0000 </r>
        <r>   -49.4435     0.0000     0.0000     0.0000     0.0000 </r>
        <r>   -49.1680     0.0000     0.0000     0.0000     0.0000 </r>
        <r>   -48.8925     0.0000     0.0000     0.0000     0.0000 </r>
        <r>   -48.6170     0.0000     0.0000     0.0000     0.0000 </r>
        <r>   -48.3415     0.0000     0.0000     0.0000     0.0000 </r>
        <r>   -48.0660     0.0000     0.0000     0.0000     0.0000 </r>
        <r>   -47.7905     0.0000     0.0000     0.0000     0.0000 </r>
        <r>   -47.5150     0.0000     0.0000     0.0000     0.0000 </r>
        <r>   -47.2394     0.0000     0.0000     0.0000     0.0000 </r>
        <r>   -46.9639     0.0000     0.0000     0.0000     0.0000 </r>
        <r>   -46.6884     0.0000     0.0000     0.0000     0.0000 </r>
        <r>   -46.4129     0.0000     0.0002     0.0000     0.0000 </r>
        <r>   -46.1374     0.0000     0.0000     0.0000     0.0000 </r>
        <r>   -45.8619     0.0000     0.0000     0.0000     0.0000 </r>
        <r>   -45.5864     0.0000     0.0000     0.0000     0.0000 </r>
        <r>   -45.3109     0.0000     0.0000     0.0000     0.0000 </r>
        <r>   -45.0353     0.0000     0.0000     0.0000     0.0000 </r>
        <r>   -44.7598     0.0000     0.0000     0.0000     0.0000 </r>
        <r>   -44.4843     0.0000     0.0000     0.0000     0.0000 </r>
        <r>   -44.2088     0.0000     0.0000     0.0000     0.0000 </r>
        <r>   -43.9333     0.0000     0.0000     0.0000     0.0000 </r>
        <r>   -43.6578     0.0000     0.0000     0.0000     0.0000 </r>
        <r>   -43.3823     0.0000     0.0000     0.0000     0.0000 </r>
        <r>   -43.1068     0.0000     0.0000     0.0000     0.0000 </r>
        <r>   -42.8313     0.0000     0.0000     0.0000     0.0000 </r>
        <r>   -42.5557     0.0000     0.0000     0.0000     0.0000 </r>
        <r>   -42.2802     0.0000     0.0000     0.0000     0.0000 </r>
        <r>   -42.0047     0.0000     0.0000     0.0000     0.0000 </r>
        <r>   -41.7292     0.0000     0.0000     0.0000     0.0000 </r>
        <r>   -41.4537     0.0000     0.0000     0.0000     0.0000 </r>
        <r>   -41.1782     0.0000     0.0000     0.0000     0.0000 </r>
        <r>   -40.9027     0.0000     0.0000     0.0000     0.0000 </r>
        <r>   -40.6272     0.0000     0.0000     0.0000     0.0000 </r>
        <r>   -40.3516     0.0000     0.0000     0.0000     0.0000 </r>
        <r>   -40.0761     0.0000     0.0000     0.0000     0.0000 </r>
        <r>   -39.8006     0.0000     0.0000     0.0000     0.0000 </r>
        <r>   -39.5251     0.0000     0.0000     0.0000     0.0000 </r>
        <r>   -39.2496     0.0000     0.0000     0.0000     0.0000 </r>
        <r>   -38.9741     0.0000     0.0000     0.0000     0.0000 </r>
        <r>   -38.6986     0.0000     0.0000     0.0000     0.0000 </r>
        <r>   -38.4231     0.0000     0.0000     0.0000     0.0000 </r>
        <r>   -38.1476     0.0000     0.0000     0.0000     0.0000 </r>
        <r>   -37.8720     0.0000     0.0000     0.0000     0.0000 </r>
        <r>   -37.5965     0.0000     0.0000     0.0000     0.0000 </r>
        <r>   -37.3210     0.0000     0.0000     0.0000     0.0000 </r>
        <r>   -37.0455     0.0000     0.0000     0.0000     0.0000 </r>
        <r>   -36.7700     0.0000     0.0000     0.0000     0.0000 </r>
        <r>   -36.4945     0.0000     0.0000     0.0000     0.0000 </r>
        <r>   -36.2190     0.0000     0.0000     0.0000     0.0000 </r>
        <r>   -35.9435     0.0000     0.0000     0.0000     0.0000 </r>
        <r>   -35.6679     0.0000     0.0000     0.0000     0.0000 </r>
        <r>   -35.3924     0.0000     0.0000     0.0000     0.0000 </r>
        <r>   -35.1169     0.0000     0.0000     0.0000     0.0000 </r>
        <r>   -34.8414     0.0000     0.0000     0.0000     0.0000 </r>
        <r>   -34.5659     0.0000     0.0000     0.0000     0.0000 </r>
        <r>   -34.2904     0.0000     0.0000     0.0000     0.0000 </r>
        <r>   -34.0149     0.0000     0.0000     0.0000     0.0000 </r>
        <r>   -33.7394     0.0000     0.0000     0.0000     0.0000 </r>
        <r>   -33.4639     0.0000     0.0000     0.0000     0.0000 </r>
        <r>   -33.1883     0.0000     0.0000     0.0000     0.0000 </r>
        <r>   -32.9128     0.0000     0.0000     0.0000     0.0000 </r>
        <r>   -32.6373     0.0000     0.0000     0.0000     0.0000 </r>
        <r>   -32.3618     0.0000     0.0000     0.0000     0.0000 </r>
        <r>   -32.0863     0.0000     0.0000     0.0000     0.0000 </r>
        <r>   -31.8108     0.0000     0.0000     0.0000     0.0000 </r>
        <r>   -31.5353     0.0000     0.0000     0.0000     0.0000 </r>
        <r>   -31.2598     0.0000     0.0000     0.0000     0.0000 </r>
        <r>   -30.9843     0.0000     0.0000     0.0000     0.0000 </r>
        <r>   -30.7087     0.0000     0.0000     0.0000     0.0000 </r>
        <r>   -30.4332     0.0000     0.0000     0.0000     0.0000 </r>
        <r>   -30.1577     0.0000     0.0000     0.0000     0.0000 </r>
        <r>   -29.8822     0.0000     0.0000     0.0000     0.0000 </r>
        <r>   -29.6067     0.0000     0.0000     0.0000     0.0000 </r>
        <r>   -29.3312     0.0000     0.0000     0.0000     0.0000 </r>
        <r>   -29.0557     0.0000     0.0000     0.0000     0.0000 </r>
        <r>   -28.7802     0.0000     0.0000     0.0000     0.0000 </r>
        <r>   -28.5046     0.0000     0.0000     0.0000     0.0000 </r>
        <r>   -28.2291     0.0000     0.0000     0.0000     0.0000 </r>
        <r>   -27.9536     0.0000     0.0000     0.0000     0.0000 </r>
        <r>   -27.6781     0.0000     0.0000     0.0000     0.0000 </r>
        <r>   -27.4026     0.0000     0.0000     0.0000     0.0000 </r>
        <r>   -27.1271     0.0000     0.0000     0.0000     0.0000 </r>
        <r>   -26.8516     0.0000     0.0000     0.0000     0.0000 </r>
        <r>   -26.5761     0.0000     0.0000     0.0000     0.0000 </r>
        <r>   -26.3006     0.0000     0.0000     0.0000     0.0000 </r>
        <r>   -26.0250     0.0000     0.0000     0.0000     0.0000 </r>
        <r>   -25.7495     0.0000     0.0000     0.0000     0.0000 </r>
        <r>   -25.4740     0.0000     0.0000     0.0000     0.0000 </r>
        <r>   -25.1985     0.0000     0.0000     0.0000     0.0000 </r>
        <r>   -24.9230     0.0000     0.0000     0.0000     0.0000 </r>
        <r>   -24.6475     0.0000     0.0000     0.0000     0.0000 </r>
        <r>   -24.3720     0.0000     0.0000     0.0000     0.0000 </r>
        <r>   -24.0965     0.0000     0.0000     0.0000     0.0000 </r>
        <r>   -23.8209     0.0000     0.0000     0.0000     0.0000 </r>
        <r>   -23.5454     0.0000     0.0000     0.0000     0.0000 </r>
        <r>   -23.2699     0.0000     0.0000     0.0000     0.0000 </r>
        <r>   -22.9944     0.0000     0.0000     0.0000     0.0000 </r>
        <r>   -22.7189     0.0000     0.0000     0.0000     0.0000 </r>
        <r>   -22.4434     0.0000     0.0000     0.0000     0.0000 </r>
        <r>   -22.1679     0.0000     0.0000     0.0000     0.0000 </r>
        <r>   -21.8924     0.0000     0.0000     0.0000     0.0000 </r>
        <r>   -21.6169     0.0000     0.0000     0.0000     0.0000 </r>
        <r>   -21.3413     0.0000     0.0000     0.0000     0.0000 </r>
        <r>   -21.0658     0.0000     0.0000     0.0000     0.0000 </r>
        <r>   -20.7903     0.0000     0.0000     0.0000     0.0000 </r>
        <r>   -20.5148     0.0000     0.0000     0.0000     0.0000 </r>
        <r>   -20.2393     0.0000     0.0000     0.0000     0.0000 </r>
        <r>   -19.9638     0.0000     0.0000     0.0000     0.0000 </r>
        <r>   -19.6883     0.0000     0.0000     0.0000     0.0000 </r>
        <r>   -19.4128     0.0000     0.0000     0.0000     0.0000 </r>
        <r>   -19.1373     0.0000     0.0000     0.0000     0.0000 </r>
        <r>   -18.8617     0.0000     0.0000     0.0000     0.0000 </r>
        <r>   -18.5862     0.0000     0.0000     0.0000     0.0000 </r>
        <r>   -18.3107     0.0000     0.0000     0.0000     0.0000 </r>
        <r>   -18.0352     0.0000     0.0000     0.0000     0.0000 </r>
        <r>   -17.7597     0.0000     0.0000     0.0000     0.0000 </r>
        <r>   -17.4842     0.0000     0.0000     0.0000     0.0000 </r>
        <r>   -17.2087     0.0000     0.0000     0.0000     0.0000 </r>
        <r>   -16.9332     0.0000     0.0000     0.0000     0.0000 </r>
        <r>   -16.6576     0.0000     0.0000     0.0000     0.0000 </r>
        <r>   -16.3821     0.0000     0.0000     0.0000     0.0000 </r>
        <r>   -16.1066     0.0000     0.0000     0.0000     0.0000 </r>
        <r>   -15.8311     0.0000     0.0000     0.0000     0.0000 </r>
        <r>   -15.5556     0.0000     0.0000     0.0000     0.0000 </r>
        <r>   -15.2801     0.0000     0.0000     0.0000     0.0000 </r>
        <r>   -15.0046     0.0000     0.0000     0.0000     0.0000 </r>
        <r>   -14.7291     0.0000     0.0000     0.0000     0.0000 </r>
        <r>   -14.4536     0.0000     0.0000     0.0000     0.0000 </r>
        <r>   -14.1780     0.0000     0.0000     0.0000     0.0000 </r>
        <r>   -13.9025     0.0000     0.0000     0.0000     0.0000 </r>
        <r>   -13.6270     0.0000     0.0000     0.0000     0.0000 </r>
        <r>   -13.3515     0.0000     0.0000     0.0000     0.0000 </r>
        <r>   -13.0760     0.0000     0.0000     0.0000     0.0000 </r>
        <r>   -12.8005     0.0000     0.0000     0.0000     0.0000 </r>
        <r>   -12.5250     0.0000     0.0000     0.0000     0.0000 </r>
        <r>   -12.2495     0.0000     0.0000     0.0000     0.0000 </r>
        <r>   -11.9739     0.0000     0.0000     0.0000     0.0000 </r>
        <r>   -11.6984     0.0000     0.0000     0.0000     0.0000 </r>
        <r>   -11.4229     0.0000     0.0000     0.0000     0.0000 </r>
        <r>   -11.1474     0.0000     0.0000     0.0000     0.0000 </r>
        <r>   -10.8719     0.0000     0.0000     0.0000     0.0000 </r>
        <r>   -10.5964     0.0000     0.0000     0.0000     0.0000 </r>
        <r>   -10.3209     0.0000     0.0000     0.0000     0.0000 </r>
        <r>   -10.0454     0.0000     0.0000     0.0000     0.0000 </r>
        <r>    -9.7699     0.0000     0.0000     0.0000     0.0000 </r>
        <r>    -9.4943     0.0000     0.0000     0.0000     0.0000 </r>
        <r>    -9.2188     0.0000     0.0000     0.0000     0.0000 </r>
        <r>    -8.9433     0.0000     0.0000     0.0000     0.0000 </r>
        <r>    -8.6678     0.0000     0.0000     0.0000     0.0000 </r>
        <r>    -8.3923     0.0000     0.0000     0.0000     0.0000 </r>
        <r>    -8.1168     0.0000     0.0000     0.0000     0.0000 </r>
        <r>    -7.8413     0.0000     0.0000     0.0000     0.0000 </r>
        <r>    -7.5658     0.0000     0.0000     0.0000     0.0000 </r>
        <r>    -7.2903     0.0000     0.0000     0.0000     0.0000 </r>
        <r>    -7.0147     0.0000     0.0000     0.0000     0.0000 </r>
        <r>    -6.7392     0.2869     0.0041     0.5525     0.0026 </r>
        <r>    -6.4637     0.0000     0.0000     0.0000     0.0000 </r>
        <r>    -6.1882     0.0000     0.0000     0.0000     0.0000 </r>
        <r>    -5.9127     0.0000     0.0000     0.0000     0.0000 </r>
        <r>    -5.6372     0.0000     0.0000     0.0000     0.0000 </r>
        <r>    -5.3617     0.0000     0.0000     0.0000     0.0000 </r>
        <r>    -5.0862     0.0000     0.0000     0.0000     0.0000 </r>
        <r>    -4.8106     0.0000     0.0000     0.0000     0.0000 </r>
        <r>    -4.5351     0.0000     0.0000     0.0000     0.0000 </r>
        <r>    -4.2596     0.0000     0.0000     0.0000     0.0000 </r>
        <r>    -3.9841     0.0000     0.0000     0.0000     0.0000 </r>
        <r>    -3.7086     0.0000     0.0000     0.0000     0.0000 </r>
        <r>    -3.4331     0.0345     0.0108     0.6272     0.0040 </r>
        <r>    -3.1576     0.0021     0.0003     0.0023     0.0000 </r>
        <r>    -2.8821     0.0000     0.0000     0.0000     0.0000 </r>
        <r>    -2.6066     0.0000     0.0000     0.0000     0.0000 </r>
        <r>    -2.3310     0.0000     0.0000     0.0000     0.0000 </r>
        <r>    -2.0555     0.0000     0.0000     0.0000     0.0000 </r>
        <r>    -1.7800     0.0000     0.0000     0.0000     0.0000 </r>
        <r>    -1.5045     0.0000     0.0000     0.0000     0.0000 </r>
        <r>    -1.2290     0.0000     0.0000     0.0000     0.0000 </r>
        <r>    -0.9535     0.0000     0.0000     0.0000     0.0000 </r>
        <r>    -0.6780     0.0000     0.0000     0.0000     0.0000 </r>
        <r>    -0.4025     0.0000     0.0000     0.0000     0.0000 </r>
        <r>    -0.1269     0.0000     0.0000     0.0000     0.0000 </r>
        <r>     0.1486     0.0000     0.0000     0.0000     0.0000 </r>
        <r>     0.4241     0.0000     0.0000     0.0000     0.0000 </r>
        <r>     0.6996     0.0000     0.0000     0.0000     0.0000 </r>
        <r>     0.9751     0.0000     0.0000     0.0000     0.0000 </r>
        <r>     1.2506     0.0000     0.0000     0.0000     0.0000 </r>
        <r>     1.5261     0.0000     0.0000     0.0000     0.0000 </r>
        <r>     1.8016     0.0000     0.0000     0.0000     0.0000 </r>
        <r>     2.0771     0.0000     0.0000     0.0000     0.0000 </r>
        <r>     2.3527     0.0000     0.0000     0.0000     0.0000 </r>
       </set>
       <set comment="spin 2">
        <r>   -80.3008     0.0000     0.0000     0.0000     0.0000 </r>
        <r>   -80.0253     0.0000     0.0000     0.0000     0.0000 </r>
        <r>   -79.7498     0.0000     0.0000     0.0000     0.0000 </r>
        <r>   -79.4743     0.0000     0.0000     0.0000     0.0000 </r>
        <r>   -79.1988     0.0000     0.0000     0.0000     0.0000 </r>
        <r>   -78.9233     0.0000     0.0000     0.0000     0.0000 </r>
        <r>   -78.6478     0.0000     0.0000     0.0000     0.0000 </r>
        <r>   -78.3723     0.0000     0.0000     0.0000     0.0000 </r>
        <r>   -78.0967     0.0000     0.0000     0.0000     0.0000 </r>
        <r>   -77.8212     0.0000     0.0000     0.0000     0.0000 </r>
        <r>   -77.5457     0.0000     0.0000     0.0000     0.0000 </r>
        <r>   -77.2702     0.0000     0.0000     0.0000     0.0000 </r>
        <r>   -76.9947     0.0000     0.0000     0.0000     0.0000 </r>
        <r>   -76.7192     0.0000     0.0000     0.0000     0.0000 </r>
        <r>   -76.4437     0.0000     0.0000     0.0000     0.0000 </r>
        <r>   -76.1682     0.0000     0.0000     0.0000     0.0000 </r>
        <r>   -75.8926     0.0000     0.0000     0.0000     0.0000 </r>
        <r>   -75.6171     0.0000     0.0000     0.0000     0.0000 </r>
        <r>   -75.3416     0.0000     0.0000     0.0000     0.0000 </r>
        <r>   -75.0661     0.0000     0.0000     0.0000     0.0000 </r>
        <r>   -74.7906     0.0000     0.0000     0.0000     0.0000 </r>
        <r>   -74.5151     0.0000     0.0000     0.0000     0.0000 </r>
        <r>   -74.2396     0.0000     0.0000     0.0000     0.0000 </r>
        <r>   -73.9641     0.0000     0.0000     0.0000     0.0000 </r>
        <r>   -73.6886     0.0000     0.0000     0.0000     0.0000 </r>
        <r>   -73.4130     0.0000     0.0000     0.0000     0.0000 </r>
        <r>   -73.1375     0.0000     0.0000     0.0000     0.0000 </r>
        <r>   -72.8620     0.0000     0.0000     0.0000     0.0000 </r>
        <r>   -72.5865     0.0000     0.0000     0.0000     0.0000 </r>
        <r>   -72.3110     0.0000     0.0000     0.0000     0.0000 </r>
        <r>   -72.0355     0.0000     0.0000     0.0000     0.0000 </r>
        <r>   -71.7600     0.0000     0.0000     0.0000     0.0000 </r>
        <r>   -71.4845     0.0000     0.0000     0.0000     0.0000 </r>
        <r>   -71.2090     0.0000     0.0000     0.0000     0.0000 </r>
        <r>   -70.9334     0.0000     0.0000     0.0000     0.0000 </r>
        <r>   -70.6579     0.0000     0.0000     0.0000     0.0000 </r>
        <r>   -70.3824     0.0000     0.0000     0.0000     0.0000 </r>
        <r>   -70.1069     0.0000     0.0000     0.0000     0.0000 </r>
        <r>   -69.8314     0.0000     0.0000     0.0000     0.0000 </r>
        <r>   -69.5559     0.0000     0.0000     0.0000     0.0000 </r>
        <r>   -69.2804     0.0000     0.0000     0.0000     0.0000 </r>
        <r>   -69.0049     0.0000     0.0000     0.0000     0.0000 </r>
        <r>   -68.7293     0.0000     0.0000     0.0000     0.0000 </r>
        <r>   -68.4538     0.0000     0.0000     0.0000     0.0000 </r>
        <r>   -68.1783     0.0000     0.0000     0.0000     0.0000 </r>
        <r>   -67.9028     0.0000     0.0000     0.0000     0.0000 </r>
        <r>   -67.6273     0.0000     0.0000     0.0000     0.0000 </r>
        <r>   -67.3518     0.0000     0.0000     0.0000     0.0000 </r>
        <r>   -67.0763     0.0000     0.0000     0.0000     0.0000 </r>
        <r>   -66.8008     0.0000     0.0000     0.0000     0.0000 </r>
        <r>   -66.5253     0.0000     0.0000     0.0000     0.0000 </r>
        <r>   -66.2497     0.0000     0.0000     0.0000     0.0000 </r>
        <r>   -65.9742     0.0000     0.0000     0.0000     0.0000 </r>
        <r>   -65.6987     0.0000     0.0000     0.0000     0.0000 </r>
        <r>   -65.4232     0.0000     0.0000     0.0000     0.0000 </r>
        <r>   -65.1477     0.0000     0.0000     0.0000     0.0000 </r>
        <r>   -64.8722     0.0000     0.0000     0.0000     0.0000 </r>
        <r>   -64.5967     0.0000     0.0000     0.0000     0.0000 </r>
        <r>   -64.3212     0.0000     0.0000     0.0000     0.0000 </r>
        <r>   -64.0456     0.0000     0.0000     0.0000     0.0000 </r>
        <r>   -63.7701     0.0000     0.0000     0.0000     0.0000 </r>
        <r>   -63.4946     0.0000     0.0000     0.0000     0.0000 </r>
        <r>   -63.2191     0.0000     0.0000     0.0000     0.0000 </r>
        <r>   -62.9436     0.0000     0.0000     0.0000     0.0000 </r>
        <r>   -62.6681     0.0000     0.0000     0.0000     0.0000 </r>
        <r>   -62.3926     0.0000     0.0000     0.0000     0.0000 </r>
        <r>   -62.1171     0.0000     0.0000     0.0000     0.0000 </r>
        <r>   -61.8416     0.0000     0.0000     0.0000     0.0000 </r>
        <r>   -61.5660     0.0000     0.0000     0.0000     0.0000 </r>
        <r>   -61.2905     0.0000     0.0000     0.0000     0.0000 </r>
        <r>   -61.0150     0.0000     0.0000     0.0000     0.0000 </r>
        <r>   -60.7395     0.0000     0.0000     0.0000     0.0000 </r>
        <r>   -60.4640     0.0000     0.0000     0.0000     0.0000 </r>
        <r>   -60.1885     0.0000     0.0000     0.0000     0.0000 </r>
        <r>   -59.9130     0.0000     0.0000     0.0000     0.0000 </r>
        <r>   -59.6375     0.0000     0.0000     0.0000     0.0000 </r>
        <r>   -59.3620     0.0000     0.0000     0.0000     0.0000 </r>
        <r>   -59.0864     0.0000     0.0000     0.0000     0.0000 </r>
        <r>   -58.8109     0.0000     0.0000     0.0000     0.0000 </r>
        <r>   -58.5354     0.0000     0.0000     0.0000     0.0000 </r>
        <r>   -58.2599     0.0000     0.0000     0.0000     0.0000 </r>
        <r>   -57.9844     0.0000     0.0000     0.0000     0.0000 </r>
        <r>   -57.7089     0.0000     0.0000     0.0000     0.0000 </r>
        <r>   -57.4334     0.0000     0.0000     0.0000     0.0000 </r>
        <r>   -57.1579     0.0000     0.0000     0.0000     0.0000 </r>
        <r>   -56.8823     0.0000     0.0000     0.0000     0.0000 </r>
        <r>   -56.6068     0.0000     0.0000     0.0000     0.0000 </r>
        <r>   -56.3313     0.0000     0.0000     0.0000     0.0000 </r>
        <r>   -56.0558     0.0000     0.0000     0.0000     0.0000 </r>
        <r>   -55.7803     0.0000     0.0000     0.0000     0.0000 </r>
        <r>   -55.5048     0.0000     0.0000     0.0000     0.0000 </r>
        <r>   -55.2293     0.0000     0.0000     0.0000     0.0000 </r>
        <r>   -54.9538     0.0000     0.0000     0.0000     0.0000 </r>
        <r>   -54.6783     0.0000     0.0000     0.0000     0.0000 </r>
        <r>   -54.4027     0.0000     0.0000     0.0000     0.0000 </r>
        <r>   -54.1272     0.0000     0.0000     0.0000     0.0000 </r>
        <r>   -53.8517     0.0000     0.0000     0.0000     0.0000 </r>
        <r>   -53.5762     0.0000     0.0000     0.0000     0.0000 </r>
        <r>   -53.3007     0.0000     0.0000     0.0000     0.0000 </r>
        <r>   -53.0252     0.0000     0.0000     0.0000     0.0000 </r>
        <r>   -52.7497     0.0000     0.0000     0.0000     0.0000 </r>
        <r>   -52.4742     0.0000     0.0000     0.0000     0.0000 </r>
        <r>   -52.1986     0.0000     0.0000     0.0000     0.0000 </r>
        <r>   -51.9231     0.0000     0.0000     0.0000     0.0000 </r>
        <r>   -51.6476     0.0000     0.0000     0.0000     0.0000 </r>
        <r>   -51.3721     0.0000     0.0000     0.0000     0.0000 </r>
        <r>   -51.0966     0.0000     0.0000     0.0000     0.0000 </r>
        <r>   -50.8211     0.0000     0.0000     0.0000     0.0000 </r>
        <r>   -50.5456     0.0000     0.0000     0.0000     0.0000 </r>
        <r>   -50.2701     0.0000     0.0000     0.0000     0.0000 </r>
        <r>   -49.9946     0.0000     0.0000     0.0000     0.0000 </r>
        <r>   -49.7190     0.0000     0.0000     0.0000     0.0000 </r>
        <r>   -49.4435     0.0000     0.0000     0.0000     0.0000 </r>
        <r>   -49.1680     0.0000     0.0000     0.0000     0.0000 </r>
        <r>   -48.8925     0.0000     0.0000     0.0000     0.0000 </r>
        <r>   -48.6170     0.0000     0.0000     0.0000     0.0000 </r>
        <r>   -48.3415     0.0000     0.0000     0.0000     0.0000 </r>
        <r>   -48.0660     0.0000     0.0000     0.0000     0.0000 </r>
        <r>   -47.7905     0.0000     0.0000     0.0000     0.0000 </r>
        <r>   -47.5150     0.0000     0.0000     0.0000     0.0000 </r>
        <r>   -47.2394     0.0000     0.0000     0.0000     0.0000 </r>
        <r>   -46.9639     0.0000     0.0000     0.0000     0.0000 </r>
        <r>   -46.6884     0.0000     0.0000     0.0000     0.0000 </r>
        <r>   -46.4129     0.0000     0.0000     0.0000     0.0000 </r>
        <r>   -46.1374     0.0000     0.0000     0.0000     0.0000 </r>
        <r>   -45.8619     0.0000     0.8904     0.0018     0.0004 </r>
        <r>   -45.5864     0.0000     0.0000     0.0000     0.0000 </r>
        <r>   -45.3109     0.0000     0.0000     0.0000     0.0000 </r>
        <r>   -45.0353     0.0000     0.0000     0.0000     0.0000 </r>
        <r>   -44.7598     0.0014     1.7481     0.0007     0.0000 </r>
        <r>   -44.4843     0.0000     0.0000     0.0000     0.0000 </r>
        <r>   -44.2088     0.0000     0.0000     0.0000     0.0000 </r>
        <r>   -43.9333     0.0000     0.0000     0.0000     0.0000 </r>
        <r>   -43.6578     0.0000     0.0000     0.0000     0.0000 </r>
        <r>   -43.3823     0.0000     0.0000     0.0000     0.0000 </r>
        <r>   -43.1068     0.0000     0.0000     0.0000     0.0000 </r>
        <r>   -42.8313     0.0000     0.0000     0.0000     0.0000 </r>
        <r>   -42.5557     0.0000     0.0000     0.0000     0.0000 </r>
        <r>   -42.2802     0.0000     0.0000     0.0000     0.0000 </r>
        <r>   -42.0047     0.0000     0.0000     0.0000     0.0000 </r>
        <r>   -41.7292     0.0000     0.0000     0.0000     0.0000 </r>
        <r>   -41.4537     0.0000     0.0000     0.0000     0.0000 </r>
        <r>   -41.1782     0.0000     0.0000     0.0000     0.0000 </r>
        <r>   -40.9027     0.0000     0.0000     0.0000     0.0000 </r>
        <r>   -40.6272     0.0000     0.0000     0.0000     0.0000 </r>
        <r>   -40.3516     0.0000     0.0000     0.0000     0.0000 </r>
        <r>   -40.0761     0.0000     0.0000     0.0000     0.0000 </r>
        <r>   -39.8006     0.0000     0.0000     0.0000     0.0000 </r>
        <r>   -39.5251     0.0000     0.0000     0.0000     0.0000 </r>
        <r>   -39.2496     0.0000     0.0000     0.0000     0.0000 </r>
        <r>   -38.9741     0.0000     0.0000     0.0000     0.0000 </r>
        <r>   -38.6986     0.0000     0.0000     0.0000     0.0000 </r>
        <r>   -38.4231     0.0000     0.0000     0.0000     0.0000 </r>
        <r>   -38.1476     0.0000     0.0000     0.0000     0.0000 </r>
        <r>   -37.8720     0.0000     0.0000     0.0000     0.0000 </r>
        <r>   -37.5965     0.0000     0.0000     0.0000     0.0000 </r>
        <r>   -37.3210     0.0000     0.0000     0.0000     0.0000 </r>
        <r>   -37.0455     0.0000     0.0000     0.0000     0.0000 </r>
        <r>   -36.7700     0.0000     0.0000     0.0000     0.0000 </r>
        <r>   -36.4945     0.0000     0.0000     0.0000     0.0000 </r>
        <r>   -36.2190     0.0000     0.0000     0.0000     0.0000 </r>
        <r>   -35.9435     0.0000     0.0000     0.0000     0.0000 </r>
        <r>   -35.6679     0.0000     0.0000     0.0000     0.0000 </r>
        <r>   -35.3924     0.0000     0.0000     0.0000     0.0000 </r>
        <r>   -35.1169     0.0000     0.0000     0.0000     0.0000 </r>
        <r>   -34.8414     0.0000     0.0000     0.0000     0.0000 </r>
        <r>   -34.5659     0.0000     0.0000     0.0000     0.0000 </r>
        <r>   -34.2904     0.0000     0.0000     0.0000     0.0000 </r>
        <r>   -34.0149     0.0000     0.0000     0.0000     0.0000 </r>
        <r>   -33.7394     0.0000     0.0000     0.0000     0.0000 </r>
        <r>   -33.4639     0.0000     0.0000     0.0000     0.0000 </r>
        <r>   -33.1883     0.0000     0.0000     0.0000     0.0000 </r>
        <r>   -32.9128     0.0000     0.0000     0.0000     0.0000 </r>
        <r>   -32.6373     0.0000     0.0000     0.0000     0.0000 </r>
        <r>   -32.3618     0.0000     0.0000     0.0000     0.0000 </r>
        <r>   -32.0863     0.0000     0.0000     0.0000     0.0000 </r>
        <r>   -31.8108     0.0000     0.0000     0.0000     0.0000 </r>
        <r>   -31.5353     0.0000     0.0000     0.0000     0.0000 </r>
        <r>   -31.2598     0.0000     0.0000     0.0000     0.0000 </r>
        <r>   -30.9843     0.0000     0.0000     0.0000     0.0000 </r>
        <r>   -30.7087     0.0000     0.0000     0.0000     0.0000 </r>
        <r>   -30.4332     0.0000     0.0000     0.0000     0.0000 </r>
        <r>   -30.1577     0.0000     0.0000     0.0000     0.0000 </r>
        <r>   -29.8822     0.0000     0.0000     0.0000     0.0000 </r>
        <r>   -29.6067     0.0000     0.0000     0.0000     0.0000 </r>
        <r>   -29.3312     0.0000     0.0000     0.0000     0.0000 </r>
        <r>   -29.0557     0.0000     0.0000     0.0000     0.0000 </r>
        <r>   -28.7802     0.0000     0.0000     0.0000     0.0000 </r>
        <r>   -28.5046     0.0000     0.0000     0.0000     0.0000 </r>
        <r>   -28.2291     0.0000     0.0000     0.0000     0.0000 </r>
        <r>   -27.9536     0.0000     0.0000     0.0000     0.0000 </r>
        <r>   -27.6781     0.0000     0.0000     0.0000     0.0000 </r>
        <r>   -27.4026     0.0000     0.0000     0.0000     0.0000 </r>
        <r>   -27.1271     0.0000     0.0000     0.0000     0.0000 </r>
        <r>   -26.8516     0.0000     0.0000     0.0000     0.0000 </r>
        <r>   -26.5761     0.0000     0.0000     0.0000     0.0000 </r>
        <r>   -26.3006     0.0000     0.0000     0.0000     0.0000 </r>
        <r>   -26.0250     0.0000     0.0000     0.0000     0.0000 </r>
        <r>   -25.7495     0.0000     0.0000     0.0000     0.0000 </r>
        <r>   -25.4740     0.0000     0.0000     0.0000     0.0000 </r>
        <r>   -25.1985     0.0000     0.0000     0.0000     0.0000 </r>
        <r>   -24.9230     0.0000     0.0000     0.0000     0.0000 </r>
        <r>   -24.6475     0.0000     0.0000     0.0000     0.0000 </r>
        <r>   -24.3720     0.0000     0.0000     0.0000     0.0000 </r>
        <r>   -24.0965     0.0000     0.0000     0.0000     0.0000 </r>
        <r>   -23.8209     0.0000     0.0000     0.0000     0.0000 </r>
        <r>   -23.5454     0.0000     0.0000     0.0000     0.0000 </r>
        <r>   -23.2699     0.0000     0.0000     0.0000     0.0000 </r>
        <r>   -22.9944     0.0000     0.0000     0.0000     0.0000 </r>
        <r>   -22.7189     0.0000     0.0000     0.0000     0.0000 </r>
        <r>   -22.4434     0.0000     0.0000     0.0000     0.0000 </r>
        <r>   -22.1679     0.0000     0.0000     0.0000     0.0000 </r>
        <r>   -21.8924     0.0000     0.0000     0.0000     0.0000 </r>
        <r>   -21.6169     0.0000     0.0000     0.0000     0.0000 </r>
        <r>   -21.3413     0.0000     0.0000     0.0000     0.0000 </r>
        <r>   -21.0658     0.0000     0.0000     0.0000     0.0000 </r>
        <r>   -20.7903     0.0000     0.0000     0.0000     0.0000 </r>
        <r>   -20.5148     0.0000     0.0000     0.0000     0.0000 </r>
        <r>   -20.2393     0.0000     0.0000     0.0000     0.0000 </r>
        <r>   -19.9638     0.0000     0.0000     0.0000     0.0000 </r>
        <r>   -19.6883     0.0000     0.0000     0.0000     0.0000 </r>
        <r>   -19.4128     0.0000     0.0000     0.0000     0.0000 </r>
        <r>   -19.1373     0.0000     0.0000     0.0000     0.0000 </r>
        <r>   -18.8617     0.0000     0.0000     0.0000     0.0000 </r>
        <r>   -18.5862     0.0000     0.0000     0.0000     0.0000 </r>
        <r>   -18.3107     0.0000     0.0000     0.0000     0.0000 </r>
        <r>   -18.0352     0.0000     0.0000     0.0000     0.0000 </r>
        <r>   -17.7597     0.0000     0.0000     0.0000     0.0000 </r>
        <r>   -17.4842     0.0000     0.0000     0.0000     0.0000 </r>
        <r>   -17.2087     0.0000     0.0000     0.0000     0.0000 </r>
        <r>   -16.9332     0.0000     0.0000     0.0000     0.0000 </r>
        <r>   -16.6576     0.0000     0.0000     0.0000     0.0000 </r>
        <r>   -16.3821     0.0000     0.0000     0.0000     0.0000 </r>
        <r>   -16.1066     0.0000     0.0000     0.0000     0.0000 </r>
        <r>   -15.8311     0.0000     0.0000     0.0000     0.0000 </r>
        <r>   -15.5556     0.0000     0.0000     0.0000     0.0000 </r>
        <r>   -15.2801     0.0000     0.0000     0.0000     0.0000 </r>
        <r>   -15.0046     0.0000     0.0000     0.0000     0.0000 </r>
        <r>   -14.7291     0.0000     0.0000     0.0000     0.0000 </r>
        <r>   -14.4536     0.0000     0.0000     0.0000     0.0000 </r>
        <r>   -14.1780     0.0000     0.0000     0.0000     0.0000 </r>
        <r>   -13.9025     0.0000     0.0000     0.0000     0.0000 </r>
        <r>   -13.6270     0.0000     0.0000     0.0000     0.0000 </r>
        <r>   -13.3515     0.0000     0.0000     0.0000     0.0000 </r>
        <r>   -13.0760     0.0000     0.0000     0.0000     0.0000 </r>
        <r>   -12.8005     0.0000     0.0000     0.0000     0.0000 </r>
        <r>   -12.5250     0.0000     0.0000     0.0000     0.0000 </r>
        <r>   -12.2495     0.0000     0.0000     0.0000     0.0000 </r>
        <r>   -11.9739     0.0000     0.0000     0.0000     0.0000 </r>
        <r>   -11.6984     0.0000     0.0000     0.0000     0.0000 </r>
        <r>   -11.4229     0.0000     0.0000     0.0000     0.0000 </r>
        <r>   -11.1474     0.0000     0.0000     0.0000     0.0000 </r>
        <r>   -10.8719     0.0000     0.0000     0.0000     0.0000 </r>
        <r>   -10.5964     0.0000     0.0000     0.0000     0.0000 </r>
        <r>   -10.3209     0.0000     0.0000     0.0000     0.0000 </r>
        <r>   -10.0454     0.0000     0.0000     0.0000     0.0000 </r>
        <r>    -9.7699     0.0000     0.0000     0.0000     0.0000 </r>
        <r>    -9.4943     0.0000     0.0000     0.0000     0.0000 </r>
        <r>    -9.2188     0.0000     0.0000     0.0000     0.0000 </r>
        <r>    -8.9433     0.0000     0.0000     0.0000     0.0000 </r>
        <r>    -8.6678     0.0000     0.0000     0.0000     0.0000 </r>
        <r>    -8.3923     0.0000     0.0000     0.0000     0.0000 </r>
        <r>    -8.1168     0.0000     0.0000     0.0000     0.0000 </r>
        <r>    -7.8413     0.0000     0.0000     0.0000     0.0000 </r>
        <r>    -7.5658     0.0000     0.0000     0.0000     0.0000 </r>
        <r>    -7.2903     0.0000     0.0000     0.0000     0.0000 </r>
        <r>    -7.0147     0.0000     0.0000     0.0000     0.0000 </r>
        <r>    -6.7392     0.0000     0.0000     0.0000     0.0000 </r>
        <r>    -6.4637     0.0000     0.0000     0.0000     0.0000 </r>
        <r>    -6.1882     0.0000     0.0000     0.0000     0.0000 </r>
        <r>    -5.9127     0.0008     0.0000     0.0033     0.0000 </r>
        <r>    -5.6372     0.0000     0.0000     0.0000     0.0000 </r>
        <r>    -5.3617     0.0017     0.0015     0.4803     0.0026 </r>
        <r>    -5.0862     0.0000     0.0000     0.0000     0.0000 </r>
        <r>    -4.8106     0.0000     0.0000     0.0000     0.0000 </r>
        <r>    -4.5351     0.1477     0.0004     0.4440     0.0017 </r>
        <r>    -4.2596     0.0000     0.0000     0.0000     0.0000 </r>
        <r>    -3.9841     0.0000     0.0000     0.0000     0.0000 </r>
        <r>    -3.7086     0.0000     0.0000     0.0000     0.0000 </r>
        <r>    -3.4331     0.0000     0.0000     0.0000     0.0000 </r>
        <r>    -3.1576     0.0000     0.0000     0.0000     0.0000 </r>
        <r>    -2.8821     0.2752     0.0014     1.1779     0.0037 </r>
        <r>    -2.6066     0.0000     0.0000     0.0000     0.0000 </r>
        <r>    -2.3310     0.0000     0.0000     0.0000     0.0000 </r>
        <r>    -2.0555     0.0000     0.0000     0.0000     0.0000 </r>
        <r>    -1.7800     0.0000     0.0000     0.0000     0.0000 </r>
        <r>    -1.5045     0.0000     0.0000     0.0000     0.0000 </r>
        <r>    -1.2290     0.0000     0.0000     0.0000     0.0000 </r>
        <r>    -0.9535     0.0000     0.0000     0.0000     0.0000 </r>
        <r>    -0.6780     0.0000     0.0000     0.0000     0.0000 </r>
        <r>    -0.4025     0.0000     0.0000     0.0000     0.0000 </r>
        <r>    -0.1269     0.0000     0.0000     0.0000     0.0000 </r>
        <r>     0.1486     0.0000     0.0000     0.0000     0.0000 </r>
        <r>     0.4241     0.0000     0.0000     0.0000     0.0000 </r>
        <r>     0.6996     0.0000     0.0000     0.0000     0.0000 </r>
        <r>     0.9751     0.0000     0.0000     0.0000     0.0000 </r>
        <r>     1.2506     0.0000     0.0000     0.0000     0.0000 </r>
        <r>     1.5261     0.0000     0.0000     0.0000     0.0000 </r>
        <r>     1.8016     0.0000     0.0000     0.0000     0.0000 </r>
        <r>     2.0771     0.0000     0.0000     0.0000     0.0000 </r>
        <r>     2.3527     0.0000     0.0000     0.0000     0.0000 </r>
       </set>
      </set>
      <set comment="ion 3">
       <set comment="spin 1">
        <r>   -80.3008     0.0000     0.0000     0.0000     0.0000 </r>
        <r>   -80.0253     0.0000     0.0000     0.0000     0.0000 </r>
        <r>   -79.7498     0.0000     0.0000     0.0000     0.0000 </r>
        <r>   -79.4743     0.0000     0.0000     0.0000     0.0000 </r>
        <r>   -79.1988     0.0000     0.0000     0.0000     0.0000 </r>
        <r>   -78.9233     0.0000     0.0000     0.0000     0.0000 </r>
        <r>   -78.6478     0.0000     0.0000     0.0000     0.0000 </r>
        <r>   -78.3723     0.0000     0.0000     0.0000     0.0000 </r>
        <r>   -78.0967     0.0000     0.0000     0.0000     0.0000 </r>
        <r>   -77.8212     0.0000     0.0000     0.0000     0.0000 </r>
        <r>   -77.5457     0.0000     0.0000     0.0000     0.0000 </r>
        <r>   -77.2702     0.0000     0.0000     0.0000     0.0000 </r>
        <r>   -76.9947     0.0000     0.0000     0.0000     0.0000 </r>
        <r>   -76.7192     0.0000     0.0000     0.0000     0.0000 </r>
        <r>   -76.4437     0.0000     0.0000     0.0000     0.0000 </r>
        <r>   -76.1682     0.0000     0.0000     0.0000     0.0000 </r>
        <r>   -75.8926     0.0000     0.0000     0.0000     0.0000 </r>
        <r>   -75.6171     0.0000     0.0000     0.0000     0.0000 </r>
        <r>   -75.3416     0.0000     0.0000     0.0000     0.0000 </r>
        <r>   -75.0661     0.0000     0.0000     0.0000     0.0000 </r>
        <r>   -74.7906     0.0000     0.0000     0.0000     0.0000 </r>
        <r>   -74.5151     0.0000     0.0000     0.0000     0.0000 </r>
        <r>   -74.2396     0.0000     0.0000     0.0000     0.0000 </r>
        <r>   -73.9641     0.0000     0.0000     0.0000     0.0000 </r>
        <r>   -73.6886     0.0000     0.0000     0.0000     0.0000 </r>
        <r>   -73.4130     0.0000     0.0000     0.0000     0.0000 </r>
        <r>   -73.1375     0.0000     0.0000     0.0000     0.0000 </r>
        <r>   -72.8620     0.0000     0.0000     0.0000     0.0000 </r>
        <r>   -72.5865     0.0000     0.0000     0.0000     0.0000 </r>
        <r>   -72.3110     0.0000     0.0000     0.0000     0.0000 </r>
        <r>   -72.0355     0.0000     0.0000     0.0000     0.0000 </r>
        <r>   -71.7600     0.0000     0.0000     0.0000     0.0000 </r>
        <r>   -71.4845     0.0000     0.0000     0.0000     0.0000 </r>
        <r>   -71.2090     0.0000     0.0000     0.0000     0.0000 </r>
        <r>   -70.9334     0.0000     0.0000     0.0000     0.0000 </r>
        <r>   -70.6579     0.0000     0.0000     0.0000     0.0000 </r>
        <r>   -70.3824     0.0000     0.0000     0.0000     0.0000 </r>
        <r>   -70.1069     0.0000     0.0000     0.0000     0.0000 </r>
        <r>   -69.8314     0.0000     0.0000     0.0000     0.0000 </r>
        <r>   -69.5559     0.0000     0.0000     0.0000     0.0000 </r>
        <r>   -69.2804     0.0000     0.0000     0.0000     0.0000 </r>
        <r>   -69.0049     0.0000     0.0000     0.0000     0.0000 </r>
        <r>   -68.7293     0.0000     0.0000     0.0000     0.0000 </r>
        <r>   -68.4538     0.0000     0.0000     0.0000     0.0000 </r>
        <r>   -68.1783     0.0000     0.0000     0.0000     0.0000 </r>
        <r>   -67.9028     0.0000     0.0000     0.0000     0.0000 </r>
        <r>   -67.6273     0.0000     0.0000     0.0000     0.0000 </r>
        <r>   -67.3518     0.0000     0.0000     0.0000     0.0000 </r>
        <r>   -67.0763     0.0000     0.0000     0.0000     0.0000 </r>
        <r>   -66.8008     0.0000     0.0000     0.0000     0.0000 </r>
        <r>   -66.5253     0.0000     0.0000     0.0000     0.0000 </r>
        <r>   -66.2497     0.0000     0.0000     0.0000     0.0000 </r>
        <r>   -65.9742     0.0000     0.0000     0.0000     0.0000 </r>
        <r>   -65.6987     0.0000     0.0000     0.0000     0.0000 </r>
        <r>   -65.4232     0.0000     0.0000     0.0000     0.0000 </r>
        <r>   -65.1477     0.0000     0.0000     0.0000     0.0000 </r>
        <r>   -64.8722     0.0000     0.0000     0.0000     0.0000 </r>
        <r>   -64.5967     0.0000     0.0000     0.0000     0.0000 </r>
        <r>   -64.3212     0.0000     0.0000     0.0000     0.0000 </r>
        <r>   -64.0456     0.0000     0.0000     0.0000     0.0000 </r>
        <r>   -63.7701     0.0000     0.0000     0.0000     0.0000 </r>
        <r>   -63.4946     0.0000     0.0000     0.0000     0.0000 </r>
        <r>   -63.2191     0.0000     0.0000     0.0000     0.0000 </r>
        <r>   -62.9436     0.0000     0.0000     0.0000     0.0000 </r>
        <r>   -62.6681     0.0000     0.0000     0.0000     0.0000 </r>
        <r>   -62.3926     0.0000     0.0000     0.0000     0.0000 </r>
        <r>   -62.1171     0.0000     0.0000     0.0000     0.0000 </r>
        <r>   -61.8416     0.0000     0.0000     0.0000     0.0000 </r>
        <r>   -61.5660     0.0000     0.0000     0.0000     0.0000 </r>
        <r>   -61.2905     0.0000     0.0000     0.0000     0.0000 </r>
        <r>   -61.0150     0.0000     0.0000     0.0000     0.0000 </r>
        <r>   -60.7395     0.0000     0.0000     0.0000     0.0000 </r>
        <r>   -60.4640     0.0000     0.0000     0.0000     0.0000 </r>
        <r>   -60.1885     0.0000     0.0000     0.0000     0.0000 </r>
        <r>   -59.9130     0.0000     0.0000     0.0000     0.0000 </r>
        <r>   -59.6375     0.0000     0.0000     0.0000     0.0000 </r>
        <r>   -59.3620     0.0000     0.0000     0.0000     0.0000 </r>
        <r>   -59.0864     0.0000     0.0000     0.0000     0.0000 </r>
        <r>   -58.8109     0.0000     0.0000     0.0000     0.0000 </r>
        <r>   -58.5354     0.0000     0.0000     0.0000     0.0000 </r>
        <r>   -58.2599     0.0000     0.0000     0.0000     0.0000 </r>
        <r>   -57.9844     0.0000     0.0000     0.0000     0.0000 </r>
        <r>   -57.7089     0.0000     0.0000     0.0000     0.0000 </r>
        <r>   -57.4334     0.0000     0.0000     0.0000     0.0000 </r>
        <r>   -57.1579     0.0000     0.0000     0.0000     0.0000 </r>
        <r>   -56.8823     0.0000     0.0000     0.0000     0.0000 </r>
        <r>   -56.6068     0.0000     0.0000     0.0000     0.0000 </r>
        <r>   -56.3313     0.0000     0.0000     0.0000     0.0000 </r>
        <r>   -56.0558     0.0000     0.0000     0.0000     0.0000 </r>
        <r>   -55.7803     0.0000     0.0000     0.0000     0.0000 </r>
        <r>   -55.5048     0.0000     0.0000     0.0000     0.0000 </r>
        <r>   -55.2293     0.0000     0.0000     0.0000     0.0000 </r>
        <r>   -54.9538     0.0000     0.0000     0.0000     0.0000 </r>
        <r>   -54.6783     0.0000     0.0000     0.0000     0.0000 </r>
        <r>   -54.4027     0.0000     0.0000     0.0000     0.0000 </r>
        <r>   -54.1272     0.0000     0.0000     0.0000     0.0000 </r>
        <r>   -53.8517     0.0000     0.0000     0.0000     0.0000 </r>
        <r>   -53.5762     0.0000     0.0000     0.0000     0.0000 </r>
        <r>   -53.3007     0.0000     0.0000     0.0000     0.0000 </r>
        <r>   -53.0252     0.0000     0.0000     0.0000     0.0000 </r>
        <r>   -52.7497     0.0000     0.0000     0.0000     0.0000 </r>
        <r>   -52.4742     0.0000     0.0000     0.0000     0.0000 </r>
        <r>   -52.1986     0.0000     0.0000     0.0000     0.0000 </r>
        <r>   -51.9231     0.0000     0.0000     0.0000     0.0000 </r>
        <r>   -51.6476     0.0000     0.0000     0.0000     0.0000 </r>
        <r>   -51.3721     0.0000     0.0000     0.0000     0.0000 </r>
        <r>   -51.0966     0.0000     0.0000     0.0000     0.0000 </r>
        <r>   -50.8211     0.0000     0.0000     0.0000     0.0000 </r>
        <r>   -50.5456     0.0000     0.0000     0.0000     0.0000 </r>
        <r>   -50.2701     0.0000     0.0000     0.0000     0.0000 </r>
        <r>   -49.9946     0.0000     0.0000     0.0000     0.0000 </r>
        <r>   -49.7190     0.0000     0.0000     0.0000     0.0000 </r>
        <r>   -49.4435     0.0000     0.0000     0.0000     0.0000 </r>
        <r>   -49.1680     0.0000     0.0000     0.0000     0.0000 </r>
        <r>   -48.8925     0.0000     0.0000     0.0000     0.0000 </r>
        <r>   -48.6170     0.0000     0.0000     0.0000     0.0000 </r>
        <r>   -48.3415     0.0000     0.0000     0.0000     0.0000 </r>
        <r>   -48.0660     0.0000     0.0000     0.0000     0.0000 </r>
        <r>   -47.7905     0.0000     0.0000     0.0000     0.0000 </r>
        <r>   -47.5150     0.0000     0.0000     0.0000     0.0000 </r>
        <r>   -47.2394     0.0000     0.0000     0.0000     0.0000 </r>
        <r>   -46.9639     0.0000     0.0000     0.0000     0.0000 </r>
        <r>   -46.6884     0.0000     0.0000     0.0000     0.0000 </r>
        <r>   -46.4129     0.0000     0.0002     0.0000     0.0000 </r>
        <r>   -46.1374     0.0000     0.0000     0.0000     0.0000 </r>
        <r>   -45.8619     0.0000     0.0000     0.0000     0.0000 </r>
        <r>   -45.5864     0.0000     0.0000     0.0000     0.0000 </r>
        <r>   -45.3109     0.0000     0.0000     0.0000     0.0000 </r>
        <r>   -45.0353     0.0000     0.0000     0.0000     0.0000 </r>
        <r>   -44.7598     0.0000     0.0000     0.0000     0.0000 </r>
        <r>   -44.4843     0.0000     0.0000     0.0000     0.0000 </r>
        <r>   -44.2088     0.0000     0.0000     0.0000     0.0000 </r>
        <r>   -43.9333     0.0000     0.0000     0.0000     0.0000 </r>
        <r>   -43.6578     0.0000     0.0000     0.0000     0.0000 </r>
        <r>   -43.3823     0.0000     0.0000     0.0000     0.0000 </r>
        <r>   -43.1068     0.0000     0.0000     0.0000     0.0000 </r>
        <r>   -42.8313     0.0000     0.0000     0.0000     0.0000 </r>
        <r>   -42.5557     0.0000     0.0000     0.0000     0.0000 </r>
        <r>   -42.2802     0.0000     0.0000     0.0000     0.0000 </r>
        <r>   -42.0047     0.0000     0.0000     0.0000     0.0000 </r>
        <r>   -41.7292     0.0000     0.0000     0.0000     0.0000 </r>
        <r>   -41.4537     0.0000     0.0000     0.0000     0.0000 </r>
        <r>   -41.1782     0.0000     0.0000     0.0000     0.0000 </r>
        <r>   -40.9027     0.0000     0.0000     0.0000     0.0000 </r>
        <r>   -40.6272     0.0000     0.0000     0.0000     0.0000 </r>
        <r>   -40.3516     0.0000     0.0000     0.0000     0.0000 </r>
        <r>   -40.0761     0.0000     0.0000     0.0000     0.0000 </r>
        <r>   -39.8006     0.0000     0.0000     0.0000     0.0000 </r>
        <r>   -39.5251     0.0000     0.0000     0.0000     0.0000 </r>
        <r>   -39.2496     0.0000     0.0000     0.0000     0.0000 </r>
        <r>   -38.9741     0.0000     0.0000     0.0000     0.0000 </r>
        <r>   -38.6986     0.0000     0.0000     0.0000     0.0000 </r>
        <r>   -38.4231     0.0000     0.0000     0.0000     0.0000 </r>
        <r>   -38.1476     0.0000     0.0000     0.0000     0.0000 </r>
        <r>   -37.8720     0.0000     0.0000     0.0000     0.0000 </r>
        <r>   -37.5965     0.0000     0.0000     0.0000     0.0000 </r>
        <r>   -37.3210     0.0000     0.0000     0.0000     0.0000 </r>
        <r>   -37.0455     0.0000     0.0000     0.0000     0.0000 </r>
        <r>   -36.7700     0.0000     0.0000     0.0000     0.0000 </r>
        <r>   -36.4945     0.0000     0.0000     0.0000     0.0000 </r>
        <r>   -36.2190     0.0000     0.0000     0.0000     0.0000 </r>
        <r>   -35.9435     0.0000     0.0000     0.0000     0.0000 </r>
        <r>   -35.6679     0.0000     0.0000     0.0000     0.0000 </r>
        <r>   -35.3924     0.0000     0.0000     0.0000     0.0000 </r>
        <r>   -35.1169     0.0000     0.0000     0.0000     0.0000 </r>
        <r>   -34.8414     0.0000     0.0000     0.0000     0.0000 </r>
        <r>   -34.5659     0.0000     0.0000     0.0000     0.0000 </r>
        <r>   -34.2904     0.0000     0.0000     0.0000     0.0000 </r>
        <r>   -34.0149     0.0000     0.0000     0.0000     0.0000 </r>
        <r>   -33.7394     0.0000     0.0000     0.0000     0.0000 </r>
        <r>   -33.4639     0.0000     0.0000     0.0000     0.0000 </r>
        <r>   -33.1883     0.0000     0.0000     0.0000     0.0000 </r>
        <r>   -32.9128     0.0000     0.0000     0.0000     0.0000 </r>
        <r>   -32.6373     0.0000     0.0000     0.0000     0.0000 </r>
        <r>   -32.3618     0.0000     0.0000     0.0000     0.0000 </r>
        <r>   -32.0863     0.0000     0.0000     0.0000     0.0000 </r>
        <r>   -31.8108     0.0000     0.0000     0.0000     0.0000 </r>
        <r>   -31.5353     0.0000     0.0000     0.0000     0.0000 </r>
        <r>   -31.2598     0.0000     0.0000     0.0000     0.0000 </r>
        <r>   -30.9843     0.0000     0.0000     0.0000     0.0000 </r>
        <r>   -30.7087     0.0000     0.0000     0.0000     0.0000 </r>
        <r>   -30.4332     0.0000     0.0000     0.0000     0.0000 </r>
        <r>   -30.1577     0.0000     0.0000     0.0000     0.0000 </r>
        <r>   -29.8822     0.0000     0.0000     0.0000     0.0000 </r>
        <r>   -29.6067     0.0000     0.0000     0.0000     0.0000 </r>
        <r>   -29.3312     0.0000     0.0000     0.0000     0.0000 </r>
        <r>   -29.0557     0.0000     0.0000     0.0000     0.0000 </r>
        <r>   -28.7802     0.0000     0.0000     0.0000     0.0000 </r>
        <r>   -28.5046     0.0000     0.0000     0.0000     0.0000 </r>
        <r>   -28.2291     0.0000     0.0000     0.0000     0.0000 </r>
        <r>   -27.9536     0.0000     0.0000     0.0000     0.0000 </r>
        <r>   -27.6781     0.0000     0.0000     0.0000     0.0000 </r>
        <r>   -27.4026     0.0000     0.0000     0.0000     0.0000 </r>
        <r>   -27.1271     0.0000     0.0000     0.0000     0.0000 </r>
        <r>   -26.8516     0.0000     0.0000     0.0000     0.0000 </r>
        <r>   -26.5761     0.0000     0.0000     0.0000     0.0000 </r>
        <r>   -26.3006     0.0000     0.0000     0.0000     0.0000 </r>
        <r>   -26.0250     0.0000     0.0000     0.0000     0.0000 </r>
        <r>   -25.7495     0.0000     0.0000     0.0000     0.0000 </r>
        <r>   -25.4740     0.0000     0.0000     0.0000     0.0000 </r>
        <r>   -25.1985     0.0000     0.0000     0.0000     0.0000 </r>
        <r>   -24.9230     0.0000     0.0000     0.0000     0.0000 </r>
        <r>   -24.6475     0.0000     0.0000     0.0000     0.0000 </r>
        <r>   -24.3720     0.0000     0.0000     0.0000     0.0000 </r>
        <r>   -24.0965     0.0000     0.0000     0.0000     0.0000 </r>
        <r>   -23.8209     0.0000     0.0000     0.0000     0.0000 </r>
        <r>   -23.5454     0.0000     0.0000     0.0000     0.0000 </r>
        <r>   -23.2699     0.0000     0.0000     0.0000     0.0000 </r>
        <r>   -22.9944     0.0000     0.0000     0.0000     0.0000 </r>
        <r>   -22.7189     0.0000     0.0000     0.0000     0.0000 </r>
        <r>   -22.4434     0.0000     0.0000     0.0000     0.0000 </r>
        <r>   -22.1679     0.0000     0.0000     0.0000     0.0000 </r>
        <r>   -21.8924     0.0000     0.0000     0.0000     0.0000 </r>
        <r>   -21.6169     0.0000     0.0000     0.0000     0.0000 </r>
        <r>   -21.3413     0.0000     0.0000     0.0000     0.0000 </r>
        <r>   -21.0658     0.0000     0.0000     0.0000     0.0000 </r>
        <r>   -20.7903     0.0000     0.0000     0.0000     0.0000 </r>
        <r>   -20.5148     0.0000     0.0000     0.0000     0.0000 </r>
        <r>   -20.2393     0.0000     0.0000     0.0000     0.0000 </r>
        <r>   -19.9638     0.0000     0.0000     0.0000     0.0000 </r>
        <r>   -19.6883     0.0000     0.0000     0.0000     0.0000 </r>
        <r>   -19.4128     0.0000     0.0000     0.0000     0.0000 </r>
        <r>   -19.1373     0.0000     0.0000     0.0000     0.0000 </r>
        <r>   -18.8617     0.0000     0.0000     0.0000     0.0000 </r>
        <r>   -18.5862     0.0000     0.0000     0.0000     0.0000 </r>
        <r>   -18.3107     0.0000     0.0000     0.0000     0.0000 </r>
        <r>   -18.0352     0.0000     0.0000     0.0000     0.0000 </r>
        <r>   -17.7597     0.0000     0.0000     0.0000     0.0000 </r>
        <r>   -17.4842     0.0000     0.0000     0.0000     0.0000 </r>
        <r>   -17.2087     0.0000     0.0000     0.0000     0.0000 </r>
        <r>   -16.9332     0.0000     0.0000     0.0000     0.0000 </r>
        <r>   -16.6576     0.0000     0.0000     0.0000     0.0000 </r>
        <r>   -16.3821     0.0000     0.0000     0.0000     0.0000 </r>
        <r>   -16.1066     0.0000     0.0000     0.0000     0.0000 </r>
        <r>   -15.8311     0.0000     0.0000     0.0000     0.0000 </r>
        <r>   -15.5556     0.0000     0.0000     0.0000     0.0000 </r>
        <r>   -15.2801     0.0000     0.0000     0.0000     0.0000 </r>
        <r>   -15.0046     0.0000     0.0000     0.0000     0.0000 </r>
        <r>   -14.7291     0.0000     0.0000     0.0000     0.0000 </r>
        <r>   -14.4536     0.0000     0.0000     0.0000     0.0000 </r>
        <r>   -14.1780     0.0000     0.0000     0.0000     0.0000 </r>
        <r>   -13.9025     0.0000     0.0000     0.0000     0.0000 </r>
        <r>   -13.6270     0.0000     0.0000     0.0000     0.0000 </r>
        <r>   -13.3515     0.0000     0.0000     0.0000     0.0000 </r>
        <r>   -13.0760     0.0000     0.0000     0.0000     0.0000 </r>
        <r>   -12.8005     0.0000     0.0000     0.0000     0.0000 </r>
        <r>   -12.5250     0.0000     0.0000     0.0000     0.0000 </r>
        <r>   -12.2495     0.0000     0.0000     0.0000     0.0000 </r>
        <r>   -11.9739     0.0000     0.0000     0.0000     0.0000 </r>
        <r>   -11.6984     0.0000     0.0000     0.0000     0.0000 </r>
        <r>   -11.4229     0.0000     0.0000     0.0000     0.0000 </r>
        <r>   -11.1474     0.0000     0.0000     0.0000     0.0000 </r>
        <r>   -10.8719     0.0000     0.0000     0.0000     0.0000 </r>
        <r>   -10.5964     0.0000     0.0000     0.0000     0.0000 </r>
        <r>   -10.3209     0.0000     0.0000     0.0000     0.0000 </r>
        <r>   -10.0454     0.0000     0.0000     0.0000     0.0000 </r>
        <r>    -9.7699     0.0000     0.0000     0.0000     0.0000 </r>
        <r>    -9.4943     0.0000     0.0000     0.0000     0.0000 </r>
        <r>    -9.2188     0.0000     0.0000     0.0000     0.0000 </r>
        <r>    -8.9433     0.0000     0.0000     0.0000     0.0000 </r>
        <r>    -8.6678     0.0000     0.0000     0.0000     0.0000 </r>
        <r>    -8.3923     0.0000     0.0000     0.0000     0.0000 </r>
        <r>    -8.1168     0.0000     0.0000     0.0000     0.0000 </r>
        <r>    -7.8413     0.0000     0.0000     0.0000     0.0000 </r>
        <r>    -7.5658     0.0000     0.0000     0.0000     0.0000 </r>
        <r>    -7.2903     0.0000     0.0000     0.0000     0.0000 </r>
        <r>    -7.0147     0.0000     0.0000     0.0000     0.0000 </r>
        <r>    -6.7392     0.2795     0.0040     0.5343     0.0025 </r>
        <r>    -6.4637     0.0000     0.0000     0.0000     0.0000 </r>
        <r>    -6.1882     0.0000     0.0000     0.0000     0.0000 </r>
        <r>    -5.9127     0.0000     0.0000     0.0000     0.0000 </r>
        <r>    -5.6372     0.0000     0.0000     0.0000     0.0000 </r>
        <r>    -5.3617     0.0000     0.0000     0.0000     0.0000 </r>
        <r>    -5.0862     0.0000     0.0000     0.0000     0.0000 </r>
        <r>    -4.8106     0.0000     0.0000     0.0000     0.0000 </r>
        <r>    -4.5351     0.0000     0.0000     0.0000     0.0000 </r>
        <r>    -4.2596     0.0000     0.0000     0.0000     0.0000 </r>
        <r>    -3.9841     0.0000     0.0000     0.0000     0.0000 </r>
        <r>    -3.7086     0.0000     0.0000     0.0000     0.0000 </r>
        <r>    -3.4331     0.0345     0.0108     0.6269     0.0040 </r>
        <r>    -3.1576     0.0021     0.0003     0.0023     0.0000 </r>
        <r>    -2.8821     0.0000     0.0000     0.0000     0.0000 </r>
        <r>    -2.6066     0.0000     0.0000     0.0000     0.0000 </r>
        <r>    -2.3310     0.0000     0.0000     0.0000     0.0000 </r>
        <r>    -2.0555     0.0000     0.0000     0.0000     0.0000 </r>
        <r>    -1.7800     0.0000     0.0000     0.0000     0.0000 </r>
        <r>    -1.5045     0.0000     0.0000     0.0000     0.0000 </r>
        <r>    -1.2290     0.0000     0.0000     0.0000     0.0000 </r>
        <r>    -0.9535     0.0000     0.0000     0.0000     0.0000 </r>
        <r>    -0.6780     0.0000     0.0000     0.0000     0.0000 </r>
        <r>    -0.4025     0.0000     0.0000     0.0000     0.0000 </r>
        <r>    -0.1269     0.0000     0.0000     0.0000     0.0000 </r>
        <r>     0.1486     0.0000     0.0000     0.0000     0.0000 </r>
        <r>     0.4241     0.0000     0.0000     0.0000     0.0000 </r>
        <r>     0.6996     0.0000     0.0000     0.0000     0.0000 </r>
        <r>     0.9751     0.0000     0.0000     0.0000     0.0000 </r>
        <r>     1.2506     0.0000     0.0000     0.0000     0.0000 </r>
        <r>     1.5261     0.0000     0.0000     0.0000     0.0000 </r>
        <r>     1.8016     0.0000     0.0000     0.0000     0.0000 </r>
        <r>     2.0771     0.0000     0.0000     0.0000     0.0000 </r>
        <r>     2.3527     0.0000     0.0000     0.0000     0.0000 </r>
       </set>
       <set comment="spin 2">
        <r>   -80.3008     0.0000     0.0000     0.0000     0.0000 </r>
        <r>   -80.0253     0.0000     0.0000     0.0000     0.0000 </r>
        <r>   -79.7498     0.0000     0.0000     0.0000     0.0000 </r>
        <r>   -79.4743     0.0000     0.0000     0.0000     0.0000 </r>
        <r>   -79.1988     0.0000     0.0000     0.0000     0.0000 </r>
        <r>   -78.9233     0.0000     0.0000     0.0000     0.0000 </r>
        <r>   -78.6478     0.0000     0.0000     0.0000     0.0000 </r>
        <r>   -78.3723     0.0000     0.0000     0.0000     0.0000 </r>
        <r>   -78.0967     0.0000     0.0000     0.0000     0.0000 </r>
        <r>   -77.8212     0.0000     0.0000     0.0000     0.0000 </r>
        <r>   -77.5457     0.0000     0.0000     0.0000     0.0000 </r>
        <r>   -77.2702     0.0000     0.0000     0.0000     0.0000 </r>
        <r>   -76.9947     0.0000     0.0000     0.0000     0.0000 </r>
        <r>   -76.7192     0.0000     0.0000     0.0000     0.0000 </r>
        <r>   -76.4437     0.0000     0.0000     0.0000     0.0000 </r>
        <r>   -76.1682     0.0000     0.0000     0.0000     0.0000 </r>
        <r>   -75.8926     0.0000     0.0000     0.0000     0.0000 </r>
        <r>   -75.6171     0.0000     0.0000     0.0000     0.0000 </r>
        <r>   -75.3416     0.0000     0.0000     0.0000     0.0000 </r>
        <r>   -75.0661     0.0000     0.0000     0.0000     0.0000 </r>
        <r>   -74.7906     0.0000     0.0000     0.0000     0.0000 </r>
        <r>   -74.5151     0.0000     0.0000     0.0000     0.0000 </r>
        <r>   -74.2396     0.0000     0.0000     0.0000     0.0000 </r>
        <r>   -73.9641     0.0000     0.0000     0.0000     0.0000 </r>
        <r>   -73.6886     0.0000     0.0000     0.0000     0.0000 </r>
        <r>   -73.4130     0.0000     0.0000     0.0000     0.0000 </r>
        <r>   -73.1375     0.0000     0.0000     0.0000     0.0000 </r>
        <r>   -72.8620     0.0000     0.0000     0.0000     0.0000 </r>
        <r>   -72.5865     0.0000     0.0000     0.0000     0.0000 </r>
        <r>   -72.3110     0.0000     0.0000     0.0000     0.0000 </r>
        <r>   -72.0355     0.0000     0.0000     0.0000     0.0000 </r>
        <r>   -71.7600     0.0000     0.0000     0.0000     0.0000 </r>
        <r>   -71.4845     0.0000     0.0000     0.0000     0.0000 </r>
        <r>   -71.2090     0.0000     0.0000     0.0000     0.0000 </r>
        <r>   -70.9334     0.0000     0.0000     0.0000     0.0000 </r>
        <r>   -70.6579     0.0000     0.0000     0.0000     0.0000 </r>
        <r>   -70.3824     0.0000     0.0000     0.0000     0.0000 </r>
        <r>   -70.1069     0.0000     0.0000     0.0000     0.0000 </r>
        <r>   -69.8314     0.0000     0.0000     0.0000     0.0000 </r>
        <r>   -69.5559     0.0000     0.0000     0.0000     0.0000 </r>
        <r>   -69.2804     0.0000     0.0000     0.0000     0.0000 </r>
        <r>   -69.0049     0.0000     0.0000     0.0000     0.0000 </r>
        <r>   -68.7293     0.0000     0.0000     0.0000     0.0000 </r>
        <r>   -68.4538     0.0000     0.0000     0.0000     0.0000 </r>
        <r>   -68.1783     0.0000     0.0000     0.0000     0.0000 </r>
        <r>   -67.9028     0.0000     0.0000     0.0000     0.0000 </r>
        <r>   -67.6273     0.0000     0.0000     0.0000     0.0000 </r>
        <r>   -67.3518     0.0000     0.0000     0.0000     0.0000 </r>
        <r>   -67.0763     0.0000     0.0000     0.0000     0.0000 </r>
        <r>   -66.8008     0.0000     0.0000     0.0000     0.0000 </r>
        <r>   -66.5253     0.0000     0.0000     0.0000     0.0000 </r>
        <r>   -66.2497     0.0000     0.0000     0.0000     0.0000 </r>
        <r>   -65.9742     0.0000     0.0000     0.0000     0.0000 </r>
        <r>   -65.6987     0.0000     0.0000     0.0000     0.0000 </r>
        <r>   -65.4232     0.0000     0.0000     0.0000     0.0000 </r>
        <r>   -65.1477     0.0000     0.0000     0.0000     0.0000 </r>
        <r>   -64.8722     0.0000     0.0000     0.0000     0.0000 </r>
        <r>   -64.5967     0.0000     0.0000     0.0000     0.0000 </r>
        <r>   -64.3212     0.0000     0.0000     0.0000     0.0000 </r>
        <r>   -64.0456     0.0000     0.0000     0.0000     0.0000 </r>
        <r>   -63.7701     0.0000     0.0000     0.0000     0.0000 </r>
        <r>   -63.4946     0.0000     0.0000     0.0000     0.0000 </r>
        <r>   -63.2191     0.0000     0.0000     0.0000     0.0000 </r>
        <r>   -62.9436     0.0000     0.0000     0.0000     0.0000 </r>
        <r>   -62.6681     0.0000     0.0000     0.0000     0.0000 </r>
        <r>   -62.3926     0.0000     0.0000     0.0000     0.0000 </r>
        <r>   -62.1171     0.0000     0.0000     0.0000     0.0000 </r>
        <r>   -61.8416     0.0000     0.0000     0.0000     0.0000 </r>
        <r>   -61.5660     0.0000     0.0000     0.0000     0.0000 </r>
        <r>   -61.2905     0.0000     0.0000     0.0000     0.0000 </r>
        <r>   -61.0150     0.0000     0.0000     0.0000     0.0000 </r>
        <r>   -60.7395     0.0000     0.0000     0.0000     0.0000 </r>
        <r>   -60.4640     0.0000     0.0000     0.0000     0.0000 </r>
        <r>   -60.1885     0.0000     0.0000     0.0000     0.0000 </r>
        <r>   -59.9130     0.0000     0.0000     0.0000     0.0000 </r>
        <r>   -59.6375     0.0000     0.0000     0.0000     0.0000 </r>
        <r>   -59.3620     0.0000     0.0000     0.0000     0.0000 </r>
        <r>   -59.0864     0.0000     0.0000     0.0000     0.0000 </r>
        <r>   -58.8109     0.0000     0.0000     0.0000     0.0000 </r>
        <r>   -58.5354     0.0000     0.0000     0.0000     0.0000 </r>
        <r>   -58.2599     0.0000     0.0000     0.0000     0.0000 </r>
        <r>   -57.9844     0.0000     0.0000     0.0000     0.0000 </r>
        <r>   -57.7089     0.0000     0.0000     0.0000     0.0000 </r>
        <r>   -57.4334     0.0000     0.0000     0.0000     0.0000 </r>
        <r>   -57.1579     0.0000     0.0000     0.0000     0.0000 </r>
        <r>   -56.8823     0.0000     0.0000     0.0000     0.0000 </r>
        <r>   -56.6068     0.0000     0.0000     0.0000     0.0000 </r>
        <r>   -56.3313     0.0000     0.0000     0.0000     0.0000 </r>
        <r>   -56.0558     0.0000     0.0000     0.0000     0.0000 </r>
        <r>   -55.7803     0.0000     0.0000     0.0000     0.0000 </r>
        <r>   -55.5048     0.0000     0.0000     0.0000     0.0000 </r>
        <r>   -55.2293     0.0000     0.0000     0.0000     0.0000 </r>
        <r>   -54.9538     0.0000     0.0000     0.0000     0.0000 </r>
        <r>   -54.6783     0.0000     0.0000     0.0000     0.0000 </r>
        <r>   -54.4027     0.0000     0.0000     0.0000     0.0000 </r>
        <r>   -54.1272     0.0000     0.0000     0.0000     0.0000 </r>
        <r>   -53.8517     0.0000     0.0000     0.0000     0.0000 </r>
        <r>   -53.5762     0.0000     0.0000     0.0000     0.0000 </r>
        <r>   -53.3007     0.0000     0.0000     0.0000     0.0000 </r>
        <r>   -53.0252     0.0000     0.0000     0.0000     0.0000 </r>
        <r>   -52.7497     0.0000     0.0000     0.0000     0.0000 </r>
        <r>   -52.4742     0.0000     0.0000     0.0000     0.0000 </r>
        <r>   -52.1986     0.0000     0.0000     0.0000     0.0000 </r>
        <r>   -51.9231     0.0000     0.0000     0.0000     0.0000 </r>
        <r>   -51.6476     0.0000     0.0000     0.0000     0.0000 </r>
        <r>   -51.3721     0.0000     0.0000     0.0000     0.0000 </r>
        <r>   -51.0966     0.0000     0.0000     0.0000     0.0000 </r>
        <r>   -50.8211     0.0000     0.0000     0.0000     0.0000 </r>
        <r>   -50.5456     0.0000     0.0000     0.0000     0.0000 </r>
        <r>   -50.2701     0.0000     0.0000     0.0000     0.0000 </r>
        <r>   -49.9946     0.0000     0.0000     0.0000     0.0000 </r>
        <r>   -49.7190     0.0000     0.0000     0.0000     0.0000 </r>
        <r>   -49.4435     0.0000     0.0000     0.0000     0.0000 </r>
        <r>   -49.1680     0.0000     0.0000     0.0000     0.0000 </r>
        <r>   -48.8925     0.0000     0.0000     0.0000     0.0000 </r>
        <r>   -48.6170     0.0000     0.0000     0.0000     0.0000 </r>
        <r>   -48.3415     0.0000     0.0000     0.0000     0.0000 </r>
        <r>   -48.0660     0.0000     0.0000     0.0000     0.0000 </r>
        <r>   -47.7905     0.0000     0.0000     0.0000     0.0000 </r>
        <r>   -47.5150     0.0000     0.0000     0.0000     0.0000 </r>
        <r>   -47.2394     0.0000     0.0000     0.0000     0.0000 </r>
        <r>   -46.9639     0.0000     0.0000     0.0000     0.0000 </r>
        <r>   -46.6884     0.0000     0.0000     0.0000     0.0000 </r>
        <r>   -46.4129     0.0000     0.0000     0.0000     0.0000 </r>
        <r>   -46.1374     0.0000     0.0000     0.0000     0.0000 </r>
        <r>   -45.8619     0.0000     0.8683     0.0017     0.0003 </r>
        <r>   -45.5864     0.0000     0.0000     0.0000     0.0000 </r>
        <r>   -45.3109     0.0000     0.0000     0.0000     0.0000 </r>
        <r>   -45.0353     0.0000     0.0000     0.0000     0.0000 </r>
        <r>   -44.7598     0.0014     1.7432     0.0007     0.0000 </r>
        <r>   -44.4843     0.0000     0.0000     0.0000     0.0000 </r>
        <r>   -44.2088     0.0000     0.0000     0.0000     0.0000 </r>
        <r>   -43.9333     0.0000     0.0000     0.0000     0.0000 </r>
        <r>   -43.6578     0.0000     0.0000     0.0000     0.0000 </r>
        <r>   -43.3823     0.0000     0.0000     0.0000     0.0000 </r>
        <r>   -43.1068     0.0000     0.0000     0.0000     0.0000 </r>
        <r>   -42.8313     0.0000     0.0000     0.0000     0.0000 </r>
        <r>   -42.5557     0.0000     0.0000     0.0000     0.0000 </r>
        <r>   -42.2802     0.0000     0.0000     0.0000     0.0000 </r>
        <r>   -42.0047     0.0000     0.0000     0.0000     0.0000 </r>
        <r>   -41.7292     0.0000     0.0000     0.0000     0.0000 </r>
        <r>   -41.4537     0.0000     0.0000     0.0000     0.0000 </r>
        <r>   -41.1782     0.0000     0.0000     0.0000     0.0000 </r>
        <r>   -40.9027     0.0000     0.0000     0.0000     0.0000 </r>
        <r>   -40.6272     0.0000     0.0000     0.0000     0.0000 </r>
        <r>   -40.3516     0.0000     0.0000     0.0000     0.0000 </r>
        <r>   -40.0761     0.0000     0.0000     0.0000     0.0000 </r>
        <r>   -39.8006     0.0000     0.0000     0.0000     0.0000 </r>
        <r>   -39.5251     0.0000     0.0000     0.0000     0.0000 </r>
        <r>   -39.2496     0.0000     0.0000     0.0000     0.0000 </r>
        <r>   -38.9741     0.0000     0.0000     0.0000     0.0000 </r>
        <r>   -38.6986     0.0000     0.0000     0.0000     0.0000 </r>
        <r>   -38.4231     0.0000     0.0000     0.0000     0.0000 </r>
        <r>   -38.1476     0.0000     0.0000     0.0000     0.0000 </r>
        <r>   -37.8720     0.0000     0.0000     0.0000     0.0000 </r>
        <r>   -37.5965     0.0000     0.0000     0.0000     0.0000 </r>
        <r>   -37.3210     0.0000     0.0000     0.0000     0.0000 </r>
        <r>   -37.0455     0.0000     0.0000     0.0000     0.0000 </r>
        <r>   -36.7700     0.0000     0.0000     0.0000     0.0000 </r>
        <r>   -36.4945     0.0000     0.0000     0.0000     0.0000 </r>
        <r>   -36.2190     0.0000     0.0000     0.0000     0.0000 </r>
        <r>   -35.9435     0.0000     0.0000     0.0000     0.0000 </r>
        <r>   -35.6679     0.0000     0.0000     0.0000     0.0000 </r>
        <r>   -35.3924     0.0000     0.0000     0.0000     0.0000 </r>
        <r>   -35.1169     0.0000     0.0000     0.0000     0.0000 </r>
        <r>   -34.8414     0.0000     0.0000     0.0000     0.0000 </r>
        <r>   -34.5659     0.0000     0.0000     0.0000     0.0000 </r>
        <r>   -34.2904     0.0000     0.0000     0.0000     0.0000 </r>
        <r>   -34.0149     0.0000     0.0000     0.0000     0.0000 </r>
        <r>   -33.7394     0.0000     0.0000     0.0000     0.0000 </r>
        <r>   -33.4639     0.0000     0.0000     0.0000     0.0000 </r>
        <r>   -33.1883     0.0000     0.0000     0.0000     0.0000 </r>
        <r>   -32.9128     0.0000     0.0000     0.0000     0.0000 </r>
        <r>   -32.6373     0.0000     0.0000     0.0000     0.0000 </r>
        <r>   -32.3618     0.0000     0.0000     0.0000     0.0000 </r>
        <r>   -32.0863     0.0000     0.0000     0.0000     0.0000 </r>
        <r>   -31.8108     0.0000     0.0000     0.0000     0.0000 </r>
        <r>   -31.5353     0.0000     0.0000     0.0000     0.0000 </r>
        <r>   -31.2598     0.0000     0.0000     0.0000     0.0000 </r>
        <r>   -30.9843     0.0000     0.0000     0.0000     0.0000 </r>
        <r>   -30.7087     0.0000     0.0000     0.0000     0.0000 </r>
        <r>   -30.4332     0.0000     0.0000     0.0000     0.0000 </r>
        <r>   -30.1577     0.0000     0.0000     0.0000     0.0000 </r>
        <r>   -29.8822     0.0000     0.0000     0.0000     0.0000 </r>
        <r>   -29.6067     0.0000     0.0000     0.0000     0.0000 </r>
        <r>   -29.3312     0.0000     0.0000     0.0000     0.0000 </r>
        <r>   -29.0557     0.0000     0.0000     0.0000     0.0000 </r>
        <r>   -28.7802     0.0000     0.0000     0.0000     0.0000 </r>
        <r>   -28.5046     0.0000     0.0000     0.0000     0.0000 </r>
        <r>   -28.2291     0.0000     0.0000     0.0000     0.0000 </r>
        <r>   -27.9536     0.0000     0.0000     0.0000     0.0000 </r>
        <r>   -27.6781     0.0000     0.0000     0.0000     0.0000 </r>
        <r>   -27.4026     0.0000     0.0000     0.0000     0.0000 </r>
        <r>   -27.1271     0.0000     0.0000     0.0000     0.0000 </r>
        <r>   -26.8516     0.0000     0.0000     0.0000     0.0000 </r>
        <r>   -26.5761     0.0000     0.0000     0.0000     0.0000 </r>
        <r>   -26.3006     0.0000     0.0000     0.0000     0.0000 </r>
        <r>   -26.0250     0.0000     0.0000     0.0000     0.0000 </r>
        <r>   -25.7495     0.0000     0.0000     0.0000     0.0000 </r>
        <r>   -25.4740     0.0000     0.0000     0.0000     0.0000 </r>
        <r>   -25.1985     0.0000     0.0000     0.0000     0.0000 </r>
        <r>   -24.9230     0.0000     0.0000     0.0000     0.0000 </r>
        <r>   -24.6475     0.0000     0.0000     0.0000     0.0000 </r>
        <r>   -24.3720     0.0000     0.0000     0.0000     0.0000 </r>
        <r>   -24.0965     0.0000     0.0000     0.0000     0.0000 </r>
        <r>   -23.8209     0.0000     0.0000     0.0000     0.0000 </r>
        <r>   -23.5454     0.0000     0.0000     0.0000     0.0000 </r>
        <r>   -23.2699     0.0000     0.0000     0.0000     0.0000 </r>
        <r>   -22.9944     0.0000     0.0000     0.0000     0.0000 </r>
        <r>   -22.7189     0.0000     0.0000     0.0000     0.0000 </r>
        <r>   -22.4434     0.0000     0.0000     0.0000     0.0000 </r>
        <r>   -22.1679     0.0000     0.0000     0.0000     0.0000 </r>
        <r>   -21.8924     0.0000     0.0000     0.0000     0.0000 </r>
        <r>   -21.6169     0.0000     0.0000     0.0000     0.0000 </r>
        <r>   -21.3413     0.0000     0.0000     0.0000     0.0000 </r>
        <r>   -21.0658     0.0000     0.0000     0.0000     0.0000 </r>
        <r>   -20.7903     0.0000     0.0000     0.0000     0.0000 </r>
        <r>   -20.5148     0.0000     0.0000     0.0000     0.0000 </r>
        <r>   -20.2393     0.0000     0.0000     0.0000     0.0000 </r>
        <r>   -19.9638     0.0000     0.0000     0.0000     0.0000 </r>
        <r>   -19.6883     0.0000     0.0000     0.0000     0.0000 </r>
        <r>   -19.4128     0.0000     0.0000     0.0000     0.0000 </r>
        <r>   -19.1373     0.0000     0.0000     0.0000     0.0000 </r>
        <r>   -18.8617     0.0000     0.0000     0.0000     0.0000 </r>
        <r>   -18.5862     0.0000     0.0000     0.0000     0.0000 </r>
        <r>   -18.3107     0.0000     0.0000     0.0000     0.0000 </r>
        <r>   -18.0352     0.0000     0.0000     0.0000     0.0000 </r>
        <r>   -17.7597     0.0000     0.0000     0.0000     0.0000 </r>
        <r>   -17.4842     0.0000     0.0000     0.0000     0.0000 </r>
        <r>   -17.2087     0.0000     0.0000     0.0000     0.0000 </r>
        <r>   -16.9332     0.0000     0.0000     0.0000     0.0000 </r>
        <r>   -16.6576     0.0000     0.0000     0.0000     0.0000 </r>
        <r>   -16.3821     0.0000     0.0000     0.0000     0.0000 </r>
        <r>   -16.1066     0.0000     0.0000     0.0000     0.0000 </r>
        <r>   -15.8311     0.0000     0.0000     0.0000     0.0000 </r>
        <r>   -15.5556     0.0000     0.0000     0.0000     0.0000 </r>
        <r>   -15.2801     0.0000     0.0000     0.0000     0.0000 </r>
        <r>   -15.0046     0.0000     0.0000     0.0000     0.0000 </r>
        <r>   -14.7291     0.0000     0.0000     0.0000     0.0000 </r>
        <r>   -14.4536     0.0000     0.0000     0.0000     0.0000 </r>
        <r>   -14.1780     0.0000     0.0000     0.0000     0.0000 </r>
        <r>   -13.9025     0.0000     0.0000     0.0000     0.0000 </r>
        <r>   -13.6270     0.0000     0.0000     0.0000     0.0000 </r>
        <r>   -13.3515     0.0000     0.0000     0.0000     0.0000 </r>
        <r>   -13.0760     0.0000     0.0000     0.0000     0.0000 </r>
        <r>   -12.8005     0.0000     0.0000     0.0000     0.0000 </r>
        <r>   -12.5250     0.0000     0.0000     0.0000     0.0000 </r>
        <r>   -12.2495     0.0000     0.0000     0.0000     0.0000 </r>
        <r>   -11.9739     0.0000     0.0000     0.0000     0.0000 </r>
        <r>   -11.6984     0.0000     0.0000     0.0000     0.0000 </r>
        <r>   -11.4229     0.0000     0.0000     0.0000     0.0000 </r>
        <r>   -11.1474     0.0000     0.0000     0.0000     0.0000 </r>
        <r>   -10.8719     0.0000     0.0000     0.0000     0.0000 </r>
        <r>   -10.5964     0.0000     0.0000     0.0000     0.0000 </r>
        <r>   -10.3209     0.0000     0.0000     0.0000     0.0000 </r>
        <r>   -10.0454     0.0000     0.0000     0.0000     0.0000 </r>
        <r>    -9.7699     0.0000     0.0000     0.0000     0.0000 </r>
        <r>    -9.4943     0.0000     0.0000     0.0000     0.0000 </r>
        <r>    -9.2188     0.0000     0.0000     0.0000     0.0000 </r>
        <r>    -8.9433     0.0000     0.0000     0.0000     0.0000 </r>
        <r>    -8.6678     0.0000     0.0000     0.0000     0.0000 </r>
        <r>    -8.3923     0.0000     0.0000     0.0000     0.0000 </r>
        <r>    -8.1168     0.0000     0.0000     0.0000     0.0000 </r>
        <r>    -7.8413     0.0000     0.0000     0.0000     0.0000 </r>
        <r>    -7.5658     0.0000     0.0000     0.0000     0.0000 </r>
        <r>    -7.2903     0.0000     0.0000     0.0000     0.0000 </r>
        <r>    -7.0147     0.0000     0.0000     0.0000     0.0000 </r>
        <r>    -6.7392     0.0000     0.0000     0.0000     0.0000 </r>
        <r>    -6.4637     0.0000     0.0000     0.0000     0.0000 </r>
        <r>    -6.1882     0.0000     0.0000     0.0000     0.0000 </r>
        <r>    -5.9127     0.0007     0.0000     0.0035     0.0000 </r>
        <r>    -5.6372     0.0000     0.0000     0.0000     0.0000 </r>
        <r>    -5.3617     0.0021     0.0019     0.4667     0.0022 </r>
        <r>    -5.0862     0.0000     0.0000     0.0000     0.0000 </r>
        <r>    -4.8106     0.0000     0.0000     0.0000     0.0000 </r>
        <r>    -4.5351     0.1474     0.0004     0.4438     0.0017 </r>
        <r>    -4.2596     0.0000     0.0000     0.0000     0.0000 </r>
        <r>    -3.9841     0.0000     0.0000     0.0000     0.0000 </r>
        <r>    -3.7086     0.0000     0.0000     0.0000     0.0000 </r>
        <r>    -3.4331     0.0000     0.0000     0.0000     0.0000 </r>
        <r>    -3.1576     0.0000     0.0000     0.0000     0.0000 </r>
        <r>    -2.8821     0.2758     0.0014     1.1809     0.0037 </r>
        <r>    -2.6066     0.0000     0.0000     0.0000     0.0000 </r>
        <r>    -2.3310     0.0000     0.0000     0.0000     0.0000 </r>
        <r>    -2.0555     0.0000     0.0000     0.0000     0.0000 </r>
        <r>    -1.7800     0.0000     0.0000     0.0000     0.0000 </r>
        <r>    -1.5045     0.0000     0.0000     0.0000     0.0000 </r>
        <r>    -1.2290     0.0000     0.0000     0.0000     0.0000 </r>
        <r>    -0.9535     0.0000     0.0000     0.0000     0.0000 </r>
        <r>    -0.6780     0.0000     0.0000     0.0000     0.0000 </r>
        <r>    -0.4025     0.0000     0.0000     0.0000     0.0000 </r>
        <r>    -0.1269     0.0000     0.0000     0.0000     0.0000 </r>
        <r>     0.1486     0.0000     0.0000     0.0000     0.0000 </r>
        <r>     0.4241     0.0000     0.0000     0.0000     0.0000 </r>
        <r>     0.6996     0.0000     0.0000     0.0000     0.0000 </r>
        <r>     0.9751     0.0000     0.0000     0.0000     0.0000 </r>
        <r>     1.2506     0.0000     0.0000     0.0000     0.0000 </r>
        <r>     1.5261     0.0000     0.0000     0.0000     0.0000 </r>
        <r>     1.8016     0.0000     0.0000     0.0000     0.0000 </r>
        <r>     2.0771     0.0000     0.0000     0.0000     0.0000 </r>
        <r>     2.3527     0.0000     0.0000     0.0000     0.0000 </r>
       </set>
      </set>
      <set comment="ion 4">
       <set comment="spin 1">
        <r>   -80.3008     0.0000     0.0000     0.0000     0.0000 </r>
        <r>   -80.0253     0.0000     0.0000     0.0000     0.0000 </r>
        <r>   -79.7498     0.0000     0.0000     0.0000     0.0000 </r>
        <r>   -79.4743     0.0000     0.0000     0.0000     0.0000 </r>
        <r>   -79.1988     0.0000     0.0000     0.0000     0.0000 </r>
        <r>   -78.9233     0.0000     0.0000     0.0000     0.0000 </r>
        <r>   -78.6478     0.0000     0.0000     0.0000     0.0000 </r>
        <r>   -78.3723     0.0000     0.0000     0.0000     0.0000 </r>
        <r>   -78.0967     0.0000     0.0000     0.0000     0.0000 </r>
        <r>   -77.8212     0.0000     0.0000     0.0000     0.0000 </r>
        <r>   -77.5457     0.0000     0.0000     0.0000     0.0000 </r>
        <r>   -77.2702     0.0000     0.0000     0.0000     0.0000 </r>
        <r>   -76.9947     0.0000     0.0000     0.0000     0.0000 </r>
        <r>   -76.7192     0.0000     0.0000     0.0000     0.0000 </r>
        <r>   -76.4437     0.0000     0.0000     0.0000     0.0000 </r>
        <r>   -76.1682     0.0000     0.0000     0.0000     0.0000 </r>
        <r>   -75.8926     0.0000     0.0000     0.0000     0.0000 </r>
        <r>   -75.6171     0.0000     0.0000     0.0000     0.0000 </r>
        <r>   -75.3416     0.0000     0.0000     0.0000     0.0000 </r>
        <r>   -75.0661     0.0000     0.0000     0.0000     0.0000 </r>
        <r>   -74.7906     0.0000     0.0000     0.0000     0.0000 </r>
        <r>   -74.5151     0.0000     0.0000     0.0000     0.0000 </r>
        <r>   -74.2396     0.0000     0.0000     0.0000     0.0000 </r>
        <r>   -73.9641     0.0000     0.0000     0.0000     0.0000 </r>
        <r>   -73.6886     0.0000     0.0000     0.0000     0.0000 </r>
        <r>   -73.4130     0.0000     0.0000     0.0000     0.0000 </r>
        <r>   -73.1375     0.0000     0.0000     0.0000     0.0000 </r>
        <r>   -72.8620     0.0000     0.0000     0.0000     0.0000 </r>
        <r>   -72.5865     0.0000     0.0000     0.0000     0.0000 </r>
        <r>   -72.3110     0.0000     0.0000     0.0000     0.0000 </r>
        <r>   -72.0355     0.0000     0.0000     0.0000     0.0000 </r>
        <r>   -71.7600     0.0000     0.0000     0.0000     0.0000 </r>
        <r>   -71.4845     0.0000     0.0000     0.0000     0.0000 </r>
        <r>   -71.2090     0.0000     0.0000     0.0000     0.0000 </r>
        <r>   -70.9334     0.0000     0.0000     0.0000     0.0000 </r>
        <r>   -70.6579     0.0000     0.0000     0.0000     0.0000 </r>
        <r>   -70.3824     0.0000     0.0000     0.0000     0.0000 </r>
        <r>   -70.1069     0.0000     0.0000     0.0000     0.0000 </r>
        <r>   -69.8314     0.0000     0.0000     0.0000     0.0000 </r>
        <r>   -69.5559     0.0000     0.0000     0.0000     0.0000 </r>
        <r>   -69.2804     0.0000     0.0000     0.0000     0.0000 </r>
        <r>   -69.0049     0.0000     0.0000     0.0000     0.0000 </r>
        <r>   -68.7293     0.0000     0.0000     0.0000     0.0000 </r>
        <r>   -68.4538     0.0000     0.0000     0.0000     0.0000 </r>
        <r>   -68.1783     0.0000     0.0000     0.0000     0.0000 </r>
        <r>   -67.9028     0.0000     0.0000     0.0000     0.0000 </r>
        <r>   -67.6273     0.0000     0.0000     0.0000     0.0000 </r>
        <r>   -67.3518     0.0000     0.0000     0.0000     0.0000 </r>
        <r>   -67.0763     0.0000     0.0000     0.0000     0.0000 </r>
        <r>   -66.8008     0.0000     0.0000     0.0000     0.0000 </r>
        <r>   -66.5253     0.0000     0.0000     0.0000     0.0000 </r>
        <r>   -66.2497     0.0000     0.0000     0.0000     0.0000 </r>
        <r>   -65.9742     0.0000     0.0000     0.0000     0.0000 </r>
        <r>   -65.6987     0.0000     0.0000     0.0000     0.0000 </r>
        <r>   -65.4232     0.0000     0.0000     0.0000     0.0000 </r>
        <r>   -65.1477     0.0000     0.0000     0.0000     0.0000 </r>
        <r>   -64.8722     0.0000     0.0000     0.0000     0.0000 </r>
        <r>   -64.5967     0.0000     0.0000     0.0000     0.0000 </r>
        <r>   -64.3212     0.0000     0.0000     0.0000     0.0000 </r>
        <r>   -64.0456     0.0000     0.0000     0.0000     0.0000 </r>
        <r>   -63.7701     0.0000     0.0000     0.0000     0.0000 </r>
        <r>   -63.4946     0.0000     0.0000     0.0000     0.0000 </r>
        <r>   -63.2191     0.0000     0.0000     0.0000     0.0000 </r>
        <r>   -62.9436     0.0000     0.0000     0.0000     0.0000 </r>
        <r>   -62.6681     0.0000     0.0000     0.0000     0.0000 </r>
        <r>   -62.3926     0.0000     0.0000     0.0000     0.0000 </r>
        <r>   -62.1171     0.0000     0.0000     0.0000     0.0000 </r>
        <r>   -61.8416     0.0000     0.0000     0.0000     0.0000 </r>
        <r>   -61.5660     0.0000     0.0000     0.0000     0.0000 </r>
        <r>   -61.2905     0.0000     0.0000     0.0000     0.0000 </r>
        <r>   -61.0150     0.0000     0.0000     0.0000     0.0000 </r>
        <r>   -60.7395     0.0000     0.0000     0.0000     0.0000 </r>
        <r>   -60.4640     0.0000     0.0000     0.0000     0.0000 </r>
        <r>   -60.1885     0.0000     0.0000     0.0000     0.0000 </r>
        <r>   -59.9130     0.0000     0.0000     0.0000     0.0000 </r>
        <r>   -59.6375     0.0000     0.0000     0.0000     0.0000 </r>
        <r>   -59.3620     0.0000     0.0000     0.0000     0.0000 </r>
        <r>   -59.0864     0.0000     0.0000     0.0000     0.0000 </r>
        <r>   -58.8109     0.0000     0.0000     0.0000     0.0000 </r>
        <r>   -58.5354     0.0000     0.0000     0.0000     0.0000 </r>
        <r>   -58.2599     0.0000     0.0000     0.0000     0.0000 </r>
        <r>   -57.9844     0.0000     0.0000     0.0000     0.0000 </r>
        <r>   -57.7089     0.0000     0.0000     0.0000     0.0000 </r>
        <r>   -57.4334     0.0000     0.0000     0.0000     0.0000 </r>
        <r>   -57.1579     0.0000     0.0000     0.0000     0.0000 </r>
        <r>   -56.8823     0.0000     0.0000     0.0000     0.0000 </r>
        <r>   -56.6068     0.0000     0.0000     0.0000     0.0000 </r>
        <r>   -56.3313     0.0000     0.0000     0.0000     0.0000 </r>
        <r>   -56.0558     0.0000     0.0000     0.0000     0.0000 </r>
        <r>   -55.7803     0.0000     0.0000     0.0000     0.0000 </r>
        <r>   -55.5048     0.0000     0.0000     0.0000     0.0000 </r>
        <r>   -55.2293     0.0000     0.0000     0.0000     0.0000 </r>
        <r>   -54.9538     0.0000     0.0000     0.0000     0.0000 </r>
        <r>   -54.6783     0.0000     0.0000     0.0000     0.0000 </r>
        <r>   -54.4027     0.0000     0.0000     0.0000     0.0000 </r>
        <r>   -54.1272     0.0000     0.0000     0.0000     0.0000 </r>
        <r>   -53.8517     0.0000     0.0000     0.0000     0.0000 </r>
        <r>   -53.5762     0.0000     0.0000     0.0000     0.0000 </r>
        <r>   -53.3007     0.0000     0.0000     0.0000     0.0000 </r>
        <r>   -53.0252     0.0000     0.0000     0.0000     0.0000 </r>
        <r>   -52.7497     0.0000     0.0000     0.0000     0.0000 </r>
        <r>   -52.4742     0.0000     0.0000     0.0000     0.0000 </r>
        <r>   -52.1986     0.0000     0.0000     0.0000     0.0000 </r>
        <r>   -51.9231     0.0000     0.0000     0.0000     0.0000 </r>
        <r>   -51.6476     0.0000     0.0000     0.0000     0.0000 </r>
        <r>   -51.3721     0.0000     0.0000     0.0000     0.0000 </r>
        <r>   -51.0966     0.0000     0.0000     0.0000     0.0000 </r>
        <r>   -50.8211     0.0000     0.0000     0.0000     0.0000 </r>
        <r>   -50.5456     0.0000     0.0000     0.0000     0.0000 </r>
        <r>   -50.2701     0.0000     0.0000     0.0000     0.0000 </r>
        <r>   -49.9946     0.0000     0.0000     0.0000     0.0000 </r>
        <r>   -49.7190     0.0000     0.0000     0.0000     0.0000 </r>
        <r>   -49.4435     0.0000     0.0000     0.0000     0.0000 </r>
        <r>   -49.1680     0.0000     0.0000     0.0000     0.0000 </r>
        <r>   -48.8925     0.0000     0.0000     0.0000     0.0000 </r>
        <r>   -48.6170     0.0000     0.0000     0.0000     0.0000 </r>
        <r>   -48.3415     0.0000     0.0000     0.0000     0.0000 </r>
        <r>   -48.0660     0.0000     0.0000     0.0000     0.0000 </r>
        <r>   -47.7905     0.0000     0.0000     0.0000     0.0000 </r>
        <r>   -47.5150     0.0000     0.0000     0.0000     0.0000 </r>
        <r>   -47.2394     0.0000     0.0000     0.0000     0.0000 </r>
        <r>   -46.9639     0.0000     0.0000     0.0000     0.0000 </r>
        <r>   -46.6884     0.0000     0.0000     0.0000     0.0000 </r>
        <r>   -46.4129     0.0000     0.0002     0.0000     0.0000 </r>
        <r>   -46.1374     0.0000     0.0000     0.0000     0.0000 </r>
        <r>   -45.8619     0.0000     0.0000     0.0000     0.0000 </r>
        <r>   -45.5864     0.0000     0.0000     0.0000     0.0000 </r>
        <r>   -45.3109     0.0000     0.0000     0.0000     0.0000 </r>
        <r>   -45.0353     0.0000     0.0000     0.0000     0.0000 </r>
        <r>   -44.7598     0.0000     0.0000     0.0000     0.0000 </r>
        <r>   -44.4843     0.0000     0.0000     0.0000     0.0000 </r>
        <r>   -44.2088     0.0000     0.0000     0.0000     0.0000 </r>
        <r>   -43.9333     0.0000     0.0000     0.0000     0.0000 </r>
        <r>   -43.6578     0.0000     0.0000     0.0000     0.0000 </r>
        <r>   -43.3823     0.0000     0.0000     0.0000     0.0000 </r>
        <r>   -43.1068     0.0000     0.0000     0.0000     0.0000 </r>
        <r>   -42.8313     0.0000     0.0000     0.0000     0.0000 </r>
        <r>   -42.5557     0.0000     0.0000     0.0000     0.0000 </r>
        <r>   -42.2802     0.0000     0.0000     0.0000     0.0000 </r>
        <r>   -42.0047     0.0000     0.0000     0.0000     0.0000 </r>
        <r>   -41.7292     0.0000     0.0000     0.0000     0.0000 </r>
        <r>   -41.4537     0.0000     0.0000     0.0000     0.0000 </r>
        <r>   -41.1782     0.0000     0.0000     0.0000     0.0000 </r>
        <r>   -40.9027     0.0000     0.0000     0.0000     0.0000 </r>
        <r>   -40.6272     0.0000     0.0000     0.0000     0.0000 </r>
        <r>   -40.3516     0.0000     0.0000     0.0000     0.0000 </r>
        <r>   -40.0761     0.0000     0.0000     0.0000     0.0000 </r>
        <r>   -39.8006     0.0000     0.0000     0.0000     0.0000 </r>
        <r>   -39.5251     0.0000     0.0000     0.0000     0.0000 </r>
        <r>   -39.2496     0.0000     0.0000     0.0000     0.0000 </r>
        <r>   -38.9741     0.0000     0.0000     0.0000     0.0000 </r>
        <r>   -38.6986     0.0000     0.0000     0.0000     0.0000 </r>
        <r>   -38.4231     0.0000     0.0000     0.0000     0.0000 </r>
        <r>   -38.1476     0.0000     0.0000     0.0000     0.0000 </r>
        <r>   -37.8720     0.0000     0.0000     0.0000     0.0000 </r>
        <r>   -37.5965     0.0000     0.0000     0.0000     0.0000 </r>
        <r>   -37.3210     0.0000     0.0000     0.0000     0.0000 </r>
        <r>   -37.0455     0.0000     0.0000     0.0000     0.0000 </r>
        <r>   -36.7700     0.0000     0.0000     0.0000     0.0000 </r>
        <r>   -36.4945     0.0000     0.0000     0.0000     0.0000 </r>
        <r>   -36.2190     0.0000     0.0000     0.0000     0.0000 </r>
        <r>   -35.9435     0.0000     0.0000     0.0000     0.0000 </r>
        <r>   -35.6679     0.0000     0.0000     0.0000     0.0000 </r>
        <r>   -35.3924     0.0000     0.0000     0.0000     0.0000 </r>
        <r>   -35.1169     0.0000     0.0000     0.0000     0.0000 </r>
        <r>   -34.8414     0.0000     0.0000     0.0000     0.0000 </r>
        <r>   -34.5659     0.0000     0.0000     0.0000     0.0000 </r>
        <r>   -34.2904     0.0000     0.0000     0.0000     0.0000 </r>
        <r>   -34.0149     0.0000     0.0000     0.0000     0.0000 </r>
        <r>   -33.7394     0.0000     0.0000     0.0000     0.0000 </r>
        <r>   -33.4639     0.0000     0.0000     0.0000     0.0000 </r>
        <r>   -33.1883     0.0000     0.0000     0.0000     0.0000 </r>
        <r>   -32.9128     0.0000     0.0000     0.0000     0.0000 </r>
        <r>   -32.6373     0.0000     0.0000     0.0000     0.0000 </r>
        <r>   -32.3618     0.0000     0.0000     0.0000     0.0000 </r>
        <r>   -32.0863     0.0000     0.0000     0.0000     0.0000 </r>
        <r>   -31.8108     0.0000     0.0000     0.0000     0.0000 </r>
        <r>   -31.5353     0.0000     0.0000     0.0000     0.0000 </r>
        <r>   -31.2598     0.0000     0.0000     0.0000     0.0000 </r>
        <r>   -30.9843     0.0000     0.0000     0.0000     0.0000 </r>
        <r>   -30.7087     0.0000     0.0000     0.0000     0.0000 </r>
        <r>   -30.4332     0.0000     0.0000     0.0000     0.0000 </r>
        <r>   -30.1577     0.0000     0.0000     0.0000     0.0000 </r>
        <r>   -29.8822     0.0000     0.0000     0.0000     0.0000 </r>
        <r>   -29.6067     0.0000     0.0000     0.0000     0.0000 </r>
        <r>   -29.3312     0.0000     0.0000     0.0000     0.0000 </r>
        <r>   -29.0557     0.0000     0.0000     0.0000     0.0000 </r>
        <r>   -28.7802     0.0000     0.0000     0.0000     0.0000 </r>
        <r>   -28.5046     0.0000     0.0000     0.0000     0.0000 </r>
        <r>   -28.2291     0.0000     0.0000     0.0000     0.0000 </r>
        <r>   -27.9536     0.0000     0.0000     0.0000     0.0000 </r>
        <r>   -27.6781     0.0000     0.0000     0.0000     0.0000 </r>
        <r>   -27.4026     0.0000     0.0000     0.0000     0.0000 </r>
        <r>   -27.1271     0.0000     0.0000     0.0000     0.0000 </r>
        <r>   -26.8516     0.0000     0.0000     0.0000     0.0000 </r>
        <r>   -26.5761     0.0000     0.0000     0.0000     0.0000 </r>
        <r>   -26.3006     0.0000     0.0000     0.0000     0.0000 </r>
        <r>   -26.0250     0.0000     0.0000     0.0000     0.0000 </r>
        <r>   -25.7495     0.0000     0.0000     0.0000     0.0000 </r>
        <r>   -25.4740     0.0000     0.0000     0.0000     0.0000 </r>
        <r>   -25.1985     0.0000     0.0000     0.0000     0.0000 </r>
        <r>   -24.9230     0.0000     0.0000     0.0000     0.0000 </r>
        <r>   -24.6475     0.0000     0.0000     0.0000     0.0000 </r>
        <r>   -24.3720     0.0000     0.0000     0.0000     0.0000 </r>
        <r>   -24.0965     0.0000     0.0000     0.0000     0.0000 </r>
        <r>   -23.8209     0.0000     0.0000     0.0000     0.0000 </r>
        <r>   -23.5454     0.0000     0.0000     0.0000     0.0000 </r>
        <r>   -23.2699     0.0000     0.0000     0.0000     0.0000 </r>
        <r>   -22.9944     0.0000     0.0000     0.0000     0.0000 </r>
        <r>   -22.7189     0.0000     0.0000     0.0000     0.0000 </r>
        <r>   -22.4434     0.0000     0.0000     0.0000     0.0000 </r>
        <r>   -22.1679     0.0000     0.0000     0.0000     0.0000 </r>
        <r>   -21.8924     0.0000     0.0000     0.0000     0.0000 </r>
        <r>   -21.6169     0.0000     0.0000     0.0000     0.0000 </r>
        <r>   -21.3413     0.0000     0.0000     0.0000     0.0000 </r>
        <r>   -21.0658     0.0000     0.0000     0.0000     0.0000 </r>
        <r>   -20.7903     0.0000     0.0000     0.0000     0.0000 </r>
        <r>   -20.5148     0.0000     0.0000     0.0000     0.0000 </r>
        <r>   -20.2393     0.0000     0.0000     0.0000     0.0000 </r>
        <r>   -19.9638     0.0000     0.0000     0.0000     0.0000 </r>
        <r>   -19.6883     0.0000     0.0000     0.0000     0.0000 </r>
        <r>   -19.4128     0.0000     0.0000     0.0000     0.0000 </r>
        <r>   -19.1373     0.0000     0.0000     0.0000     0.0000 </r>
        <r>   -18.8617     0.0000     0.0000     0.0000     0.0000 </r>
        <r>   -18.5862     0.0000     0.0000     0.0000     0.0000 </r>
        <r>   -18.3107     0.0000     0.0000     0.0000     0.0000 </r>
        <r>   -18.0352     0.0000     0.0000     0.0000     0.0000 </r>
        <r>   -17.7597     0.0000     0.0000     0.0000     0.0000 </r>
        <r>   -17.4842     0.0000     0.0000     0.0000     0.0000 </r>
        <r>   -17.2087     0.0000     0.0000     0.0000     0.0000 </r>
        <r>   -16.9332     0.0000     0.0000     0.0000     0.0000 </r>
        <r>   -16.6576     0.0000     0.0000     0.0000     0.0000 </r>
        <r>   -16.3821     0.0000     0.0000     0.0000     0.0000 </r>
        <r>   -16.1066     0.0000     0.0000     0.0000     0.0000 </r>
        <r>   -15.8311     0.0000     0.0000     0.0000     0.0000 </r>
        <r>   -15.5556     0.0000     0.0000     0.0000     0.0000 </r>
        <r>   -15.2801     0.0000     0.0000     0.0000     0.0000 </r>
        <r>   -15.0046     0.0000     0.0000     0.0000     0.0000 </r>
        <r>   -14.7291     0.0000     0.0000     0.0000     0.0000 </r>
        <r>   -14.4536     0.0000     0.0000     0.0000     0.0000 </r>
        <r>   -14.1780     0.0000     0.0000     0.0000     0.0000 </r>
        <r>   -13.9025     0.0000     0.0000     0.0000     0.0000 </r>
        <r>   -13.6270     0.0000     0.0000     0.0000     0.0000 </r>
        <r>   -13.3515     0.0000     0.0000     0.0000     0.0000 </r>
        <r>   -13.0760     0.0000     0.0000     0.0000     0.0000 </r>
        <r>   -12.8005     0.0000     0.0000     0.0000     0.0000 </r>
        <r>   -12.5250     0.0000     0.0000     0.0000     0.0000 </r>
        <r>   -12.2495     0.0000     0.0000     0.0000     0.0000 </r>
        <r>   -11.9739     0.0000     0.0000     0.0000     0.0000 </r>
        <r>   -11.6984     0.0000     0.0000     0.0000     0.0000 </r>
        <r>   -11.4229     0.0000     0.0000     0.0000     0.0000 </r>
        <r>   -11.1474     0.0000     0.0000     0.0000     0.0000 </r>
        <r>   -10.8719     0.0000     0.0000     0.0000     0.0000 </r>
        <r>   -10.5964     0.0000     0.0000     0.0000     0.0000 </r>
        <r>   -10.3209     0.0000     0.0000     0.0000     0.0000 </r>
        <r>   -10.0454     0.0000     0.0000     0.0000     0.0000 </r>
        <r>    -9.7699     0.0000     0.0000     0.0000     0.0000 </r>
        <r>    -9.4943     0.0000     0.0000     0.0000     0.0000 </r>
        <r>    -9.2188     0.0000     0.0000     0.0000     0.0000 </r>
        <r>    -8.9433     0.0000     0.0000     0.0000     0.0000 </r>
        <r>    -8.6678     0.0000     0.0000     0.0000     0.0000 </r>
        <r>    -8.3923     0.0000     0.0000     0.0000     0.0000 </r>
        <r>    -8.1168     0.0000     0.0000     0.0000     0.0000 </r>
        <r>    -7.8413     0.0000     0.0000     0.0000     0.0000 </r>
        <r>    -7.5658     0.0000     0.0000     0.0000     0.0000 </r>
        <r>    -7.2903     0.0000     0.0000     0.0000     0.0000 </r>
        <r>    -7.0147     0.0000     0.0000     0.0000     0.0000 </r>
        <r>    -6.7392     0.2829     0.0041     0.5426     0.0025 </r>
        <r>    -6.4637     0.0000     0.0000     0.0000     0.0000 </r>
        <r>    -6.1882     0.0000     0.0000     0.0000     0.0000 </r>
        <r>    -5.9127     0.0000     0.0000     0.0000     0.0000 </r>
        <r>    -5.6372     0.0000     0.0000     0.0000     0.0000 </r>
        <r>    -5.3617     0.0000     0.0000     0.0000     0.0000 </r>
        <r>    -5.0862     0.0000     0.0000     0.0000     0.0000 </r>
        <r>    -4.8106     0.0000     0.0000     0.0000     0.0000 </r>
        <r>    -4.5351     0.0000     0.0000     0.0000     0.0000 </r>
        <r>    -4.2596     0.0000     0.0000     0.0000     0.0000 </r>
        <r>    -3.9841     0.0000     0.0000     0.0000     0.0000 </r>
        <r>    -3.7086     0.0000     0.0000     0.0000     0.0000 </r>
        <r>    -3.4331     0.0345     0.0108     0.6269     0.0040 </r>
        <r>    -3.1576     0.0021     0.0003     0.0023     0.0000 </r>
        <r>    -2.8821     0.0000     0.0000     0.0000     0.0000 </r>
        <r>    -2.6066     0.0000     0.0000     0.0000     0.0000 </r>
        <r>    -2.3310     0.0000     0.0000     0.0000     0.0000 </r>
        <r>    -2.0555     0.0000     0.0000     0.0000     0.0000 </r>
        <r>    -1.7800     0.0000     0.0000     0.0000     0.0000 </r>
        <r>    -1.5045     0.0000     0.0000     0.0000     0.0000 </r>
        <r>    -1.2290     0.0000     0.0000     0.0000     0.0000 </r>
        <r>    -0.9535     0.0000     0.0000     0.0000     0.0000 </r>
        <r>    -0.6780     0.0000     0.0000     0.0000     0.0000 </r>
        <r>    -0.4025     0.0000     0.0000     0.0000     0.0000 </r>
        <r>    -0.1269     0.0000     0.0000     0.0000     0.0000 </r>
        <r>     0.1486     0.0000     0.0000     0.0000     0.0000 </r>
        <r>     0.4241     0.0000     0.0000     0.0000     0.0000 </r>
        <r>     0.6996     0.0000     0.0000     0.0000     0.0000 </r>
        <r>     0.9751     0.0000     0.0000     0.0000     0.0000 </r>
        <r>     1.2506     0.0000     0.0000     0.0000     0.0000 </r>
        <r>     1.5261     0.0000     0.0000     0.0000     0.0000 </r>
        <r>     1.8016     0.0000     0.0000     0.0000     0.0000 </r>
        <r>     2.0771     0.0000     0.0000     0.0000     0.0000 </r>
        <r>     2.3527     0.0000     0.0000     0.0000     0.0000 </r>
       </set>
       <set comment="spin 2">
        <r>   -80.3008     0.0000     0.0000     0.0000     0.0000 </r>
        <r>   -80.0253     0.0000     0.0000     0.0000     0.0000 </r>
        <r>   -79.7498     0.0000     0.0000     0.0000     0.0000 </r>
        <r>   -79.4743     0.0000     0.0000     0.0000     0.0000 </r>
        <r>   -79.1988     0.0000     0.0000     0.0000     0.0000 </r>
        <r>   -78.9233     0.0000     0.0000     0.0000     0.0000 </r>
        <r>   -78.6478     0.0000     0.0000     0.0000     0.0000 </r>
        <r>   -78.3723     0.0000     0.0000     0.0000     0.0000 </r>
        <r>   -78.0967     0.0000     0.0000     0.0000     0.0000 </r>
        <r>   -77.8212     0.0000     0.0000     0.0000     0.0000 </r>
        <r>   -77.5457     0.0000     0.0000     0.0000     0.0000 </r>
        <r>   -77.2702     0.0000     0.0000     0.0000     0.0000 </r>
        <r>   -76.9947     0.0000     0.0000     0.0000     0.0000 </r>
        <r>   -76.7192     0.0000     0.0000     0.0000     0.0000 </r>
        <r>   -76.4437     0.0000     0.0000     0.0000     0.0000 </r>
        <r>   -76.1682     0.0000     0.0000     0.0000     0.0000 </r>
        <r>   -75.8926     0.0000     0.0000     0.0000     0.0000 </r>
        <r>   -75.6171     0.0000     0.0000     0.0000     0.0000 </r>
        <r>   -75.3416     0.0000     0.0000     0.0000     0.0000 </r>
        <r>   -75.0661     0.0000     0.0000     0.0000     0.0000 </r>
        <r>   -74.7906     0.0000     0.0000     0.0000     0.0000 </r>
        <r>   -74.5151     0.0000     0.0000     0.0000     0.0000 </r>
        <r>   -74.2396     0.0000     0.0000     0.0000     0.0000 </r>
        <r>   -73.9641     0.0000     0.0000     0.0000     0.0000 </r>
        <r>   -73.6886     0.0000     0.0000     0.0000     0.0000 </r>
        <r>   -73.4130     0.0000     0.0000     0.0000     0.0000 </r>
        <r>   -73.1375     0.0000     0.0000     0.0000     0.0000 </r>
        <r>   -72.8620     0.0000     0.0000     0.0000     0.0000 </r>
        <r>   -72.5865     0.0000     0.0000     0.0000     0.0000 </r>
        <r>   -72.3110     0.0000     0.0000     0.0000     0.0000 </r>
        <r>   -72.0355     0.0000     0.0000     0.0000     0.0000 </r>
        <r>   -71.7600     0.0000     0.0000     0.0000     0.0000 </r>
        <r>   -71.4845     0.0000     0.0000     0.0000     0.0000 </r>
        <r>   -71.2090     0.0000     0.0000     0.0000     0.0000 </r>
        <r>   -70.9334     0.0000     0.0000     0.0000     0.0000 </r>
        <r>   -70.6579     0.0000     0.0000     0.0000     0.0000 </r>
        <r>   -70.3824     0.0000     0.0000     0.0000     0.0000 </r>
        <r>   -70.1069     0.0000     0.0000     0.0000     0.0000 </r>
        <r>   -69.8314     0.0000     0.0000     0.0000     0.0000 </r>
        <r>   -69.5559     0.0000     0.0000     0.0000     0.0000 </r>
        <r>   -69.2804     0.0000     0.0000     0.0000     0.0000 </r>
        <r>   -69.0049     0.0000     0.0000     0.0000     0.0000 </r>
        <r>   -68.7293     0.0000     0.0000     0.0000     0.0000 </r>
        <r>   -68.4538     0.0000     0.0000     0.0000     0.0000 </r>
        <r>   -68.1783     0.0000     0.0000     0.0000     0.0000 </r>
        <r>   -67.9028     0.0000     0.0000     0.0000     0.0000 </r>
        <r>   -67.6273     0.0000     0.0000     0.0000     0.0000 </r>
        <r>   -67.3518     0.0000     0.0000     0.0000     0.0000 </r>
        <r>   -67.0763     0.0000     0.0000     0.0000     0.0000 </r>
        <r>   -66.8008     0.0000     0.0000     0.0000     0.0000 </r>
        <r>   -66.5253     0.0000     0.0000     0.0000     0.0000 </r>
        <r>   -66.2497     0.0000     0.0000     0.0000     0.0000 </r>
        <r>   -65.9742     0.0000     0.0000     0.0000     0.0000 </r>
        <r>   -65.6987     0.0000     0.0000     0.0000     0.0000 </r>
        <r>   -65.4232     0.0000     0.0000     0.0000     0.0000 </r>
        <r>   -65.1477     0.0000     0.0000     0.0000     0.0000 </r>
        <r>   -64.8722     0.0000     0.0000     0.0000     0.0000 </r>
        <r>   -64.5967     0.0000     0.0000     0.0000     0.0000 </r>
        <r>   -64.3212     0.0000     0.0000     0.0000     0.0000 </r>
        <r>   -64.0456     0.0000     0.0000     0.0000     0.0000 </r>
        <r>   -63.7701     0.0000     0.0000     0.0000     0.0000 </r>
        <r>   -63.4946     0.0000     0.0000     0.0000     0.0000 </r>
        <r>   -63.2191     0.0000     0.0000     0.0000     0.0000 </r>
        <r>   -62.9436     0.0000     0.0000     0.0000     0.0000 </r>
        <r>   -62.6681     0.0000     0.0000     0.0000     0.0000 </r>
        <r>   -62.3926     0.0000     0.0000     0.0000     0.0000 </r>
        <r>   -62.1171     0.0000     0.0000     0.0000     0.0000 </r>
        <r>   -61.8416     0.0000     0.0000     0.0000     0.0000 </r>
        <r>   -61.5660     0.0000     0.0000     0.0000     0.0000 </r>
        <r>   -61.2905     0.0000     0.0000     0.0000     0.0000 </r>
        <r>   -61.0150     0.0000     0.0000     0.0000     0.0000 </r>
        <r>   -60.7395     0.0000     0.0000     0.0000     0.0000 </r>
        <r>   -60.4640     0.0000     0.0000     0.0000     0.0000 </r>
        <r>   -60.1885     0.0000     0.0000     0.0000     0.0000 </r>
        <r>   -59.9130     0.0000     0.0000     0.0000     0.0000 </r>
        <r>   -59.6375     0.0000     0.0000     0.0000     0.0000 </r>
        <r>   -59.3620     0.0000     0.0000     0.0000     0.0000 </r>
        <r>   -59.0864     0.0000     0.0000     0.0000     0.0000 </r>
        <r>   -58.8109     0.0000     0.0000     0.0000     0.0000 </r>
        <r>   -58.5354     0.0000     0.0000     0.0000     0.0000 </r>
        <r>   -58.2599     0.0000     0.0000     0.0000     0.0000 </r>
        <r>   -57.9844     0.0000     0.0000     0.0000     0.0000 </r>
        <r>   -57.7089     0.0000     0.0000     0.0000     0.0000 </r>
        <r>   -57.4334     0.0000     0.0000     0.0000     0.0000 </r>
        <r>   -57.1579     0.0000     0.0000     0.0000     0.0000 </r>
        <r>   -56.8823     0.0000     0.0000     0.0000     0.0000 </r>
        <r>   -56.6068     0.0000     0.0000     0.0000     0.0000 </r>
        <r>   -56.3313     0.0000     0.0000     0.0000     0.0000 </r>
        <r>   -56.0558     0.0000     0.0000     0.0000     0.0000 </r>
        <r>   -55.7803     0.0000     0.0000     0.0000     0.0000 </r>
        <r>   -55.5048     0.0000     0.0000     0.0000     0.0000 </r>
        <r>   -55.2293     0.0000     0.0000     0.0000     0.0000 </r>
        <r>   -54.9538     0.0000     0.0000     0.0000     0.0000 </r>
        <r>   -54.6783     0.0000     0.0000     0.0000     0.0000 </r>
        <r>   -54.4027     0.0000     0.0000     0.0000     0.0000 </r>
        <r>   -54.1272     0.0000     0.0000     0.0000     0.0000 </r>
        <r>   -53.8517     0.0000     0.0000     0.0000     0.0000 </r>
        <r>   -53.5762     0.0000     0.0000     0.0000     0.0000 </r>
        <r>   -53.3007     0.0000     0.0000     0.0000     0.0000 </r>
        <r>   -53.0252     0.0000     0.0000     0.0000     0.0000 </r>
        <r>   -52.7497     0.0000     0.0000     0.0000     0.0000 </r>
        <r>   -52.4742     0.0000     0.0000     0.0000     0.0000 </r>
        <r>   -52.1986     0.0000     0.0000     0.0000     0.0000 </r>
        <r>   -51.9231     0.0000     0.0000     0.0000     0.0000 </r>
        <r>   -51.6476     0.0000     0.0000     0.0000     0.0000 </r>
        <r>   -51.3721     0.0000     0.0000     0.0000     0.0000 </r>
        <r>   -51.0966     0.0000     0.0000     0.0000     0.0000 </r>
        <r>   -50.8211     0.0000     0.0000     0.0000     0.0000 </r>
        <r>   -50.5456     0.0000     0.0000     0.0000     0.0000 </r>
        <r>   -50.2701     0.0000     0.0000     0.0000     0.0000 </r>
        <r>   -49.9946     0.0000     0.0000     0.0000     0.0000 </r>
        <r>   -49.7190     0.0000     0.0000     0.0000     0.0000 </r>
        <r>   -49.4435     0.0000     0.0000     0.0000     0.0000 </r>
        <r>   -49.1680     0.0000     0.0000     0.0000     0.0000 </r>
        <r>   -48.8925     0.0000     0.0000     0.0000     0.0000 </r>
        <r>   -48.6170     0.0000     0.0000     0.0000     0.0000 </r>
        <r>   -48.3415     0.0000     0.0000     0.0000     0.0000 </r>
        <r>   -48.0660     0.0000     0.0000     0.0000     0.0000 </r>
        <r>   -47.7905     0.0000     0.0000     0.0000     0.0000 </r>
        <r>   -47.5150     0.0000     0.0000     0.0000     0.0000 </r>
        <r>   -47.2394     0.0000     0.0000     0.0000     0.0000 </r>
        <r>   -46.9639     0.0000     0.0000     0.0000     0.0000 </r>
        <r>   -46.6884     0.0000     0.0000     0.0000     0.0000 </r>
        <r>   -46.4129     0.0000     0.0000     0.0000     0.0000 </r>
        <r>   -46.1374     0.0000     0.0000     0.0000     0.0000 </r>
        <r>   -45.8619     0.0000     0.8786     0.0018     0.0004 </r>
        <r>   -45.5864     0.0000     0.0000     0.0000     0.0000 </r>
        <r>   -45.3109     0.0000     0.0000     0.0000     0.0000 </r>
        <r>   -45.0353     0.0000     0.0000     0.0000     0.0000 </r>
        <r>   -44.7598     0.0014     1.7428     0.0007     0.0000 </r>
        <r>   -44.4843     0.0000     0.0000     0.0000     0.0000 </r>
        <r>   -44.2088     0.0000     0.0000     0.0000     0.0000 </r>
        <r>   -43.9333     0.0000     0.0000     0.0000     0.0000 </r>
        <r>   -43.6578     0.0000     0.0000     0.0000     0.0000 </r>
        <r>   -43.3823     0.0000     0.0000     0.0000     0.0000 </r>
        <r>   -43.1068     0.0000     0.0000     0.0000     0.0000 </r>
        <r>   -42.8313     0.0000     0.0000     0.0000     0.0000 </r>
        <r>   -42.5557     0.0000     0.0000     0.0000     0.0000 </r>
        <r>   -42.2802     0.0000     0.0000     0.0000     0.0000 </r>
        <r>   -42.0047     0.0000     0.0000     0.0000     0.0000 </r>
        <r>   -41.7292     0.0000     0.0000     0.0000     0.0000 </r>
        <r>   -41.4537     0.0000     0.0000     0.0000     0.0000 </r>
        <r>   -41.1782     0.0000     0.0000     0.0000     0.0000 </r>
        <r>   -40.9027     0.0000     0.0000     0.0000     0.0000 </r>
        <r>   -40.6272     0.0000     0.0000     0.0000     0.0000 </r>
        <r>   -40.3516     0.0000     0.0000     0.0000     0.0000 </r>
        <r>   -40.0761     0.0000     0.0000     0.0000     0.0000 </r>
        <r>   -39.8006     0.0000     0.0000     0.0000     0.0000 </r>
        <r>   -39.5251     0.0000     0.0000     0.0000     0.0000 </r>
        <r>   -39.2496     0.0000     0.0000     0.0000     0.0000 </r>
        <r>   -38.9741     0.0000     0.0000     0.0000     0.0000 </r>
        <r>   -38.6986     0.0000     0.0000     0.0000     0.0000 </r>
        <r>   -38.4231     0.0000     0.0000     0.0000     0.0000 </r>
        <r>   -38.1476     0.0000     0.0000     0.0000     0.0000 </r>
        <r>   -37.8720     0.0000     0.0000     0.0000     0.0000 </r>
        <r>   -37.5965     0.0000     0.0000     0.0000     0.0000 </r>
        <r>   -37.3210     0.0000     0.0000     0.0000     0.0000 </r>
        <r>   -37.0455     0.0000     0.0000     0.0000     0.0000 </r>
        <r>   -36.7700     0.0000     0.0000     0.0000     0.0000 </r>
        <r>   -36.4945     0.0000     0.0000     0.0000     0.0000 </r>
        <r>   -36.2190     0.0000     0.0000     0.0000     0.0000 </r>
        <r>   -35.9435     0.0000     0.0000     0.0000     0.0000 </r>
        <r>   -35.6679     0.0000     0.0000     0.0000     0.0000 </r>
        <r>   -35.3924     0.0000     0.0000     0.0000     0.0000 </r>
        <r>   -35.1169     0.0000     0.0000     0.0000     0.0000 </r>
        <r>   -34.8414     0.0000     0.0000     0.0000     0.0000 </r>
        <r>   -34.5659     0.0000     0.0000     0.0000     0.0000 </r>
        <r>   -34.2904     0.0000     0.0000     0.0000     0.0000 </r>
        <r>   -34.0149     0.0000     0.0000     0.0000     0.0000 </r>
        <r>   -33.7394     0.0000     0.0000     0.0000     0.0000 </r>
        <r>   -33.4639     0.0000     0.0000     0.0000     0.0000 </r>
        <r>   -33.1883     0.0000     0.0000     0.0000     0.0000 </r>
        <r>   -32.9128     0.0000     0.0000     0.0000     0.0000 </r>
        <r>   -32.6373     0.0000     0.0000     0.0000     0.0000 </r>
        <r>   -32.3618     0.0000     0.0000     0.0000     0.0000 </r>
        <r>   -32.0863     0.0000     0.0000     0.0000     0.0000 </r>
        <r>   -31.8108     0.0000     0.0000     0.0000     0.0000 </r>
        <r>   -31.5353     0.0000     0.0000     0.0000     0.0000 </r>
        <r>   -31.2598     0.0000     0.0000     0.0000     0.0000 </r>
        <r>   -30.9843     0.0000     0.0000     0.0000     0.0000 </r>
        <r>   -30.7087     0.0000     0.0000     0.0000     0.0000 </r>
        <r>   -30.4332     0.0000     0.0000     0.0000     0.0000 </r>
        <r>   -30.1577     0.0000     0.0000     0.0000     0.0000 </r>
        <r>   -29.8822     0.0000     0.0000     0.0000     0.0000 </r>
        <r>   -29.6067     0.0000     0.0000     0.0000     0.0000 </r>
        <r>   -29.3312     0.0000     0.0000     0.0000     0.0000 </r>
        <r>   -29.0557     0.0000     0.0000     0.0000     0.0000 </r>
        <r>   -28.7802     0.0000     0.0000     0.0000     0.0000 </r>
        <r>   -28.5046     0.0000     0.0000     0.0000     0.0000 </r>
        <r>   -28.2291     0.0000     0.0000     0.0000     0.0000 </r>
        <r>   -27.9536     0.0000     0.0000     0.0000     0.0000 </r>
        <r>   -27.6781     0.0000     0.0000     0.0000     0.0000 </r>
        <r>   -27.4026     0.0000     0.0000     0.0000     0.0000 </r>
        <r>   -27.1271     0.0000     0.0000     0.0000     0.0000 </r>
        <r>   -26.8516     0.0000     0.0000     0.0000     0.0000 </r>
        <r>   -26.5761     0.0000     0.0000     0.0000     0.0000 </r>
        <r>   -26.3006     0.0000     0.0000     0.0000     0.0000 </r>
        <r>   -26.0250     0.0000     0.0000     0.0000     0.0000 </r>
        <r>   -25.7495     0.0000     0.0000     0.0000     0.0000 </r>
        <r>   -25.4740     0.0000     0.0000     0.0000     0.0000 </r>
        <r>   -25.1985     0.0000     0.0000     0.0000     0.0000 </r>
        <r>   -24.9230     0.0000     0.0000     0.0000     0.0000 </r>
        <r>   -24.6475     0.0000     0.0000     0.0000     0.0000 </r>
        <r>   -24.3720     0.0000     0.0000     0.0000     0.0000 </r>
        <r>   -24.0965     0.0000     0.0000     0.0000     0.0000 </r>
        <r>   -23.8209     0.0000     0.0000     0.0000     0.0000 </r>
        <r>   -23.5454     0.0000     0.0000     0.0000     0.0000 </r>
        <r>   -23.2699     0.0000     0.0000     0.0000     0.0000 </r>
        <r>   -22.9944     0.0000     0.0000     0.0000     0.0000 </r>
        <r>   -22.7189     0.0000     0.0000     0.0000     0.0000 </r>
        <r>   -22.4434     0.0000     0.0000     0.0000     0.0000 </r>
        <r>   -22.1679     0.0000     0.0000     0.0000     0.0000 </r>
        <r>   -21.8924     0.0000     0.0000     0.0000     0.0000 </r>
        <r>   -21.6169     0.0000     0.0000     0.0000     0.0000 </r>
        <r>   -21.3413     0.0000     0.0000     0.0000     0.0000 </r>
        <r>   -21.0658     0.0000     0.0000     0.0000     0.0000 </r>
        <r>   -20.7903     0.0000     0.0000     0.0000     0.0000 </r>
        <r>   -20.5148     0.0000     0.0000     0.0000     0.0000 </r>
        <r>   -20.2393     0.0000     0.0000     0.0000     0.0000 </r>
        <r>   -19.9638     0.0000     0.0000     0.0000     0.0000 </r>
        <r>   -19.6883     0.0000     0.0000     0.0000     0.0000 </r>
        <r>   -19.4128     0.0000     0.0000     0.0000     0.0000 </r>
        <r>   -19.1373     0.0000     0.0000     0.0000     0.0000 </r>
        <r>   -18.8617     0.0000     0.0000     0.0000     0.0000 </r>
        <r>   -18.5862     0.0000     0.0000     0.0000     0.0000 </r>
        <r>   -18.3107     0.0000     0.0000     0.0000     0.0000 </r>
        <r>   -18.0352     0.0000     0.0000     0.0000     0.0000 </r>
        <r>   -17.7597     0.0000     0.0000     0.0000     0.0000 </r>
        <r>   -17.4842     0.0000     0.0000     0.0000     0.0000 </r>
        <r>   -17.2087     0.0000     0.0000     0.0000     0.0000 </r>
        <r>   -16.9332     0.0000     0.0000     0.0000     0.0000 </r>
        <r>   -16.6576     0.0000     0.0000     0.0000     0.0000 </r>
        <r>   -16.3821     0.0000     0.0000     0.0000     0.0000 </r>
        <r>   -16.1066     0.0000     0.0000     0.0000     0.0000 </r>
        <r>   -15.8311     0.0000     0.0000     0.0000     0.0000 </r>
        <r>   -15.5556     0.0000     0.0000     0.0000     0.0000 </r>
        <r>   -15.2801     0.0000     0.0000     0.0000     0.0000 </r>
        <r>   -15.0046     0.0000     0.0000     0.0000     0.0000 </r>
        <r>   -14.7291     0.0000     0.0000     0.0000     0.0000 </r>
        <r>   -14.4536     0.0000     0.0000     0.0000     0.0000 </r>
        <r>   -14.1780     0.0000     0.0000     0.0000     0.0000 </r>
        <r>   -13.9025     0.0000     0.0000     0.0000     0.0000 </r>
        <r>   -13.6270     0.0000     0.0000     0.0000     0.0000 </r>
        <r>   -13.3515     0.0000     0.0000     0.0000     0.0000 </r>
        <r>   -13.0760     0.0000     0.0000     0.0000     0.0000 </r>
        <r>   -12.8005     0.0000     0.0000     0.0000     0.0000 </r>
        <r>   -12.5250     0.0000     0.0000     0.0000     0.0000 </r>
        <r>   -12.2495     0.0000     0.0000     0.0000     0.0000 </r>
        <r>   -11.9739     0.0000     0.0000     0.0000     0.0000 </r>
        <r>   -11.6984     0.0000     0.0000     0.0000     0.0000 </r>
        <r>   -11.4229     0.0000     0.0000     0.0000     0.0000 </r>
        <r>   -11.1474     0.0000     0.0000     0.0000     0.0000 </r>
        <r>   -10.8719     0.0000     0.0000     0.0000     0.0000 </r>
        <r>   -10.5964     0.0000     0.0000     0.0000     0.0000 </r>
        <r>   -10.3209     0.0000     0.0000     0.0000     0.0000 </r>
        <r>   -10.0454     0.0000     0.0000     0.0000     0.0000 </r>
        <r>    -9.7699     0.0000     0.0000     0.0000     0.0000 </r>
        <r>    -9.4943     0.0000     0.0000     0.0000     0.0000 </r>
        <r>    -9.2188     0.0000     0.0000     0.0000     0.0000 </r>
        <r>    -8.9433     0.0000     0.0000     0.0000     0.0000 </r>
        <r>    -8.6678     0.0000     0.0000     0.0000     0.0000 </r>
        <r>    -8.3923     0.0000     0.0000     0.0000     0.0000 </r>
        <r>    -8.1168     0.0000     0.0000     0.0000     0.0000 </r>
        <r>    -7.8413     0.0000     0.0000     0.0000     0.0000 </r>
        <r>    -7.5658     0.0000     0.0000     0.0000     0.0000 </r>
        <r>    -7.2903     0.0000     0.0000     0.0000     0.0000 </r>
        <r>    -7.0147     0.0000     0.0000     0.0000     0.0000 </r>
        <r>    -6.7392     0.0000     0.0000     0.0000     0.0000 </r>
        <r>    -6.4637     0.0000     0.0000     0.0000     0.0000 </r>
        <r>    -6.1882     0.0000     0.0000     0.0000     0.0000 </r>
        <r>    -5.9127     0.0008     0.0000     0.0033     0.0000 </r>
        <r>    -5.6372     0.0000     0.0000     0.0000     0.0000 </r>
        <r>    -5.3617     0.0017     0.0015     0.4781     0.0026 </r>
        <r>    -5.0862     0.0000     0.0000     0.0000     0.0000 </r>
        <r>    -4.8106     0.0000     0.0000     0.0000     0.0000 </r>
        <r>    -4.5351     0.1476     0.0004     0.4440     0.0017 </r>
        <r>    -4.2596     0.0000     0.0000     0.0000     0.0000 </r>
        <r>    -3.9841     0.0000     0.0000     0.0000     0.0000 </r>
        <r>    -3.7086     0.0000     0.0000     0.0000     0.0000 </r>
        <r>    -3.4331     0.0000     0.0000     0.0000     0.0000 </r>
        <r>    -3.1576     0.0000     0.0000     0.0000     0.0000 </r>
        <r>    -2.8821     0.2754     0.0014     1.1794     0.0037 </r>
        <r>    -2.6066     0.0000     0.0000     0.0000     0.0000 </r>
        <r>    -2.3310     0.0000     0.0000     0.0000     0.0000 </r>
        <r>    -2.0555     0.0000     0.0000     0.0000     0.0000 </r>
        <r>    -1.7800     0.0000     0.0000     0.0000     0.0000 </r>
        <r>    -1.5045     0.0000     0.0000     0.0000     0.0000 </r>
        <r>    -1.2290     0.0000     0.0000     0.0000     0.0000 </r>
        <r>    -0.9535     0.0000     0.0000     0.0000     0.0000 </r>
        <r>    -0.6780     0.0000     0.0000     0.0000     0.0000 </r>
        <r>    -0.4025     0.0000     0.0000     0.0000     0.0000 </r>
        <r>    -0.1269     0.0000     0.0000     0.0000     0.0000 </r>
        <r>     0.1486     0.0000     0.0000     0.0000     0.0000 </r>
        <r>     0.4241     0.0000     0.0000     0.0000     0.0000 </r>
        <r>     0.6996     0.0000     0.0000     0.0000     0.0000 </r>
        <r>     0.9751     0.0000     0.0000     0.0000     0.0000 </r>
        <r>     1.2506     0.0000     0.0000     0.0000     0.0000 </r>
        <r>     1.5261     0.0000     0.0000     0.0000     0.0000 </r>
        <r>     1.8016     0.0000     0.0000     0.0000     0.0000 </r>
        <r>     2.0771     0.0000     0.0000     0.0000     0.0000 </r>
        <r>     2.3527     0.0000     0.0000     0.0000     0.0000 </r>
       </set>
      </set>
     </set>
    </array>
   </partial>
  </dos>
  <projected>
   <eigenvalues>
    <array>
     <dimension dim="1">band</dimension>
     <dimension dim="2">kpoint</dimension>
     <dimension dim="3">spin</dimension>
     <field>eigene</field>
     <field>occ</field>
     <set>
      <set comment="spin 1">
       <set comment="kpoint 1">
        <r>  -76.5439    1.0000 </r>
        <r>  -76.3782    1.0000 </r>
        <r>  -76.3781    1.0000 </r>
        <r>  -76.2182    1.0000 </r>
        <r>  -47.1290    1.0000 </r>
        <r>  -47.0157    1.0000 </r>
        <r>  -46.9470    1.0000 </r>
        <r>  -46.9466    1.0000 </r>
        <r>  -46.6301    1.0000 </r>
        <r>  -46.4970    1.0000 </r>
        <r>  -46.4969    1.0000 </r>
        <r>  -46.4003    1.0000 </r>
        <r>  -46.0163    1.0000 </r>
        <r>  -46.0163    1.0000 </r>
        <r>  -45.9174    1.0000 </r>
        <r>  -45.9154    1.0000 </r>
        <r>   -8.1907    1.0000 </r>
        <r>   -7.4734    1.0000 </r>
        <r>   -7.2411    1.0000 </r>
        <r>   -6.7450    1.0000 </r>
        <r>   -6.7154    1.0000 </r>
        <r>   -6.7153    1.0000 </r>
        <r>   -6.5582    1.0000 </r>
        <r>   -6.5574    1.0000 </r>
        <r>   -6.4434    1.0000 </r>
        <r>   -5.7316    1.0000 </r>
        <r>   -5.1311    1.0000 </r>
        <r>   -5.1308    1.0000 </r>
        <r>   -4.5098    1.0000 </r>
        <r>   -4.5095    1.0000 </r>
        <r>   -4.4312    1.0000 </r>
        <r>   -4.2140    1.0000 </r>
        <r>   -4.1071    1.0000 </r>
        <r>   -4.1069    1.0000 </r>
        <r>   -3.8754    1.0000 </r>
        <r>   -3.4685    1.0000 </r>
        <r>   -3.1487    0.0000 </r>
        <r>   -3.1487    0.0000 </r>
        <r>   -2.4888    0.0000 </r>
        <r>   -1.9562    0.0000 </r>
       </set>
      </set>
      <set comment="spin 2">
       <set comment="kpoint 1">
        <r>  -75.3234    1.0000 </r>
        <r>  -75.1521    1.0000 </r>
        <r>  -75.1519    1.0000 </r>
        <r>  -74.9868    1.0000 </r>
        <r>  -46.0277    1.0000 </r>
        <r>  -45.8726    1.0000 </r>
        <r>  -45.8123    1.0000 </r>
        <r>  -45.8119    1.0000 </r>
        <r>  -45.0193    1.0000 </r>
        <r>  -44.9103    1.0000 </r>
        <r>  -44.9102    1.0000 </r>
        <r>  -44.8254    1.0000 </r>
        <r>  -44.8254    1.0000 </r>
        <r>  -44.7789    1.0000 </r>
        <r>  -44.7651    1.0000 </r>
        <r>  -44.7267    1.0000 </r>
        <r>   -7.4132    1.0000 </r>
        <r>   -6.7868    1.0000 </r>
        <r>   -6.0868    1.0000 </r>
        <r>   -6.0090    1.0000 </r>
        <r>   -5.9028    1.0000 </r>
        <r>   -5.9026    1.0000 </r>
        <r>   -5.3606    1.0000 </r>
        <r>   -5.3597    1.0000 </r>
        <r>   -5.2640    1.0000 </r>
        <r>   -4.5589    1.0000 </r>
        <r>   -4.1125    1.0000 </r>
        <r>   -4.1120    1.0000 </r>
        <r>   -2.9096    0.0000 </r>
        <r>   -2.9092    0.0000 </r>
        <r>   -2.7658    0.0000 </r>
        <r>   -2.6588    0.0000 </r>
        <r>   -2.6586    0.0000 </r>
        <r>   -2.5054    0.0000 </r>
        <r>   -2.4934    0.0000 </r>
        <r>   -2.4264    0.0000 </r>
        <r>   -2.4263    0.0000 </r>
        <r>   -2.2068    0.0000 </r>
        <r>   -1.6388    0.0000 </r>
        <r>   -1.4043    0.0000 </r>
       </set>
      </set>
     </set>
    </array>
   </eigenvalues>
   <array>
    <dimension dim="1">ion</dimension>
    <dimension dim="2">band</dimension>
    <dimension dim="3">kpoint</dimension>
    <dimension dim="4">spin</dimension>
    <field>  s</field>
    <field>  p</field>
    <field>  d</field>
    <field>  f</field>
    <set>
     <set comment="spin1">
      <set comment="kpoint 1">
       <set comment="band 1">
        <r>  0.2521  0.0000  0.0000  0.0000 </r>
        <r>  0.2519  0.0000  0.0000  0.0000 </r>
        <r>  0.2508  0.0000  0.0000  0.0000 </r>
        <r>  0.2516  0.0000  0.0000  0.0000 </r>
       </set>
       <set comment="band 2">
        <r>  0.0024  0.0000  0.0001  0.0000 </r>
        <r>  0.5001  0.0000  0.0000  0.0000 </r>
        <r>  0.0024  0.0000  0.0001  0.0000 </r>
        <r>  0.5006  0.0000  0.0000  0.0000 </r>
       </set>
       <set comment="band 3">
        <r>  0.4997  0.0000  0.0000  0.0000 </r>
        <r>  0.0024  0.0000  0.0001  0.0000 </r>
        <r>  0.5011  0.0000  0.0000  0.0000 </r>
        <r>  0.0025  0.0000  0.0001  0.0000 </r>
       </set>
       <set comment="band 4">
        <r>  0.2514  0.0000  0.0000  0.0000 </r>
        <r>  0.2513  0.0000  0.0000  0.0000 </r>
        <r>  0.2513  0.0000  0.0000  0.0000 </r>
        <r>  0.2510  0.0000  0.0000  0.0000 </r>
       </set>
       <set comment="band 5">
        <r>  0.0004  0.2453  0.0002  0.0000 </r>
        <r>  0.0004  0.2445  0.0002  0.0000 </r>
        <r>  0.0004  0.2428  0.0002  0.0000 </r>
        <r>  0.0004  0.2436  0.0002  0.0000 </r>
       </set>
       <set comment="band 6">
        <r>  0.0000  0.2479  0.0004  0.0000 </r>
        <r>  0.0000  0.2459  0.0004  0.0000 </r>
        <r>  0.0000  0.2410  0.0004  0.0000 </r>
        <r>  0.0000  0.2434  0.0004  0.0000 </r>
       </set>
       <set comment="band 7">
        <r>  0.0003  0.2547  0.0002  0.0000 </r>
        <r>  0.0000  0.2343  0.0005  0.0001 </r>
        <r>  0.0003  0.2568  0.0002  0.0000 </r>
        <r>  0.0000  0.2356  0.0005  0.0001 </r>
       </set>
       <set comment="band 8">
        <r>  0.0000  0.2313  0.0005  0.0001 </r>
        <r>  0.0003  0.2547  0.0002  0.0000 </r>
        <r>  0.0000  0.2385  0.0005  0.0001 </r>
        <r>  0.0003  0.2569  0.0002  0.0000 </r>
       </set>
       <set comment="band 9">
        <r>  0.0000  0.2466  0.0000  0.0000 </r>
        <r>  0.0000  0.2465  0.0000  0.0000 </r>
        <r>  0.0000  0.2467  0.0000  0.0000 </r>
        <r>  0.0000  0.2471  0.0000  0.0000 </r>
       </set>
       <set comment="band 10">
        <r>  0.0000  0.0040  0.0000  0.0000 </r>
        <r>  0.0000  0.4910  0.0000  0.0000 </r>
        <r>  0.0000  0.0041  0.0000  0.0000 </r>
        <r>  0.0000  0.4918  0.0000  0.0000 </r>
       </set>
       <set comment="band 11">
        <r>  0.0000  0.4907  0.0000  0.0000 </r>
        <r>  0.0000  0.0041  0.0000  0.0000 </r>
        <r>  0.0000  0.4920  0.0000  0.0000 </r>
        <r>  0.0000  0.0041  0.0000  0.0000 </r>
       </set>
       <set comment="band 12">
        <r>  0.0000  0.2492  0.0000  0.0000 </r>
        <r>  0.0000  0.2490  0.0000  0.0000 </r>
        <r>  0.0000  0.2477  0.0000  0.0000 </r>
        <r>  0.0000  0.2478  0.0000  0.0000 </r>
       </set>
       <set comment="band 13">
        <r>  0.0005  0.2420  0.0001  0.0001 </r>
        <r>  0.0000  0.2556  0.0004  0.0000 </r>
        <r>  0.0005  0.2432  0.0001  0.0001 </r>
        <r>  0.0000  0.2568  0.0004  0.0000 </r>
       </set>
       <set comment="band 14">
        <r>  0.0000  0.2557  0.0004  0.0000 </r>
        <r>  0.0005  0.2425  0.0001  0.0001 </r>
        <r>  0.0000  0.2569  0.0004  0.0000 </r>
        <r>  0.0005  0.2425  0.0001  0.0001 </r>
       </set>
       <set comment="band 15">
        <r>  0.0005  0.2504  0.0002  0.0000 </r>
        <r>  0.0005  0.2503  0.0002  0.0000 </r>
        <r>  0.0005  0.2496  0.0002  0.0000 </r>
        <r>  0.0005  0.2497  0.0002  0.0000 </r>
       </set>
       <set comment="band 16">
        <r>  0.0000  0.2509  0.0004  0.0000 </r>
        <r>  0.0000  0.2504  0.0004  0.0000 </r>
        <r>  0.0000  0.2495  0.0004  0.0000 </r>
        <r>  0.0000  0.2496  0.0004  0.0000 </r>
       </set>
       <set comment="band 17">
        <r>  0.0186  0.0024  0.1859  0.0012 </r>
        <r>  0.0186  0.0024  0.1859  0.0012 </r>
        <r>  0.0186  0.0024  0.1857  0.0012 </r>
        <r>  0.0186  0.0024  0.1858  0.0012 </r>
       </set>
       <set comment="band 18">
        <r>  0.0000  0.0015  0.2293  0.0012 </r>
        <r>  0.0000  0.0015  0.2290  0.0012 </r>
        <r>  0.0000  0.0015  0.2285  0.0012 </r>
        <r>  0.0000  0.0015  0.2287  0.0012 </r>
       </set>
       <set comment="band 19">
        <r>  0.0008  0.0011  0.1922  0.0007 </r>
        <r>  0.0008  0.0011  0.1921  0.0007 </r>
        <r>  0.0008  0.0011  0.1918  0.0007 </r>
        <r>  0.0008  0.0011  0.1920  0.0007 </r>
       </set>
       <set comment="band 20">
        <r>  0.0843  0.0012  0.1628  0.0008 </r>
        <r>  0.0833  0.0012  0.1604  0.0007 </r>
        <r>  0.0812  0.0012  0.1552  0.0007 </r>
        <r>  0.0821  0.0012  0.1576  0.0007 </r>
       </set>
       <set comment="band 21">
        <r>  0.0073  0.0017  0.2395  0.0006 </r>
        <r>  0.0498  0.0016  0.1793  0.0015 </r>
        <r>  0.0073  0.0018  0.2399  0.0006 </r>
        <r>  0.0498  0.0016  0.1790  0.0015 </r>
       </set>
       <set comment="band 22">
        <r>  0.0483  0.0015  0.1753  0.0015 </r>
        <r>  0.0067  0.0017  0.2382  0.0006 </r>
        <r>  0.0515  0.0016  0.1828  0.0016 </r>
        <r>  0.0079  0.0018  0.2414  0.0006 </r>
       </set>
       <set comment="band 23">
        <r>  0.0031  0.0007  0.1964  0.0003 </r>
        <r>  0.0000  0.0000  0.2106  0.0011 </r>
        <r>  0.0030  0.0007  0.1970  0.0003 </r>
        <r>  0.0000  0.0000  0.2093  0.0011 </r>
       </set>
       <set comment="band 24">
        <r>  0.0000  0.0000  0.2118  0.0011 </r>
        <r>  0.0031  0.0007  0.1965  0.0003 </r>
        <r>  0.0000  0.0000  0.2083  0.0011 </r>
        <r>  0.0031  0.0007  0.1967  0.0003 </r>
       </set>
       <set comment="band 25">
        <r>  0.0000  0.0001  0.2000  0.0007 </r>
        <r>  0.0000  0.0001  0.2010  0.0007 </r>
        <r>  0.0000  0.0001  0.2035  0.0007 </r>
        <r>  0.0000  0.0001  0.2025  0.0007 </r>
       </set>
       <set comment="band 26">
        <r>  0.1233  0.0003  0.0580  0.0001 </r>
        <r>  0.1232  0.0003  0.0580  0.0001 </r>
        <r>  0.1232  0.0003  0.0581  0.0001 </r>
        <r>  0.1232  0.0003  0.0580  0.0001 </r>
       </set>
       <set comment="band 27">
        <r>  0.0122  0.0003  0.3824  0.0002 </r>
        <r>  0.0002  0.0024  0.0085  0.0019 </r>
        <r>  0.0122  0.0003  0.3828  0.0002 </r>
        <r>  0.0002  0.0024  0.0085  0.0019 </r>
       </set>
       <set comment="band 28">
        <r>  0.0002  0.0024  0.0085  0.0019 </r>
        <r>  0.0122  0.0003  0.3825  0.0002 </r>
        <r>  0.0002  0.0024  0.0085  0.0019 </r>
        <r>  0.0122  0.0003  0.3827  0.0002 </r>
       </set>
       <set comment="band 29">
        <r>  0.1000  0.0010  0.2384  0.0009 </r>
        <r>  0.0001  0.0000  0.0850  0.0004 </r>
        <r>  0.1005  0.0010  0.2408  0.0009 </r>
        <r>  0.0002  0.0000  0.0851  0.0004 </r>
       </set>
       <set comment="band 30">
        <r>  0.0001  0.0000  0.0851  0.0004 </r>
        <r>  0.1000  0.0010  0.2392  0.0009 </r>
        <r>  0.0001  0.0000  0.0852  0.0004 </r>
        <r>  0.1002  0.0010  0.2401  0.0009 </r>
       </set>
       <set comment="band 31">
        <r>  0.0176  0.0002  0.1981  0.0008 </r>
        <r>  0.0175  0.0002  0.1975  0.0008 </r>
        <r>  0.0172  0.0002  0.1964  0.0008 </r>
        <r>  0.0173  0.0002  0.1969  0.0008 </r>
       </set>
       <set comment="band 32">
        <r>  0.0005  0.0015  0.2029  0.0008 </r>
        <r>  0.0005  0.0015  0.2029  0.0008 </r>
        <r>  0.0006  0.0015  0.2033  0.0008 </r>
        <r>  0.0006  0.0015  0.2032  0.0008 </r>
       </set>
       <set comment="band 33">
        <r>  0.0002  0.0003  0.1838  0.0012 </r>
        <r>  0.0118  0.0021  0.2104  0.0008 </r>
        <r>  0.0002  0.0003  0.1851  0.0012 </r>
        <r>  0.0118  0.0021  0.2100  0.0008 </r>
       </set>
       <set comment="band 34">
        <r>  0.0117  0.0021  0.2107  0.0008 </r>
        <r>  0.0002  0.0003  0.1842  0.0012 </r>
        <r>  0.0117  0.0021  0.2097  0.0008 </r>
        <r>  0.0002  0.0003  0.1847  0.0012 </r>
       </set>
       <set comment="band 35">
        <r>  0.0000  0.0007  0.2165  0.0014 </r>
        <r>  0.0000  0.0007  0.2161  0.0014 </r>
        <r>  0.0000  0.0007  0.2153  0.0014 </r>
        <r>  0.0000  0.0007  0.2156  0.0014 </r>
       </set>
       <set comment="band 36">
        <r>  0.0095  0.0030  0.1729  0.0011 </r>
        <r>  0.0095  0.0030  0.1728  0.0011 </r>
        <r>  0.0095  0.0030  0.1727  0.0011 </r>
        <r>  0.0095  0.0030  0.1727  0.0011 </r>
       </set>
       <set comment="band 37">
        <r>  0.0838  0.0065  0.0419  0.0004 </r>
        <r>  0.0118  0.0060  0.0611  0.0003 </r>
        <r>  0.0838  0.0065  0.0419  0.0004 </r>
        <r>  0.0118  0.0060  0.0612  0.0003 </r>
       </set>
       <set comment="band 38">
        <r>  0.0118  0.0060  0.0611  0.0003 </r>
        <r>  0.0837  0.0065  0.0419  0.0004 </r>
        <r>  0.0118  0.0060  0.0612  0.0003 </r>
        <r>  0.0838  0.0065  0.0419  0.0004 </r>
       </set>
       <set comment="band 39">
        <r>  0.0000  0.0042  0.1919  0.0026 </r>
        <r>  0.0000  0.0042  0.1918  0.0026 </r>
        <r>  0.0000  0.0042  0.1917  0.0026 </r>
        <r>  0.0000  0.0042  0.1917  0.0026 </r>
       </set>
       <set comment="band 40">
        <r>  0.0170  0.0091  0.0112  0.0001 </r>
        <r>  0.0170  0.0091  0.0112  0.0001 </r>
        <r>  0.0170  0.0091  0.0112  0.0001 </r>
        <r>  0.0170  0.0091  0.0112  0.0001 </r>
       </set>
      </set>
     </set>
     <set comment="spin2">
      <set comment="kpoint 1">
       <set comment="band 1">
        <r>  0.2544  0.0000  0.0000  0.0000 </r>
        <r>  0.2541  0.0000  0.0000  0.0000 </r>
        <r>  0.2528  0.0000  0.0000  0.0000 </r>
        <r>  0.2537  0.0000  0.0000  0.0000 </r>
       </set>
       <set comment="band 2">
        <r>  0.0025  0.0000  0.0001  0.0000 </r>
        <r>  0.5041  0.0000  0.0000  0.0000 </r>
        <r>  0.0025  0.0000  0.0001  0.0000 </r>
        <r>  0.5045  0.0000  0.0000  0.0000 </r>
       </set>
       <set comment="band 3">
        <r>  0.5036  0.0000  0.0000  0.0000 </r>
        <r>  0.0025  0.0000  0.0001  0.0000 </r>
        <r>  0.5050  0.0000  0.0000  0.0000 </r>
        <r>  0.0026  0.0000  0.0001  0.0000 </r>
       </set>
       <set comment="band 4">
        <r>  0.2532  0.0000  0.0000  0.0000 </r>
        <r>  0.2531  0.0000  0.0000  0.0000 </r>
        <r>  0.2534  0.0000  0.0000  0.0000 </r>
        <r>  0.2529  0.0000  0.0000  0.0000 </r>
       </set>
       <set comment="band 5">
        <r>  0.0005  0.2446  0.0002  0.0001 </r>
        <r>  0.0005  0.2439  0.0002  0.0001 </r>
        <r>  0.0005  0.2422  0.0002  0.0001 </r>
        <r>  0.0005  0.2430  0.0002  0.0001 </r>
       </set>
       <set comment="band 6">
        <r>  0.0000  0.2482  0.0005  0.0001 </r>
        <r>  0.0000  0.2456  0.0005  0.0001 </r>
        <r>  0.0000  0.2395  0.0005  0.0001 </r>
        <r>  0.0000  0.2424  0.0005  0.0001 </r>
       </set>
       <set comment="band 7">
        <r>  0.0004  0.2584  0.0002  0.0001 </r>
        <r>  0.0000  0.2297  0.0005  0.0001 </r>
        <r>  0.0004  0.2603  0.0002  0.0001 </r>
        <r>  0.0000  0.2310  0.0005  0.0001 </r>
       </set>
       <set comment="band 8">
        <r>  0.0000  0.2257  0.0005  0.0001 </r>
        <r>  0.0004  0.2580  0.0002  0.0001 </r>
        <r>  0.0000  0.2348  0.0005  0.0001 </r>
        <r>  0.0004  0.2608  0.0002  0.0001 </r>
       </set>
       <set comment="band 9">
        <r>  0.0000  0.2464  0.0000  0.0000 </r>
        <r>  0.0000  0.2462  0.0000  0.0000 </r>
        <r>  0.0000  0.2458  0.0000  0.0000 </r>
        <r>  0.0000  0.2464  0.0000  0.0000 </r>
       </set>
       <set comment="band 10">
        <r>  0.0000  0.0598  0.0001  0.0000 </r>
        <r>  0.0001  0.4351  0.0000  0.0000 </r>
        <r>  0.0000  0.0600  0.0001  0.0000 </r>
        <r>  0.0001  0.4354  0.0000  0.0000 </r>
       </set>
       <set comment="band 11">
        <r>  0.0001  0.4347  0.0000  0.0000 </r>
        <r>  0.0000  0.0600  0.0001  0.0000 </r>
        <r>  0.0001  0.4356  0.0000  0.0000 </r>
        <r>  0.0000  0.0600  0.0001  0.0000 </r>
       </set>
       <set comment="band 12">
        <r>  0.0000  0.2052  0.0003  0.0000 </r>
        <r>  0.0003  0.2914  0.0001  0.0000 </r>
        <r>  0.0000  0.2062  0.0003  0.0000 </r>
        <r>  0.0003  0.2924  0.0001  0.0000 </r>
       </set>
       <set comment="band 13">
        <r>  0.0003  0.2913  0.0001  0.0000 </r>
        <r>  0.0000  0.2053  0.0003  0.0000 </r>
        <r>  0.0003  0.2929  0.0001  0.0000 </r>
        <r>  0.0000  0.2058  0.0003  0.0000 </r>
       </set>
       <set comment="band 14">
        <r>  0.0000  0.2487  0.0000  0.0000 </r>
        <r>  0.0000  0.2484  0.0000  0.0000 </r>
        <r>  0.0000  0.2476  0.0000  0.0000 </r>
        <r>  0.0000  0.2474  0.0000  0.0000 </r>
       </set>
       <set comment="band 15">
        <r>  0.0004  0.2502  0.0002  0.0000 </r>
        <r>  0.0004  0.2501  0.0002  0.0000 </r>
        <r>  0.0004  0.2495  0.0002  0.0000 </r>
        <r>  0.0004  0.2496  0.0002  0.0000 </r>
       </set>
       <set comment="band 16">
        <r>  0.0000  0.2504  0.0004  0.0000 </r>
        <r>  0.0000  0.2501  0.0004  0.0000 </r>
        <r>  0.0000  0.2494  0.0004  0.0000 </r>
        <r>  0.0000  0.2494  0.0004  0.0000 </r>
       </set>
       <set comment="band 17">
        <r>  0.0260  0.0037  0.1740  0.0014 </r>
        <r>  0.0260  0.0037  0.1739  0.0014 </r>
        <r>  0.0260  0.0037  0.1737  0.0014 </r>
        <r>  0.0260  0.0037  0.1739  0.0014 </r>
       </set>
       <set comment="band 18">
        <r>  0.0000  0.0019  0.2280  0.0014 </r>
        <r>  0.0000  0.0019  0.2278  0.0014 </r>
        <r>  0.0000  0.0019  0.2272  0.0014 </r>
        <r>  0.0000  0.0019  0.2275  0.0014 </r>
       </set>
       <set comment="band 19">
        <r>  0.1457  0.0016  0.0918  0.0006 </r>
        <r>  0.1456  0.0016  0.0916  0.0006 </r>
        <r>  0.1450  0.0016  0.0911  0.0006 </r>
        <r>  0.1453  0.0016  0.0914  0.0006 </r>
       </set>
       <set comment="band 20">
        <r>  0.0007  0.0020  0.1803  0.0010 </r>
        <r>  0.0007  0.0020  0.1801  0.0010 </r>
        <r>  0.0008  0.0020  0.1798  0.0010 </r>
        <r>  0.0007  0.0020  0.1799  0.0010 </r>
       </set>
       <set comment="band 21">
        <r>  0.0057  0.0026  0.2656  0.0005 </r>
        <r>  0.0847  0.0021  0.1261  0.0019 </r>
        <r>  0.0057  0.0026  0.2661  0.0005 </r>
        <r>  0.0848  0.0021  0.1260  0.0019 </r>
       </set>
       <set comment="band 22">
        <r>  0.0844  0.0021  0.1257  0.0019 </r>
        <r>  0.0056  0.0026  0.2657  0.0005 </r>
        <r>  0.0851  0.0021  0.1263  0.0019 </r>
        <r>  0.0058  0.0026  0.2663  0.0005 </r>
       </set>
       <set comment="band 23">
        <r>  0.0016  0.0013  0.1794  0.0004 </r>
        <r>  0.0000  0.0001  0.2136  0.0015 </r>
        <r>  0.0016  0.0013  0.1800  0.0004 </r>
        <r>  0.0000  0.0001  0.2119  0.0015 </r>
       </set>
       <set comment="band 24">
        <r>  0.0000  0.0001  0.2150  0.0015 </r>
        <r>  0.0016  0.0013  0.1795  0.0004 </r>
        <r>  0.0000  0.0001  0.2108  0.0015 </r>
        <r>  0.0016  0.0013  0.1797  0.0004 </r>
       </set>
       <set comment="band 25">
        <r>  0.0000  0.0001  0.1939  0.0009 </r>
        <r>  0.0000  0.0001  0.1951  0.0009 </r>
        <r>  0.0000  0.0001  0.1981  0.0009 </r>
        <r>  0.0000  0.0001  0.1969  0.0009 </r>
       </set>
       <set comment="band 26">
        <r>  0.0407  0.0001  0.1222  0.0005 </r>
        <r>  0.0407  0.0001  0.1223  0.0005 </r>
        <r>  0.0406  0.0001  0.1223  0.0005 </r>
        <r>  0.0407  0.0001  0.1223  0.0005 </r>
       </set>
       <set comment="band 27">
        <r>  0.0241  0.0002  0.3289  0.0002 </r>
        <r>  0.0001  0.0037  0.0206  0.0020 </r>
        <r>  0.0241  0.0002  0.3292  0.0002 </r>
        <r>  0.0001  0.0037  0.0206  0.0020 </r>
       </set>
       <set comment="band 28">
        <r>  0.0001  0.0037  0.0206  0.0020 </r>
        <r>  0.0240  0.0002  0.3290  0.0002 </r>
        <r>  0.0001  0.0037  0.0206  0.0020 </r>
        <r>  0.0241  0.0002  0.3291  0.0002 </r>
       </set>
       <set comment="band 29">
        <r>  0.0758  0.0004  0.2863  0.0005 </r>
        <r>  0.0001  0.0000  0.0377  0.0005 </r>
        <r>  0.0759  0.0004  0.2875  0.0005 </r>
        <r>  0.0001  0.0000  0.0378  0.0005 </r>
       </set>
       <set comment="band 30">
        <r>  0.0001  0.0000  0.0378  0.0005 </r>
        <r>  0.0757  0.0004  0.2868  0.0005 </r>
        <r>  0.0001  0.0000  0.0378  0.0005 </r>
        <r>  0.0758  0.0004  0.2872  0.0005 </r>
       </set>
       <set comment="band 31">
        <r>  0.0119  0.0004  0.1977  0.0008 </r>
        <r>  0.0119  0.0004  0.1975  0.0008 </r>
        <r>  0.0118  0.0004  0.1976  0.0008 </r>
        <r>  0.0118  0.0004  0.1977  0.0008 </r>
       </set>
       <set comment="band 32">
        <r>  0.0000  0.0008  0.1595  0.0011 </r>
        <r>  0.0010  0.0023  0.2251  0.0007 </r>
        <r>  0.0000  0.0008  0.1612  0.0012 </r>
        <r>  0.0010  0.0023  0.2255  0.0007 </r>
       </set>
       <set comment="band 33">
        <r>  0.0010  0.0023  0.2255  0.0007 </r>
        <r>  0.0000  0.0008  0.1603  0.0012 </r>
        <r>  0.0009  0.0023  0.2251  0.0007 </r>
        <r>  0.0000  0.0008  0.1605  0.0012 </r>
       </set>
       <set comment="band 34">
        <r>  0.0001  0.0013  0.2008  0.0008 </r>
        <r>  0.0001  0.0013  0.2006  0.0008 </r>
        <r>  0.0001  0.0013  0.2001  0.0008 </r>
        <r>  0.0001  0.0013  0.2003  0.0008 </r>
       </set>
       <set comment="band 35">
        <r>  0.0000  0.0013  0.2062  0.0014 </r>
        <r>  0.0000  0.0013  0.2057  0.0014 </r>
        <r>  0.0000  0.0013  0.2047  0.0014 </r>
        <r>  0.0000  0.0013  0.2051  0.0014 </r>
       </set>
       <set comment="band 36">
        <r>  0.0002  0.0041  0.0636  0.0006 </r>
        <r>  0.0641  0.0058  0.0792  0.0005 </r>
        <r>  0.0002  0.0041  0.0637  0.0006 </r>
        <r>  0.0641  0.0058  0.0791  0.0005 </r>
       </set>
       <set comment="band 37">
        <r>  0.0640  0.0058  0.0793  0.0005 </r>
        <r>  0.0002  0.0041  0.0637  0.0006 </r>
        <r>  0.0640  0.0058  0.0792  0.0005 </r>
        <r>  0.0002  0.0041  0.0638  0.0006 </r>
       </set>
       <set comment="band 38">
        <r>  0.0114  0.0028  0.1608  0.0010 </r>
        <r>  0.0114  0.0028  0.1607  0.0010 </r>
        <r>  0.0114  0.0028  0.1607  0.0010 </r>
        <r>  0.0114  0.0028  0.1607  0.0010 </r>
       </set>
       <set comment="band 39">
        <r>  0.0000  0.0042  0.1879  0.0026 </r>
        <r>  0.0000  0.0042  0.1878  0.0026 </r>
        <r>  0.0000  0.0042  0.1877  0.0026 </r>
        <r>  0.0000  0.0042  0.1877  0.0026 </r>
       </set>
       <set comment="band 40">
        <r>  0.0131  0.0071  0.0137  0.0001 </r>
        <r>  0.0131  0.0071  0.0137  0.0001 </r>
        <r>  0.0131  0.0071  0.0137  0.0001 </r>
        <r>  0.0131  0.0071  0.0137  0.0001 </r>
       </set>
      </set>
     </set>
    </set>
   </array>
  </projected>
 </calculation>
 <structure name="finalpos" >
  <crystal>
   <varray name="basis" >
    <v>      17.00000000       0.00000000       0.00000000 </v>
    <v>       0.00000000      17.00000000       0.00000000 </v>
    <v>       0.00000000       0.00000000      17.00000000 </v>
   </varray>
   <i name="volume">   4913.00000000 </i>
   <varray name="rec_basis" >
    <v>       0.05882353       0.00000000       0.00000000 </v>
    <v>       0.00000000       0.05882353       0.00000000 </v>
    <v>       0.00000000       0.00000000       0.05882353 </v>
   </varray>
  </crystal>
  <varray name="positions" >
   <v>       0.91071384       0.03050188       0.99944377 </v>
   <v>       0.03252040       0.08719572       0.01548459 </v>
   <v>       0.08436972       0.97110476       0.96914598 </v>
   <v>       0.97239611       0.91119770       0.01592565 </v>
  </varray>
 </structure>
</modeling>
