CuRu                                    
           1
    17.000000    0.000000    0.000000
     0.000000   17.000000    0.000000
     0.000000    0.000000   17.000000
   Ru
   4
Direct configuration=     1
   0.91062347  0.03053053  0.99943400
   0.03255529  0.08727365  0.01550976
   0.08443876  0.97107471  0.96910829
   0.97238253  0.91112118  0.01594794
Direct configuration=     2
   0.91077285  0.03048317  0.99945015
   0.03249761  0.08714482  0.01546816
   0.08432463  0.97112439  0.96917059
   0.97240497  0.91124768  0.01591110
Direct configuration=     3
   0.91071384  0.03050188  0.99944377
   0.03252040  0.08719572  0.01548459
   0.08436972  0.97110476  0.96914598
   0.97239611  0.91119770  0.01592565
