    4    4  200    2
  0.1228250E+04  0.1700000E-08  0.1700000E-08  0.1700000E-08  0.5000000E-15
  1.000000000000000E-004
  CAR 
 CuRh                                    
     36      1     24
 
  0.0000000E+00  0.0000000E+00  0.0000000E+00  0.1000000E+01
    1       -8.304212     -8.304218
    2       -6.891799     -6.891799
    3       -6.891511     -6.891510
    4       -6.891367     -6.891368
    5       -6.222331     -6.222340
    6       -6.222165     -6.222175
    7       -5.533600     -5.533598
    8       -5.506193     -5.506192
    9       -5.506111     -5.506109
   10       -5.505978     -5.505978
   11       -4.150275     -4.150270
   12       -4.150164     -4.150161
   13       -4.150025     -4.150021
   14       -3.979268     -3.979261
   15       -3.979182     -3.979174
   16       -3.796980     -3.796971
   17       -3.796864     -3.796856
   18       -3.796784     -3.796776
   19       -3.163029     -3.163037
   20       -3.162984     -3.162992
   21       -3.162790     -3.162799
   22       -2.446679     -2.446681
   23       -2.446439     -2.446441
   24       -2.446221     -2.446222
