       N       E                     dE             d eps       ncg     rms          rms(c)
DAV:   1     0.257860753867E+03    0.25786E+03   -0.60783E+03    96   0.789E+02
DAV:   2     0.145251206204E+03   -0.11261E+03   -0.10689E+03   192   0.808E+01
DAV:   3     0.187974869097E+02   -0.12645E+03   -0.12471E+03   192   0.688E+01
DAV:   4    -0.131509287614E+02   -0.31948E+02   -0.29331E+02   152   0.562E+01
DAV:   5    -0.181192572871E+02   -0.49683E+01   -0.48245E+01   144   0.209E+01
DAV:   6    -0.186861332445E+02   -0.56688E+00   -0.37890E+00   128   0.534E+00
DAV:   7    -0.187501992903E+02   -0.64066E-01   -0.64051E-01   112   0.217E+00
DAV:   8    -0.187534600456E+02   -0.32608E-02   -0.32607E-02   120   0.306E-01    0.130E+01
DAV:   9    -0.183458332737E+02    0.40763E+00   -0.81798E-02   104   0.209E+00    0.122E+01
DAV:  10    -0.167383770601E+02    0.16075E+01   -0.56656E+00    96   0.995E+00    0.643E+00
DAV:  11    -0.165590504762E+02    0.17933E+00   -0.47925E-01   136   0.295E+00    0.592E+00
DAV:  12    -0.165436708532E+02    0.15380E-01   -0.47727E-02   104   0.107E+00    0.480E+00
DAV:  13    -0.166281013237E+02   -0.84430E-01   -0.24548E+00    96   0.610E+00    0.286E+00
DAV:  14    -0.165443274576E+02    0.83774E-01   -0.18574E-01    96   0.216E+00    0.238E+00
DAV:  15    -0.164763454574E+02    0.67982E-01   -0.72222E-01    96   0.384E+00    0.992E-01
DAV:  16    -0.164845039400E+02   -0.81585E-02   -0.35128E-02   144   0.113E+00    0.935E-01
DAV:  17    -0.164848568170E+02   -0.35288E-03   -0.19394E-03   112   0.250E-01    0.948E-01
DAV:  18    -0.164762707904E+02    0.85860E-02   -0.31183E-02   128   0.995E-01    0.447E-01
DAV:  19    -0.164756375333E+02    0.63326E-03   -0.31489E-03   128   0.359E-01    0.308E-01
DAV:  20    -0.164752226508E+02    0.41488E-03   -0.15105E-03   144   0.280E-01    0.235E-01
DAV:  21    -0.164752274433E+02   -0.47926E-05   -0.19044E-04   120   0.113E-01    0.203E-01
DAV:  22    -0.164748182939E+02    0.40915E-03   -0.16178E-03    96   0.189E-01    0.955E-02
DAV:  23    -0.164748261181E+02   -0.78242E-05   -0.78259E-05    96   0.515E-02    0.951E-02
DAV:  24    -0.164747567585E+02    0.69360E-04   -0.26457E-04   104   0.884E-02    0.350E-02
DAV:  25    -0.164747649311E+02   -0.81726E-05   -0.89862E-05   112   0.457E-02    0.296E-02
DAV:  26    -0.164747672935E+02   -0.23624E-05   -0.10116E-05    96   0.175E-02    0.269E-02
DAV:  27    -0.164747682453E+02   -0.95179E-06   -0.11901E-05   104   0.157E-02    0.267E-02
DAV:  28    -0.164747702988E+02   -0.20535E-05   -0.80520E-05   104   0.242E-02    0.142E-02
DAV:  29    -0.164747787983E+02   -0.84995E-05   -0.32226E-05   104   0.171E-02    0.162E-02
DAV:  30    -0.164747750379E+02    0.37605E-05   -0.24212E-06    64   0.953E-03    0.177E-02
DAV:  31    -0.164747773805E+02   -0.23426E-05   -0.38088E-06    48   0.798E-03    0.154E-02
DAV:  32    -0.164747860795E+02   -0.86990E-05   -0.36907E-05    96   0.161E-02    0.142E-02
DAV:  33    -0.164747915475E+02   -0.54679E-05   -0.16627E-05    48   0.105E-02    0.144E-02
DAV:  34    -0.164747918262E+02   -0.27878E-06   -0.13807E-06    48   0.534E-03
   1 F= -.16474792E+02 E0= -.16474792E+02  d E =-.164748E+02  mag=    -0.0001
       N       E                     dE             d eps       ncg     rms          rms(c)
DAV:   1    -0.163617579142E+02    0.11303E+00   -0.44422E+02    96   0.139E+02    0.738E+00
DAV:   2    -0.169009312062E+02   -0.53917E+00   -0.55643E+00    96   0.216E+01    0.638E+00
DAV:   3    -0.169089430790E+02   -0.80119E-02   -0.18520E-01   128   0.253E+00    0.596E+00
DAV:   4    -0.168852095003E+02    0.23734E-01   -0.24912E-01    96   0.228E+00    0.326E+00
DAV:   5    -0.169461346942E+02   -0.60925E-01   -0.27607E-01   128   0.233E+00    0.124E+00
DAV:   6    -0.169439779365E+02    0.21568E-02   -0.59581E-03   128   0.470E-01    0.121E+00
DAV:   7    -0.169242138214E+02    0.19764E-01   -0.30880E-02   112   0.802E-01    0.100E+00
DAV:   8    -0.168952372154E+02    0.28977E-01   -0.14407E-01   128   0.161E+00    0.458E-01
DAV:   9    -0.168928907366E+02    0.23465E-02   -0.34302E-03   112   0.301E-01    0.337E-01
DAV:  10    -0.168906712000E+02    0.22195E-02   -0.49522E-03   112   0.371E-01    0.129E-01
DAV:  11    -0.168906459406E+02    0.25259E-04   -0.24464E-04   112   0.916E-02    0.122E-01
DAV:  12    -0.168906808356E+02   -0.34895E-04   -0.25637E-04   112   0.809E-02    0.112E-01
DAV:  13    -0.168906542151E+02    0.26621E-04   -0.41206E-05   112   0.283E-02    0.886E-02
DAV:  14    -0.168906498519E+02    0.43633E-05   -0.55780E-06    96   0.166E-02    0.827E-02
DAV:  15    -0.168906385399E+02    0.11312E-04   -0.12032E-04   112   0.596E-02    0.413E-02
DAV:  16    -0.168906466815E+02   -0.81416E-05   -0.13230E-05    96   0.231E-02    0.344E-02
DAV:  17    -0.168906430642E+02    0.36173E-05   -0.30646E-05   104   0.307E-02    0.215E-02
DAV:  18    -0.168906436347E+02   -0.57045E-06   -0.18924E-06    48   0.904E-03
   2 F= -.16890644E+02 E0= -.16890644E+02  d E =-.415852E+00  mag=     0.0000
       N       E                     dE             d eps       ncg     rms          rms(c)
DAV:   1    -0.169234955603E+02   -0.32852E-01   -0.23848E+01    96   0.304E+01    0.182E+00
DAV:   2    -0.169482773782E+02   -0.24782E-01   -0.25826E-01   112   0.384E+00    0.180E+00
DAV:   3    -0.169481022168E+02    0.17516E-03   -0.47641E-03   112   0.399E-01    0.174E+00
DAV:   4    -0.169478561733E+02    0.24604E-03   -0.35918E-02    96   0.885E-01    0.498E-01
DAV:   5    -0.169496550574E+02   -0.17989E-02   -0.35112E-03   128   0.311E-01    0.272E-01
DAV:   6    -0.169478259089E+02    0.18291E-02   -0.26774E-03   112   0.228E-01    0.240E-01
DAV:   7    -0.169466733304E+02    0.11526E-02   -0.11683E-02   112   0.439E-01    0.801E-02
DAV:   8    -0.169466890445E+02   -0.15714E-04   -0.21019E-04   144   0.779E-02    0.775E-02
DAV:   9    -0.169466546105E+02    0.34434E-04   -0.45263E-05    96   0.398E-02    0.782E-02
DAV:  10    -0.169465514578E+02    0.10315E-03   -0.32843E-04   128   0.108E-01    0.305E-02
DAV:  11    -0.169465340151E+02    0.17443E-04   -0.50413E-05   128   0.561E-02    0.177E-02
DAV:  12    -0.169465286229E+02    0.53922E-05   -0.12058E-04   128   0.601E-02    0.243E-02
DAV:  13    -0.169465277593E+02    0.86358E-06   -0.25901E-06    64   0.105E-02
   3 F= -.16946528E+02 E0= -.16946528E+02  d E =-.471736E+00  mag=     0.0000
       N       E                     dE             d eps       ncg     rms          rms(c)
DAV:   1    -0.169465316321E+02   -0.30093E-05   -0.48223E-03    96   0.434E-01    0.289E-02
DAV:   2    -0.169465349442E+02   -0.33120E-05   -0.54131E-05   112   0.539E-02    0.279E-02
DAV:   3    -0.169465343797E+02    0.56450E-06   -0.81663E-07    48   0.636E-03    0.267E-02
DAV:   4    -0.169465392580E+02   -0.48784E-05   -0.80412E-06   120   0.246E-02    0.777E-03
DAV:   5    -0.169465383369E+02    0.92111E-06   -0.50422E-07    48   0.112E-02    0.689E-03
DAV:   6    -0.169465387007E+02   -0.36379E-06   -0.56203E-07    56   0.978E-03
   4 F= -.16946539E+02 E0= -.16946539E+02  d E =-.471747E+00  mag=    -0.0000
