CuRh                                    
   1.00000000000000     
    17.0000000000000000    0.0000000000000000    0.0000000000000000
     0.0000000000000000   17.0000000000000000    0.0000000000000000
     0.0000000000000000    0.0000000000000000   17.0000000000000000
   Rh
     4
Direct
  0.0043873745940061  0.0796319094014342  0.9638871982706446
  0.0409092050222188  0.0007590103120293  0.0774053139146999
  0.0385955737758893  0.9418330604119344  0.9471632696231723
  0.9161078466078859  0.9777760198745951  0.0115442181914832
 
  0.00000000E+00  0.00000000E+00  0.00000000E+00
  0.00000000E+00  0.00000000E+00  0.00000000E+00
  0.00000000E+00  0.00000000E+00  0.00000000E+00
  0.00000000E+00  0.00000000E+00  0.00000000E+00
