PROCAR new format
# of k-points:    1         # of bands:  24         # of ions:   4

 k-point    1 :    0.00000000 0.00000000 0.00000000     weight = 1.00000000

band   1 # energy   -8.30421215 # occ.  1.00000000
 
ion      s      p      d      f    tot
  1  0.049  0.033  0.224  0.004  0.309
  2  0.049  0.033  0.224  0.004  0.308
  3  0.049  0.033  0.224  0.004  0.309
  4  0.049  0.033  0.224  0.004  0.308
tot  0.195  0.130  0.895  0.014  1.234
 
band   2 # energy   -6.89179890 # occ.  1.00000000
 
ion      s      p      d      f    tot
  1  0.003  0.012  0.321  0.003  0.339
  2  0.044  0.011  0.037  0.001  0.092
  3  0.003  0.012  0.320  0.003  0.338
  4  0.011  0.012  0.267  0.003  0.292
tot  0.060  0.047  0.945  0.009  1.062
 
band   3 # energy   -6.89151098 # occ.  1.00000000
 
ion      s      p      d      f    tot
  1  0.007  0.012  0.294  0.003  0.316
  2  0.001  0.012  0.332  0.003  0.348
  3  0.019  0.012  0.212  0.002  0.244
  4  0.034  0.011  0.107  0.001  0.154
tot  0.060  0.047  0.945  0.009  1.062
 
band   4 # energy   -6.89136664 # occ.  1.00000000
 
ion      s      p      d      f    tot
  1  0.036  0.011  0.093  0.001  0.142
  2  0.000  0.012  0.340  0.003  0.355
  3  0.024  0.012  0.177  0.002  0.214
  4  0.001  0.012  0.335  0.003  0.351
tot  0.060  0.047  0.945  0.009  1.062
 
band   5 # energy   -6.22233108 # occ.  1.00000000
 
ion      s      p      d      f    tot
  1  0.000  0.005  0.255  0.002  0.261
  2  0.000  0.005  0.255  0.002  0.261
  3  0.000  0.005  0.255  0.002  0.261
  4  0.000  0.005  0.255  0.002  0.261
tot  0.000  0.018  1.018  0.008  1.044
 
band   6 # energy   -6.22216545 # occ.  1.00000000
 
ion      s      p      d      f    tot
  1  0.000  0.005  0.255  0.002  0.261
  2  0.000  0.005  0.255  0.002  0.261
  3  0.000  0.005  0.255  0.002  0.261
  4  0.000  0.005  0.255  0.002  0.261
tot  0.000  0.018  1.018  0.008  1.044
 
band   7 # energy   -5.53360034 # occ.  1.00000000
 
ion      s      p      d      f    tot
  1  0.131  0.006  0.031  0.001  0.168
  2  0.131  0.006  0.031  0.001  0.168
  3  0.131  0.006  0.031  0.001  0.168
  4  0.131  0.006  0.031  0.001  0.168
tot  0.524  0.022  0.122  0.002  0.671
 
band   8 # energy   -5.50619322 # occ.  1.00000000
 
ion      s      p      d      f    tot
  1  0.005  0.000  0.259  0.001  0.266
  2  0.023  0.001  0.023  0.001  0.049
  3  0.000  0.000  0.326  0.001  0.328
  4  0.003  0.000  0.286  0.001  0.290
tot  0.032  0.002  0.894  0.005  0.933
 
band   9 # energy   -5.50611102 # occ.  1.00000000
 
ion      s      p      d      f    tot
  1  0.003  0.000  0.292  0.001  0.296
  2  0.000  0.000  0.329  0.001  0.330
  3  0.010  0.001  0.200  0.001  0.211
  4  0.019  0.001  0.073  0.001  0.095
tot  0.032  0.002  0.894  0.005  0.933
 
band  10 # energy   -5.50597836 # occ.  1.00000000
 
ion      s      p      d      f    tot
  1  0.016  0.001  0.119  0.001  0.137
  2  0.001  0.000  0.319  0.001  0.321
  3  0.014  0.001  0.144  0.001  0.160
  4  0.001  0.000  0.311  0.001  0.314
tot  0.032  0.002  0.894  0.005  0.933
 
band  11 # energy   -4.15027505 # occ.  1.00000000
 
ion      s      p      d      f    tot
  1  0.002  0.006  0.132  0.001  0.141
  2  0.012  0.010  0.606  0.001  0.628
  3  0.000  0.005  0.027  0.001  0.033
  4  0.002  0.006  0.097  0.001  0.106
tot  0.016  0.026  0.861  0.005  0.908
 
band  12 # energy   -4.15016410 # occ.  1.00000000
 
ion      s      p      d      f    tot
  1  0.001  0.005  0.043  0.001  0.050
  2  0.000  0.005  0.017  0.001  0.023
  3  0.007  0.007  0.338  0.001  0.353
  4  0.009  0.008  0.463  0.001  0.482
tot  0.016  0.026  0.861  0.005  0.908
 
band  13 # energy   -4.15002497 # occ.  1.00000000
 
ion      s      p      d      f    tot
  1  0.009  0.009  0.471  0.001  0.490
  2  0.000  0.005  0.024  0.001  0.030
  3  0.005  0.007  0.281  0.001  0.295
  4  0.002  0.005  0.085  0.001  0.093
tot  0.016  0.026  0.861  0.005  0.908
 
band  14 # energy   -3.97926813 # occ.  1.00000000
 
ion      s      p      d      f    tot
  1  0.000  0.006  0.217  0.001  0.224
  2  0.000  0.006  0.218  0.001  0.224
  3  0.000  0.006  0.217  0.001  0.224
  4  0.000  0.006  0.217  0.001  0.224
tot  0.000  0.024  0.870  0.003  0.897
 
band  15 # energy   -3.97918244 # occ.  1.00000000
 
ion      s      p      d      f    tot
  1  0.000  0.006  0.217  0.001  0.224
  2  0.000  0.006  0.218  0.001  0.224
  3  0.000  0.006  0.217  0.001  0.224
  4  0.000  0.006  0.217  0.001  0.224
tot  0.000  0.024  0.870  0.003  0.897
 
band  16 # energy   -3.79697970 # occ.  1.00000000
 
ion      s      p      d      f    tot
  1  0.000  0.000  0.094  0.001  0.095
  2  0.000  0.000  0.342  0.001  0.343
  3  0.000  0.000  0.229  0.001  0.231
  4  0.000  0.000  0.281  0.001  0.283
tot  0.000  0.001  0.946  0.005  0.952
 
band  17 # energy   -3.79686421 # occ.  1.00000000
 
ion      s      p      d      f    tot
  1  0.000  0.000  0.353  0.001  0.354
  2  0.000  0.000  0.355  0.001  0.356
  3  0.000  0.000  0.143  0.001  0.145
  4  0.000  0.000  0.096  0.001  0.097
tot  0.000  0.001  0.946  0.005  0.952
 
band  18 # energy   -3.79678421 # occ.  1.00000000
 
ion      s      p      d      f    tot
  1  0.000  0.000  0.263  0.001  0.265
  2  0.000  0.000  0.013  0.001  0.014
  3  0.000  0.000  0.337  0.001  0.338
  4  0.000  0.000  0.333  0.001  0.334
tot  0.000  0.001  0.946  0.005  0.952
 
band  19 # energy   -3.16302927 # occ.  0.00000000
 
ion      s      p      d      f    tot
  1  0.000  0.001  0.021  0.000  0.022
  2  0.000  0.016  0.308  0.003  0.328
  3  0.000  0.012  0.219  0.002  0.233
  4  0.000  0.016  0.304  0.003  0.324
tot  0.000  0.046  0.851  0.009  0.906
 
band  20 # energy   -3.16298362 # occ.  0.00000000
 
ion      s      p      d      f    tot
  1  0.000  0.016  0.304  0.003  0.324
  2  0.000  0.017  0.316  0.003  0.336
  3  0.000  0.008  0.145  0.002  0.155
  4  0.000  0.005  0.086  0.001  0.091
tot  0.000  0.046  0.851  0.009  0.906
 
band  21 # energy   -3.16279047 # occ.  0.00000000
 
ion      s      p      d      f    tot
  1  0.000  0.017  0.314  0.003  0.334
  2  0.000  0.001  0.015  0.000  0.016
  3  0.000  0.015  0.275  0.003  0.292
  4  0.000  0.013  0.248  0.003  0.264
tot  0.000  0.046  0.851  0.009  0.906
 
band  22 # energy   -2.44667877 # occ.  0.00000000
 
ion      s      p      d      f    tot
  1  0.005  0.027  0.020  0.000  0.052
  2  0.036  0.031  0.018  0.000  0.085
  3  0.132  0.044  0.012  0.000  0.187
  4  0.011  0.028  0.020  0.000  0.059
tot  0.183  0.129  0.070  0.000  0.383
 
band  23 # energy   -2.44643911 # occ.  0.00000000
 
ion      s      p      d      f    tot
  1  0.067  0.035  0.016  0.000  0.118
  2  0.095  0.039  0.014  0.000  0.148
  3  0.006  0.027  0.020  0.000  0.053
  4  0.016  0.028  0.020  0.000  0.064
tot  0.183  0.129  0.070  0.000  0.383
 
band  24 # energy   -2.44622051 # occ.  0.00000000
 
ion      s      p      d      f    tot
  1  0.066  0.035  0.016  0.000  0.117
  2  0.007  0.027  0.020  0.000  0.054
  3  0.000  0.026  0.021  0.000  0.047
  4  0.111  0.041  0.013  0.000  0.165
tot  0.183  0.129  0.070  0.000  0.383
 
# of k-points:    1         # of bands:  24         # of ions:   4

 k-point    1 :    0.00000000 0.00000000 0.00000000     weight = 1.00000000

band   1 # energy   -8.30421781 # occ.  1.00000000
 
ion      s      p      d      f    tot
  1  0.049  0.033  0.224  0.004  0.309
  2  0.049  0.033  0.224  0.004  0.308
  3  0.049  0.033  0.224  0.004  0.309
  4  0.049  0.033  0.224  0.004  0.308
tot  0.195  0.130  0.895  0.014  1.234
 
band   2 # energy   -6.89179880 # occ.  1.00000000
 
ion      s      p      d      f    tot
  1  0.003  0.012  0.321  0.003  0.339
  2  0.044  0.011  0.037  0.001  0.093
  3  0.003  0.012  0.320  0.003  0.338
  4  0.011  0.012  0.266  0.003  0.292
tot  0.060  0.047  0.945  0.009  1.062
 
band   3 # energy   -6.89151039 # occ.  1.00000000
 
ion      s      p      d      f    tot
  1  0.007  0.012  0.294  0.003  0.315
  2  0.001  0.012  0.332  0.003  0.348
  3  0.019  0.012  0.212  0.002  0.245
  4  0.034  0.011  0.107  0.001  0.154
tot  0.060  0.047  0.945  0.009  1.062
 
band   4 # energy   -6.89136775 # occ.  1.00000000
 
ion      s      p      d      f    tot
  1  0.036  0.011  0.094  0.001  0.142
  2  0.000  0.012  0.340  0.003  0.355
  3  0.024  0.012  0.176  0.002  0.213
  4  0.001  0.012  0.335  0.003  0.351
tot  0.060  0.047  0.945  0.009  1.062
 
band   5 # energy   -6.22233990 # occ.  1.00000000
 
ion      s      p      d      f    tot
  1  0.000  0.005  0.255  0.002  0.261
  2  0.000  0.005  0.255  0.002  0.261
  3  0.000  0.005  0.255  0.002  0.261
  4  0.000  0.005  0.255  0.002  0.261
tot  0.000  0.018  1.018  0.008  1.044
 
band   6 # energy   -6.22217543 # occ.  1.00000000
 
ion      s      p      d      f    tot
  1  0.000  0.005  0.255  0.002  0.261
  2  0.000  0.005  0.255  0.002  0.261
  3  0.000  0.005  0.255  0.002  0.261
  4  0.000  0.005  0.255  0.002  0.261
tot  0.000  0.018  1.018  0.008  1.044
 
band   7 # energy   -5.53359791 # occ.  1.00000000
 
ion      s      p      d      f    tot
  1  0.131  0.006  0.031  0.001  0.168
  2  0.131  0.006  0.031  0.001  0.168
  3  0.131  0.006  0.031  0.001  0.168
  4  0.131  0.006  0.031  0.001  0.168
tot  0.524  0.022  0.122  0.002  0.671
 
band   8 # energy   -5.50619174 # occ.  1.00000000
 
ion      s      p      d      f    tot
  1  0.005  0.000  0.258  0.001  0.265
  2  0.023  0.001  0.023  0.001  0.049
  3  0.000  0.000  0.326  0.001  0.328
  4  0.003  0.000  0.286  0.001  0.291
tot  0.032  0.002  0.894  0.005  0.933
 
band   9 # energy   -5.50610851 # occ.  1.00000000
 
ion      s      p      d      f    tot
  1  0.003  0.000  0.292  0.001  0.296
  2  0.000  0.000  0.329  0.001  0.330
  3  0.010  0.001  0.200  0.001  0.212
  4  0.019  0.001  0.073  0.001  0.095
tot  0.032  0.002  0.894  0.005  0.933
 
band  10 # energy   -5.50597767 # occ.  1.00000000
 
ion      s      p      d      f    tot
  1  0.016  0.001  0.120  0.001  0.138
  2  0.001  0.000  0.318  0.001  0.321
  3  0.014  0.001  0.144  0.001  0.160
  4  0.001  0.000  0.312  0.001  0.314
tot  0.032  0.002  0.894  0.005  0.933
 
band  11 # energy   -4.15027029 # occ.  1.00000000
 
ion      s      p      d      f    tot
  1  0.002  0.006  0.132  0.001  0.141
  2  0.012  0.010  0.605  0.001  0.628
  3  0.000  0.005  0.026  0.001  0.033
  4  0.002  0.006  0.098  0.001  0.107
tot  0.016  0.026  0.861  0.005  0.908
 
band  12 # energy   -4.15016124 # occ.  1.00000000
 
ion      s      p      d      f    tot
  1  0.001  0.005  0.044  0.001  0.051
  2  0.000  0.005  0.017  0.001  0.023
  3  0.007  0.007  0.336  0.001  0.351
  4  0.009  0.008  0.464  0.001  0.483
tot  0.016  0.026  0.861  0.005  0.908
 
band  13 # energy   -4.15002085 # occ.  1.00000000
 
ion      s      p      d      f    tot
  1  0.009  0.008  0.470  0.001  0.489
  2  0.000  0.005  0.024  0.001  0.030
  3  0.005  0.007  0.284  0.001  0.297
  4  0.001  0.005  0.084  0.001  0.092
tot  0.016  0.026  0.861  0.005  0.908
 
band  14 # energy   -3.97926084 # occ.  1.00000000
 
ion      s      p      d      f    tot
  1  0.000  0.006  0.217  0.001  0.224
  2  0.000  0.006  0.218  0.001  0.224
  3  0.000  0.006  0.217  0.001  0.224
  4  0.000  0.006  0.217  0.001  0.224
tot  0.000  0.024  0.870  0.003  0.897
 
band  15 # energy   -3.97917419 # occ.  1.00000000
 
ion      s      p      d      f    tot
  1  0.000  0.006  0.217  0.001  0.224
  2  0.000  0.006  0.218  0.001  0.224
  3  0.000  0.006  0.217  0.001  0.224
  4  0.000  0.006  0.217  0.001  0.224
tot  0.000  0.024  0.870  0.003  0.897
 
band  16 # energy   -3.79697089 # occ.  1.00000000
 
ion      s      p      d      f    tot
  1  0.000  0.000  0.096  0.001  0.097
  2  0.000  0.000  0.341  0.001  0.342
  3  0.000  0.000  0.226  0.001  0.228
  4  0.000  0.000  0.283  0.001  0.284
tot  0.000  0.001  0.946  0.005  0.952
 
band  17 # energy   -3.79685572 # occ.  1.00000000
 
ion      s      p      d      f    tot
  1  0.000  0.000  0.352  0.001  0.354
  2  0.000  0.000  0.355  0.001  0.356
  3  0.000  0.000  0.146  0.001  0.147
  4  0.000  0.000  0.094  0.001  0.095
tot  0.000  0.001  0.946  0.005  0.952
 
band  18 # energy   -3.79677632 # occ.  1.00000000
 
ion      s      p      d      f    tot
  1  0.000  0.000  0.262  0.001  0.263
  2  0.000  0.000  0.014  0.001  0.015
  3  0.000  0.000  0.337  0.001  0.339
  4  0.000  0.000  0.333  0.001  0.335
tot  0.000  0.001  0.946  0.005  0.952
 
band  19 # energy   -3.16303730 # occ.  0.00000000
 
ion      s      p      d      f    tot
  1  0.000  0.001  0.021  0.000  0.022
  2  0.000  0.016  0.308  0.003  0.327
  3  0.000  0.012  0.218  0.002  0.232
  4  0.000  0.016  0.305  0.003  0.324
tot  0.000  0.046  0.851  0.009  0.906
 
band  20 # energy   -3.16299206 # occ.  0.00000000
 
ion      s      p      d      f    tot
  1  0.000  0.016  0.304  0.003  0.323
  2  0.000  0.017  0.316  0.003  0.336
  3  0.000  0.008  0.146  0.002  0.155
  4  0.000  0.005  0.086  0.001  0.092
tot  0.000  0.046  0.851  0.009  0.906
 
band  21 # energy   -3.16279924 # occ.  0.00000000
 
ion      s      p      d      f    tot
  1  0.000  0.017  0.314  0.003  0.334
  2  0.000  0.001  0.015  0.000  0.016
  3  0.000  0.015  0.275  0.003  0.292
  4  0.000  0.013  0.248  0.003  0.264
tot  0.000  0.046  0.851  0.009  0.906
 
band  22 # energy   -2.44668097 # occ.  0.00000000
 
ion      s      p      d      f    tot
  1  0.005  0.027  0.020  0.000  0.052
  2  0.036  0.031  0.018  0.000  0.085
  3  0.132  0.044  0.012  0.000  0.187
  4  0.011  0.028  0.020  0.000  0.059
tot  0.183  0.129  0.070  0.000  0.383
 
band  23 # energy   -2.44644068 # occ.  0.00000000
 
ion      s      p      d      f    tot
  1  0.067  0.035  0.016  0.000  0.119
  2  0.095  0.039  0.014  0.000  0.148
  3  0.006  0.027  0.020  0.000  0.053
  4  0.015  0.028  0.020  0.000  0.063
tot  0.183  0.129  0.070  0.000  0.383
 
band  24 # energy   -2.44622210 # occ.  0.00000000
 
ion      s      p      d      f    tot
  1  0.066  0.035  0.016  0.000  0.117
  2  0.007  0.027  0.020  0.000  0.054
  3  0.000  0.026  0.021  0.000  0.047
  4  0.111  0.041  0.013  0.000  0.165
tot  0.183  0.129  0.070  0.000  0.383
 
