CuRh                                    
           1
    17.000000    0.000000    0.000000
     0.000000   17.000000    0.000000
     0.000000    0.000000   17.000000
   Rh
   4
Direct configuration=     1
   0.00464941  0.08436824  0.96174529
   0.04333706  0.00080353  0.08200176
   0.04089000  0.93837529  0.94402294
   0.91112353  0.97645294  0.01223000
Direct configuration=     2
   0.00430876  0.07821087  0.96452983
   0.04018078  0.00074565  0.07602625
   0.03790718  0.94287049  0.94810546
   0.91760329  0.97817298  0.01133846
Direct configuration=     3
   0.00438852  0.07965254  0.96387787
   0.04091978  0.00075920  0.07742534
   0.03860557  0.94181800  0.94714959
   0.91608613  0.97777026  0.01154721
Direct configuration=     4
   0.00438737  0.07963191  0.96388720
   0.04090921  0.00075901  0.07740531
   0.03859557  0.94183306  0.94716327
   0.91610785  0.97777602  0.01154422
