    4    4  200    2
  0.1228250E+04  0.1700000E-08  0.1700000E-08  0.1700000E-08  0.5000000E-15
  1.000000000000000E-004
  CAR 
 Ag                                      
     44      1     28
 
  0.0000000E+00  0.0000000E+00  0.0000000E+00  0.1000000E+01
    1       -8.836632     -8.836634   1.000000   1.000000
    2       -8.795107     -8.795109   1.000000   1.000000
    3       -8.279766     -8.279768   1.000000   1.000000
    4       -8.244688     -8.244690   1.000000   1.000000
    5       -8.172887     -8.172889   1.000000   1.000000
    6       -7.984165     -7.984166   1.000000   1.000000
    7       -7.683073     -7.683075   1.000000   1.000000
    8       -7.663100     -7.663102   1.000000   1.000000
    9       -7.270490     -7.270492   1.000000   1.000000
   10       -7.251342     -7.251344   1.000000   1.000000
   11       -7.156701     -7.156703   1.000000   1.000000
   12       -6.992803     -6.992805   1.000000   1.000000
   13       -6.977123     -6.977126   1.000000   1.000000
   14       -6.963930     -6.963932   1.000000   1.000000
   15       -6.858442     -6.858444   1.000000   1.000000
   16       -6.836730     -6.836732   1.000000   1.000000
   17       -6.793309     -6.793311   1.000000   1.000000
   18       -6.748243     -6.748245   1.000000   1.000000
   19       -6.680850     -6.680852   1.000000   1.000000
   20       -6.459048     -6.459051   1.000000   1.000000
   21       -6.202768     -6.202770   1.000000   1.000000
   22       -4.264210     -4.264212   1.000000   1.000000
   23       -3.413035     -3.413037   0.000000   0.000000
   24       -2.241718     -2.241721   0.000000   0.000000
   25       -1.661060     -1.661062   0.000000   0.000000
   26       -0.929435     -0.929438   0.000000   0.000000
   27       -0.877192     -0.877194   0.000000   0.000000
   28       -0.376560     -0.376563   0.000000   0.000000
