       N       E                     dE             d eps       ncg     rms          rms(c)
DAV:   1     0.371542854479E+03    0.37154E+03   -0.78771E+03   112   0.853E+02
DAV:   2     0.203645381723E+03   -0.16790E+03   -0.16045E+03   224   0.902E+01
DAV:   3     0.497051498623E+02   -0.15394E+03   -0.14828E+03   208   0.858E+01
DAV:   4     0.411315873472E+01   -0.45592E+02   -0.44097E+02   160   0.651E+01
DAV:   5    -0.501782753643E+01   -0.91310E+01   -0.81185E+01   148   0.260E+01
DAV:   6    -0.536463829139E+01   -0.34681E+00   -0.34665E+00   128   0.772E+00
DAV:   7    -0.538462464304E+01   -0.19986E-01   -0.19986E-01   208   0.160E+00
DAV:   8    -0.538516018701E+01   -0.53554E-03   -0.53554E-03   144   0.219E-01    0.987E+00
DAV:   9    -0.543742802197E+01   -0.52268E-01   -0.77105E-03   136   0.625E-01    0.903E+00
DAV:  10    -0.552390871672E+01   -0.86481E-01   -0.70189E-01   112   0.590E+00    0.301E+00
DAV:  11    -0.551686907455E+01    0.70396E-02   -0.35339E-02   132   0.152E+00    0.288E+00
DAV:  12    -0.545797844660E+01    0.58891E-01   -0.65058E-02   112   0.207E+00    0.247E+00
DAV:  13    -0.542264545080E+01    0.35333E-01   -0.27166E-01   112   0.386E+00    0.187E+00
DAV:  14    -0.541851825375E+01    0.41272E-02   -0.38613E-02   148   0.145E+00    0.112E+00
DAV:  15    -0.541513526911E+01    0.33830E-02   -0.18246E-02   112   0.794E-01    0.550E-01
DAV:  16    -0.541504398613E+01    0.91283E-04   -0.18975E-03   156   0.408E-01    0.419E-01
DAV:  17    -0.541477582201E+01    0.26816E-03   -0.40972E-03   140   0.862E-01    0.157E-01
DAV:  18    -0.541489085579E+01   -0.11503E-03   -0.63506E-04   128   0.217E-01    0.156E-01
DAV:  19    -0.541482157838E+01    0.69277E-04   -0.10817E-04   172   0.554E-02    0.144E-01
DAV:  20    -0.541472867790E+01    0.92900E-04   -0.61989E-04   112   0.281E-01    0.756E-02
DAV:  21    -0.541477656595E+01   -0.47888E-04   -0.20185E-04   136   0.103E-01    0.753E-02
DAV:  22    -0.541472242274E+01    0.54143E-04   -0.17332E-04   112   0.205E-01    0.760E-02
DAV:  23    -0.541473143505E+01   -0.90123E-05   -0.76479E-05   116   0.591E-02    0.687E-02
DAV:  24    -0.541473336682E+01   -0.19318E-05   -0.54158E-06   136   0.134E-02    0.634E-02
DAV:  25    -0.541473276625E+01    0.60057E-06   -0.50513E-05   112   0.931E-02    0.503E-02
DAV:  26    -0.541473436832E+01   -0.16021E-05   -0.89352E-06   120   0.247E-02    0.451E-02
DAV:  27    -0.541473468822E+01   -0.31990E-06   -0.49051E-07    56   0.662E-03
   1 F= -.54147347E+01 E0= -.54147347E+01  d E =-.541473E+01  mag=    -0.0010
       N       E                     dE             d eps       ncg     rms          rms(c)
DAV:   1    -0.542831911585E+01   -0.13585E-01   -0.16273E+01   112   0.247E+01    0.401E-01
DAV:   2    -0.544065246617E+01   -0.12333E-01   -0.12423E-01   144   0.288E+00    0.313E-01
DAV:   3    -0.544074509988E+01   -0.92634E-04   -0.84472E-04   136   0.152E-01    0.300E-01
DAV:   4    -0.544065729643E+01    0.87803E-04   -0.62827E-04   112   0.193E-01    0.173E-01
DAV:   5    -0.544080090972E+01   -0.14361E-03   -0.48215E-04   144   0.144E-01    0.946E-02
DAV:   6    -0.544078352810E+01    0.17382E-04   -0.49882E-05   168   0.607E-02    0.792E-02
DAV:   7    -0.544069725097E+01    0.86277E-04   -0.21425E-04   112   0.141E-01    0.419E-02
DAV:   8    -0.544068985092E+01    0.74000E-05   -0.85785E-05   152   0.670E-02    0.208E-02
DAV:   9    -0.544068800288E+01    0.18480E-05   -0.16863E-05   112   0.571E-02    0.166E-02
DAV:  10    -0.544068781562E+01    0.18726E-06   -0.28155E-05   144   0.399E-02    0.886E-03
DAV:  11    -0.544068790040E+01   -0.84780E-07   -0.85170E-07    56   0.835E-03
   2 F= -.54406879E+01 E0= -.54406879E+01  d E =-.259532E-01  mag=     0.0007
       N       E                     dE             d eps       ncg     rms          rms(c)
DAV:   1    -0.543986740138E+01    0.82041E-03   -0.10998E+01   112   0.203E+01    0.340E-01
DAV:   2    -0.544814569779E+01   -0.82783E-02   -0.83393E-02   144   0.236E+00    0.286E-01
DAV:   3    -0.544820890440E+01   -0.63207E-04   -0.56083E-04   120   0.123E-01    0.274E-01
DAV:   4    -0.544816423690E+01    0.44667E-04   -0.55019E-04   112   0.169E-01    0.137E-01
DAV:   5    -0.544826273986E+01   -0.98503E-04   -0.26276E-04   176   0.961E-02    0.758E-02
DAV:   6    -0.544822621217E+01    0.36528E-04   -0.35991E-05   112   0.547E-02    0.588E-02
DAV:   7    -0.544818048756E+01    0.45725E-04   -0.19657E-04   112   0.117E-01    0.187E-02
DAV:   8    -0.544817980077E+01    0.68679E-06   -0.20938E-05   192   0.354E-02    0.126E-02
DAV:   9    -0.544817791636E+01    0.18844E-05   -0.23593E-06    72   0.223E-02    0.895E-03
DAV:  10    -0.544817848228E+01   -0.56592E-06   -0.52141E-06   112   0.245E-02
   3 F= -.54481785E+01 E0= -.54481785E+01  d E =-.334438E-01  mag=    -0.0007
       N       E                     dE             d eps       ncg     rms          rms(c)
DAV:   1    -0.544817204387E+01    0.58725E-05   -0.27197E-02   112   0.101E+00    0.142E-02
DAV:   2    -0.544819278608E+01   -0.20742E-04   -0.20777E-04   160   0.118E-01    0.144E-02
DAV:   3    -0.544819287582E+01   -0.89739E-07   -0.33333E-07    56   0.357E-03    0.144E-02
DAV:   4    -0.544819292078E+01   -0.44961E-07   -0.77237E-08    56   0.271E-03    0.133E-02
DAV:   5    -0.544819438003E+01   -0.14593E-05   -0.45322E-06   112   0.206E-02    0.610E-03
DAV:   6    -0.544819448036E+01   -0.10033E-06   -0.34734E-07    56   0.710E-03
   4 F= -.54481945E+01 E0= -.54481945E+01  d E =-.334598E-01  mag=    -0.0002
       N       E                     dE             d eps       ncg     rms          rms(c)
DAV:   1    -0.544862758276E+01   -0.43320E-03   -0.47499E-01   112   0.422E+00    0.288E-02
DAV:   2    -0.544894841907E+01   -0.32084E-03   -0.32642E-03   144   0.463E-01    0.242E-02
DAV:   3    -0.544895202995E+01   -0.36109E-05   -0.29700E-05   120   0.277E-02    0.229E-02
DAV:   4    -0.544894849944E+01    0.35305E-05   -0.41774E-06    80   0.269E-02    0.205E-02
DAV:   5    -0.544894630894E+01    0.21905E-05   -0.13706E-05   160   0.432E-02    0.175E-02
DAV:   6    -0.544894656485E+01   -0.25591E-06   -0.27318E-06    88   0.123E-02
   5 F= -.54489466E+01 E0= -.54489466E+01  d E =-.752084E-03  mag=    -0.0002
       N       E                     dE             d eps       ncg     rms          rms(c)
DAV:   1    -0.544892468065E+01    0.21628E-04   -0.10060E+00   112   0.614E+00    0.415E-02
DAV:   2    -0.544960745554E+01   -0.68277E-03   -0.69275E-03   144   0.675E-01    0.327E-02
DAV:   3    -0.544961540917E+01   -0.79536E-05   -0.62637E-05   120   0.401E-02    0.312E-02
DAV:   4    -0.544961107440E+01    0.43348E-05   -0.62036E-06    96   0.293E-02    0.280E-02
DAV:   5    -0.544960833391E+01    0.27405E-05   -0.26902E-05   128   0.691E-02    0.229E-02
DAV:   6    -0.544961011682E+01   -0.17829E-05   -0.90008E-06   128   0.216E-02    0.172E-02
DAV:   7    -0.544961174157E+01   -0.16247E-05   -0.65279E-06   112   0.319E-02    0.622E-03
DAV:   8    -0.544961164051E+01    0.10106E-06   -0.38814E-07    56   0.624E-03
   6 F= -.54496116E+01 E0= -.54496116E+01  d E =-.141716E-02  mag=    -0.0000
       N       E                     dE             d eps       ncg     rms          rms(c)
DAV:   1    -0.544686216393E+01    0.27496E-02   -0.40167E+00   112   0.123E+01    0.990E-02
DAV:   2    -0.544960226135E+01   -0.27401E-02   -0.27742E-02   144   0.135E+00    0.695E-02
DAV:   3    -0.544964056718E+01   -0.38306E-04   -0.37462E-04   144   0.902E-02    0.668E-02
DAV:   4    -0.544961900208E+01    0.21565E-04   -0.20884E-05   208   0.513E-02    0.609E-02
DAV:   5    -0.544959248359E+01    0.26518E-04   -0.17627E-04   128   0.183E-01    0.497E-02
DAV:   6    -0.544959347294E+01   -0.98935E-06   -0.27898E-05   112   0.566E-02    0.451E-02
DAV:   7    -0.544959849021E+01   -0.50173E-05   -0.24341E-05   112   0.325E-02    0.208E-02
DAV:   8    -0.544960137900E+01   -0.28888E-05   -0.10351E-05   120   0.443E-02    0.139E-02
DAV:   9    -0.544960093850E+01    0.44050E-06   -0.16036E-06    56   0.215E-02
   7 F= -.54496009E+01 E0= -.54496009E+01  d E =-.140646E-02  mag=     0.0001
       N       E                     dE             d eps       ncg     rms          rms(c)
DAV:   1    -0.544906908496E+01    0.53229E-03   -0.11234E+00   112   0.649E+00    0.400E-02
DAV:   2    -0.544983590896E+01   -0.76682E-03   -0.77802E-03   144   0.719E-01    0.384E-02
DAV:   3    -0.544984853473E+01   -0.12626E-04   -0.10388E-04   144   0.457E-02    0.354E-02
DAV:   4    -0.544984157499E+01    0.69597E-05   -0.32963E-06    80   0.273E-02    0.334E-02
DAV:   5    -0.544983047714E+01    0.11098E-04   -0.40685E-05   144   0.881E-02    0.290E-02
DAV:   6    -0.544983019525E+01    0.28190E-06   -0.73558E-06   128   0.230E-02
   8 F= -.54498302E+01 E0= -.54498302E+01  d E =-.163571E-02  mag=     0.0000
