 vasp.5.4.4.18Apr17-6-g9f103f2a35 (build Feb 27 2020 20:42:00) gamma-only       
  
 executed on             LinuxIFC date 2022.05.14  10:12:15
 running on    8 total cores
 distrk:  each k-point on    8 cores,    1 groups
 distr:  one band on NCORES_PER_BAND=   4 cores,    2 groups


--------------------------------------------------------------------------------------------------------


 INCAR:
 POTCAR:    PAW Ag_GW 06Mar2008                   
 POTCAR:    PAW Ag_GW 06Mar2008                   
  local pseudopotential read in
  partial core-charges read in
  partial kinetic energy density read in
  kinetic energy density of atom read in
  atomic valenz-charges read in
  non local Contribution for L=           2  read in
    real space projection operators read in
  non local Contribution for L=           2  read in
    real space projection operators read in
  non local Contribution for L=           0  read in
    real space projection operators read in
  non local Contribution for L=           0  read in
    real space projection operators read in
  non local Contribution for L=           1  read in
    real space projection operators read in
  non local Contribution for L=           1  read in
    real space projection operators read in
  non local Contribution for L=           3  read in
    real space projection operators read in
  non local Contribution for L=           3  read in
    real space projection operators read in
    PAW grid and wavefunctions read in
 
   number of l-projection  operators is LMAX  =           8
   number of lm-projection operators is LMMAX =          32
 

 ----------------------------------------------------------------------------- 
|                                                                             |
|  ADVICE TO THIS USER RUNNING 'VASP/VAMP'   (HEAR YOUR MASTER'S VOICE ...):  |
|                                                                             |
|      You have a (more or less) 'small supercell' and for smaller cells      |
|      it is recommended  to use the reciprocal-space projection scheme!      |
|      The real space optimization is not  efficient for small cells and it   |
|      is also less accurate ...                                              |
|      Therefore set LREAL=.FALSE. in the  INCAR file                         |
|                                                                             |
 ----------------------------------------------------------------------------- 

 Optimization of the real space projectors (new method)

 maximal supplied QI-value         = 14.36
 optimisation between [QCUT,QGAM] = [ 11.35, 22.84] = [ 36.05,146.02] Ry 
 Optimized for a Real-space Cutoff    1.47 Angstroem

   l    n(q)    QCUT    max X(q) W(low)/X(q) W(high)/X(q)  e(spline) 
   2      9    11.346    72.454    0.20E-03    0.96E-04    0.20E-06
   2      9    11.346    72.050    0.20E-03    0.96E-04    0.20E-06
   0     10    11.346    17.657    0.11E-03    0.17E-04    0.14E-06
   0     10    11.346     7.454    0.16E-03    0.26E-04    0.22E-06
   1     10    11.346     6.370    0.24E-03    0.18E-03    0.20E-06
   1     10    11.346     4.686    0.14E-03    0.11E-03    0.12E-06
   3      9    11.346     3.921    0.18E-03    0.49E-03    0.32E-06
   3      9    11.346     2.736    0.13E-03    0.30E-03    0.26E-06
  PAW Ag_GW 06Mar2008                   :
 energy of atom  1       EATOM=-1037.2677
 kinetic energy error for atom=    0.0052 (will be added to EATOM!!)
 
 
 POSCAR: Ag                                      
  positions in cartesian coordinates
  No initial velocities read in
 exchange correlation table for  LEXCH =        8
   RHO(1)=    0.500       N(1)  =     2000
   RHO(2)=  100.500       N(2)  =     4000
 


--------------------------------------------------------------------------------------------------------


 ion  position               nearest neighbor table
   1  0.032  0.046  0.945-   4 2.69   3 2.79   2 2.79
   2  0.892  0.094  0.016-   1 2.79   4 2.79
   3  0.108  0.906  0.984-   1 2.79   4 2.79
   4  0.968  0.953  0.055-   1 2.69   3 2.79   2 2.79
 
  LATTYP: Found a simple cubic cell.
 ALAT       =    17.0000000000
  
  Lattice vectors:
  
 A1 = (  17.0000000000,   0.0000000000,   0.0000000000)
 A2 = (   0.0000000000,  17.0000000000,   0.0000000000)
 A3 = (   0.0000000000,   0.0000000000,  17.0000000000)


Analysis of symmetry for initial positions (statically):
=====================================================================
 Subroutine PRICEL returns:
 Original cell was already a primitive cell.
 

 Routine SETGRP: Setting up the symmetry group for a 
 simple cubic supercell.


 Subroutine GETGRP returns: Found  2 space group operations
 (whereof  2 operations were pure point group operations)
 out of a pool of 48 trial point group operations.


The static configuration has the point symmetry S_2 .


Analysis of symmetry for dynamics (positions and initial velocities):
=====================================================================
 Subroutine PRICEL returns:
 Original cell was already a primitive cell.
 

 Routine SETGRP: Setting up the symmetry group for a 
 simple cubic supercell.


 Subroutine GETGRP returns: Found  2 space group operations
 (whereof  2 operations were pure point group operations)
 out of a pool of 48 trial point group operations.


The dynamic configuration has the point symmetry S_2 .


Analysis of structural, dynamic, and magnetic symmetry:
=====================================================================
 Subroutine PRICEL returns:
 Original cell was already a primitive cell.
 

 Routine SETGRP: Setting up the symmetry group for a 
 simple cubic supercell.


 Subroutine GETGRP returns: Found  2 space group operations
 (whereof  2 operations were pure point group operations)
 out of a pool of 48 trial point group operations.


The magnetic configuration has the point symmetry S_2 .


 Subroutine INISYM returns: Found  2 space group operations
 (whereof  2 operations are pure point group operations),
 and found     1 'primitive' translations

 
 
 KPOINTS: XXX                          ! Comment l

Automatic generation of k-mesh.
Space group operators:
 irot       det(A)        alpha          n_x          n_y          n_z        tau_x        tau_y        tau_z
    1     1.000000     0.000000     1.000000     0.000000     0.000000     0.000000     0.000000     0.000000
    2    -1.000000     0.000000     1.000000     0.000000     0.000000     0.000000     0.000000     0.000000
 
 Subroutine IBZKPT returns following result:
 ===========================================
 
 Found      1 irreducible k-points:
 
 Following reciprocal coordinates:
            Coordinates               Weight
  0.000000  0.000000  0.000000      1.000000
 
 Following cartesian coordinates:
            Coordinates               Weight
  0.000000  0.000000  0.000000      1.000000
 


--------------------------------------------------------------------------------------------------------




 Dimension of arrays:
   k-points           NKPTS =      1   k-points in BZ     NKDIM =      1   number of bands    NBANDS=     28
   number of dos      NEDOS =    301   number of ions     NIONS =      4
   non local maximal  LDIM  =      8   non local SUM 2l+1 LMDIM =     32
   total plane-waves  NPLWV = 884736
   max r-space proj   IRMAX =   2467   max aug-charges    IRDMAX=  71026
   dimension x,y,z NGX =    96 NGY =   96 NGZ =   96
   dimension x,y,z NGXF=   192 NGYF=  192 NGZF=  192
   support grid    NGXF=   384 NGYF=  384 NGZF=  384
   ions per type =               4
   NGX,Y,Z   is equivalent  to a cutoff of   9.39,  9.39,  9.39 a.u.
   NGXF,Y,Z  is equivalent  to a cutoff of  18.78, 18.78, 18.78 a.u.

 SYSTEM =  Ag                                      
 POSCAR =  Ag                                      

 Startparameter for this run:
   NWRITE =      1    write-flag & timer
   PREC   = normal    normal or accurate (medium, high low for compatibility)
   ISTART =      0    job   : 0-new  1-cont  2-samecut
   ICHARG =      2    charge: 1-file 2-atom 10-const
   ISPIN  =      2    spin polarized calculation?
   LNONCOLLINEAR =      F non collinear calculations
   LSORBIT =      F    spin-orbit coupling
   INIWAV =      1    electr: 0-lowe 1-rand  2-diag
   LASPH  =      T    aspherical Exc in radial PAW
   METAGGA=      F    non-selfconsistent MetaGGA calc.

 Electronic Relaxation 1
   ENCUT  =  500.0 eV  36.75 Ry    6.06 a.u.  30.99 30.99 30.99*2*pi/ulx,y,z
   ENINI  =  500.0     initial cutoff
   ENAUG  =  607.7 eV  augmentation charge cutoff
   NELM   =    120;   NELMIN=  6; NELMDL= -8     # of ELM steps 
   EDIFF  = 0.1E-05   stopping-criterion for ELM
   LREAL  =      T    real-space projection
   NLSPLINE    = F    spline interpolate recip. space projectors
   LCOMPAT=      F    compatible to vasp.4.4
   GGA_COMPAT  = T    GGA compatible to vasp.4.4-vasp.4.6
   LMAXPAW     = -100 max onsite density
   LMAXMIX     =    2 max onsite mixed and CHGCAR
   VOSKOWN=      0    Vosko Wilk Nusair interpolation
   ROPT   =   -0.00050
 Ionic relaxation
   EDIFFG = -.1E-01   stopping-criterion for IOM
   NSW    =    200    number of steps for IOM
   NBLOCK =      1;   KBLOCK =    200    inner block; outer block 
   IBRION =      2    ionic relax: 0-MD 1-quasi-New 2-CG
   NFREE  =      1    steps in history (QN), initial steepest desc. (CG)
   ISIF   =      0    stress and relaxation
   IWAVPR =     11    prediction:  0-non 1-charg 2-wave 3-comb
   ISYM   =      2    0-nonsym 1-usesym 2-fastsym
   LCORR  =      T    Harris-Foulkes like correction to forces

   POTIM  = 0.5000    time-step for ionic-motion
   TEIN   =    0.0    initial temperature
   TEBEG  =    0.0;   TEEND  =   0.0 temperature during run
   SMASS  =  -3.00    Nose mass-parameter (am)
   estimated Nose-frequenzy (Omega)   =  0.10E-29 period in steps =****** mass=  -0.660E-26a.u.
   SCALEE = 1.0000    scale energy and forces
   NPACO  =    256;   APACO  = 16.0  distance and # of slots for P.C.
   PSTRESS=    0.0 pullay stress

  Mass of Ions in am
   POMASS = 107.87
  Ionic Valenz
   ZVAL   =  11.00
  Atomic Wigner-Seitz radii
   RWIGS  =  -1.00
  virtual crystal weights 
   VCA    =   1.00
   NELECT =      44.0000    total number of electrons
   NUPDOWN=      -1.0000    fix difference up-down

 DOS related values:
   EMIN   =  10.00;   EMAX   =-10.00  energy-range for DOS
   EFERMI =   0.00
   ISMEAR =     0;   SIGMA  =   0.01  broadening in eV -4-tet -1-fermi 0-gaus

 Electronic relaxation 2 (details)
   IALGO  =     38    algorithm
   LDIAG  =      T    sub-space diagonalisation (order eigenvalues)
   LSUBROT=      F    optimize rotation matrix (better conditioning)
   TURBO    =      0    0=normal 1=particle mesh
   IRESTART =      0    0=no restart 2=restart with 2 vectors
   NREBOOT  =      0    no. of reboots
   NMIN     =      0    reboot dimension
   EREF     =   0.00    reference energy to select bands
   IMIX   =      4    mixing-type and parameters
     AMIX     =   0.02;   BMIX     =  0.00
     AMIX_MAG =   0.10;   BMIX_MAG =  0.00
     AMIN     =   0.02
     WC   =   100.;   INIMIX=   1;  MIXPRE=   1;  MAXMIX= -45

 Intra band minimization:
   WEIMIN = 0.0010     energy-eigenvalue tresh-hold
   EBREAK =  0.89E-08  absolut break condition
   DEPER  =   0.30     relativ break condition  

   TIME   =   0.40     timestep for ELM

  volume/ion in A,a.u.               =    1228.25      8288.64
  Fermi-wavevector in a.u.,A,eV,Ry     =   0.339972  0.642454  1.572577  0.115581
  Thomas-Fermi vector in A             =   1.243299
 
 Write flags
   LWAVE        =      F    write WAVECAR
   LDOWNSAMPLE  =      F    k-point downsampling of WAVECAR
   LCHARG       =      F    write CHGCAR
   LVTOT        =      F    write LOCPOT, total local potential
   LVHAR        =      F    write LOCPOT, Hartree potential only
   LELF         =      F    write electronic localiz. function (ELF)
   LORBIT       =     10    0 simple, 1 ext, 2 COOP (PROOUT), +10 PAW based schemes


 Dipole corrections
   LMONO  =      F    monopole corrections only (constant potential shift)
   LDIPOL =      F    correct potential (dipole corrections)
   IDIPOL =      0    1-x, 2-y, 3-z, 4-all directions 
   EPSILON=  1.0000000 bulk dielectric constant

 Exchange correlation treatment:
   GGA     =    --    GGA type
   LEXCH   =     8    internal setting for exchange type
   VOSKOWN=      0    Vosko Wilk Nusair interpolation
   LHFCALC =     F    Hartree Fock is set to
   LHFONE  =     F    Hartree Fock one center treatment
   AEXX    =    0.0000 exact exchange contribution

 Linear response parameters
   LEPSILON=     F    determine dielectric tensor
   LRPA    =     F    only Hartree local field effects (RPA)
   LNABLA  =     F    use nabla operator in PAW spheres
   LVEL    =     F    velocity operator in full k-point grid
   LINTERFAST=   F  fast interpolation
   KINTER  =     0    interpolate to denser k-point grid
   CSHIFT  =0.1000    complex shift for real part using Kramers Kronig
   OMEGAMAX=  -1.0    maximum frequency
   DEG_THRESHOLD= 0.2000000E-02 threshold for treating states as degnerate
   RTIME   =   -0.100 relaxation time in fs
  (WPLASMAI=    0.000 imaginary part of plasma frequency in eV, 0.658/RTIME)
   DFIELD  = 0.0000000 0.0000000 0.0000000 field for delta impulse in time
 
 Orbital magnetization related:
   ORBITALMAG=     F  switch on orbital magnetization
   LCHIMAG   =     F  perturbation theory with respect to B field
   DQ        =  0.001000  dq finite difference perturbation B field
   LLRAUG    =     F  two centre corrections for induced B field



--------------------------------------------------------------------------------------------------------


 conjugate gradient relaxation of ions
 charge density and potential will be updated during run
 spin polarized calculation
 Variant of blocked Davidson
 Davidson routine will perform the subspace rotation
 perform sub-space diagonalisation
    after iterative eigenvector-optimisation
 modified Broyden-mixing scheme, WC =      100.0
 initial mixing is a Kerker type mixing with AMIX =  0.0200 and BMIX =      0.0000
 Hartree-type preconditioning will be used
 using additional bands            6
 real space projection scheme for non local part
 use partial core corrections
 calculate Harris-corrections to forces 
   (improved forces if not selfconsistent)
 use gradient corrections 
 use of overlap-Matrix (Vanderbilt PP)
 Gauss-broadening in eV      SIGMA  =   0.01


--------------------------------------------------------------------------------------------------------


  energy-cutoff  :      500.00
  volume of cell :     4913.00
      direct lattice vectors                 reciprocal lattice vectors
    17.000000000  0.000000000  0.000000000     0.058823529  0.000000000  0.000000000
     0.000000000 17.000000000  0.000000000     0.000000000  0.058823529  0.000000000
     0.000000000  0.000000000 17.000000000     0.000000000  0.000000000  0.058823529

  length of vectors
    17.000000000 17.000000000 17.000000000     0.058823529  0.058823529  0.058823529


 
 k-points in units of 2pi/SCALE and weight: XXX                          ! Comment l
   0.00000000  0.00000000  0.00000000       1.000
 
 k-points in reciprocal lattice and weights: XXX                          ! Comment l
   0.00000000  0.00000000  0.00000000       1.000
 
 position of ions in fractional coordinates (direct lattice) 
   0.03248941  0.04649882  0.94505000
   0.89200294  0.09403412  0.01571882
   0.10799471  0.90596412  0.98427824
   0.96750941  0.95349941  0.05494824
 
 position of ions in cartesian coordinates  (Angst):
   0.55232000  0.79048000 16.06585000
  15.16405000  1.59858000  0.26722000
   1.83591000 15.40139000 16.73273000
  16.44766000 16.20949000  0.93412000
 


--------------------------------------------------------------------------------------------------------


 use parallel FFT for orbitals z direction half grid
 k-point  1 :   0.0000 0.0000 0.0000  plane waves:   62145

 maximum and minimum number of plane-waves per node :     15539    15530

 maximum number of plane-waves:     62145
 maximum index in each direction: 
   IXMAX=   30   IYMAX=   30   IZMAX=   30
   IXMIN=  -30   IYMIN=  -30   IZMIN=    0


 real space projection operators:
  total allocation   :       2346.25 KBytes
  max/ min on nodes  :        590.25        580.50


 parallel 3D FFT for wavefunctions:
    minimum data exchange during FFTs selected (reduces bandwidth)
 parallel 3D FFT for charge:
    minimum data exchange during FFTs selected (reduces bandwidth)


 total amount of memory used by VASP MPI-rank0   253986. kBytes
=======================================================================

   base      :      30000. kBytes
   nonlr-proj:        725. kBytes
   fftplans  :     134259. kBytes
   grid      :      81985. kBytes
   one-center:         49. kBytes
   wavefun   :       6968. kBytes
 
     INWAV:  cpu time    0.0010: real time    0.0006
 Broyden mixing: mesh for mixing (old mesh)
   NGX = 61   NGY = 61   NGZ = 61
  (NGX  =192   NGY  =192   NGZ  =192)
  gives a total of 226981 points

 initial charge density was supplied:
 charge density of overlapping atoms calculated
 number of electron      44.0000000 magnetization       4.0000000
 keeping initial charge density in first step


--------------------------------------------------------------------------------------------------------


 Maximum index for non-local projection operator          595
 Maximum index for augmentation-charges         8650 (set IRDMAX)


--------------------------------------------------------------------------------------------------------


 First call to EWALD:  gamma=   0.104
 Maximum number of real-space cells 3x 3x 3
 Maximum number of reciprocal cells 3x 3x 3

    FEWALD:  cpu time    0.0020: real time    0.0022


--------------------------------------- Iteration      1(   1)  ---------------------------------------


    POTLOK:  cpu time    3.4555: real time    3.4635
    SETDIJ:  cpu time    3.3395: real time    3.3456
     EDDAV:  cpu time    4.6723: real time    4.7168
       DOS:  cpu time    0.0000: real time    0.0002
    --------------------------------------------
      LOOP:  cpu time   11.4673: real time   11.5261

 eigenvalue-minimisations  :   112
 total energy-change (2. order) : 0.3715429E+03  (-0.7877131E+03)
 number of electron      44.0000000 magnetization       4.0000000
 augmentation part       44.0000000 magnetization       4.0000000

 Free energy of the ion-electron system (eV)
  ---------------------------------------------------
  alpha Z        PSCENC =         2.67987817
  Ewald energy   TEWEN  =      1219.25648149
  -Hartree energ DENC   =     -5185.34036578
  -exchange      EXHF   =         0.00000000
  -V(xc)+E(xc)   XCENC  =       -46.43880369
  PAW double counting   =      4011.42316115    -3829.05885620
  entropy T*S    EENTRO =        -0.00000000
  eigenvalues    EBANDS =        49.97124153
  atomic energy  EATOM  =      4149.05011781
  Solvation  Ediel_sol  =         0.00000000
  ---------------------------------------------------
  free energy    TOTEN  =       371.54285448 eV

  energy without entropy =      371.54285448  energy(sigma->0) =      371.54285448


--------------------------------------------------------------------------------------------------------




--------------------------------------- Iteration      1(   2)  ---------------------------------------


     EDDAV:  cpu time    8.2287: real time    8.2581
       DOS:  cpu time    0.0000: real time    0.0002
    --------------------------------------------
      LOOP:  cpu time    8.2287: real time    8.2582

 eigenvalue-minimisations  :   224
 total energy-change (2. order) :-0.1678975E+03  (-0.1604467E+03)
 number of electron      44.0000000 magnetization       4.0000000
 augmentation part       44.0000000 magnetization       4.0000000

 Free energy of the ion-electron system (eV)
  ---------------------------------------------------
  alpha Z        PSCENC =         2.67987817
  Ewald energy   TEWEN  =      1219.25648149
  -Hartree energ DENC   =     -5185.34036578
  -exchange      EXHF   =         0.00000000
  -V(xc)+E(xc)   XCENC  =       -46.43880369
  PAW double counting   =      4011.42316115    -3829.05885620
  entropy T*S    EENTRO =        -0.00000000
  eigenvalues    EBANDS =      -117.92623123
  atomic energy  EATOM  =      4149.05011781
  Solvation  Ediel_sol  =         0.00000000
  ---------------------------------------------------
  free energy    TOTEN  =       203.64538172 eV

  energy without entropy =      203.64538172  energy(sigma->0) =      203.64538172


--------------------------------------------------------------------------------------------------------




--------------------------------------- Iteration      1(   3)  ---------------------------------------


     EDDAV:  cpu time    7.7128: real time    7.7416
       DOS:  cpu time    0.0000: real time    0.0001
    --------------------------------------------
      LOOP:  cpu time    7.7128: real time    7.7416

 eigenvalue-minimisations  :   208
 total energy-change (2. order) :-0.1539402E+03  (-0.1482842E+03)
 number of electron      44.0000000 magnetization       4.0000000
 augmentation part       44.0000000 magnetization       4.0000000

 Free energy of the ion-electron system (eV)
  ---------------------------------------------------
  alpha Z        PSCENC =         2.67987817
  Ewald energy   TEWEN  =      1219.25648149
  -Hartree energ DENC   =     -5185.34036578
  -exchange      EXHF   =         0.00000000
  -V(xc)+E(xc)   XCENC  =       -46.43880369
  PAW double counting   =      4011.42316115    -3829.05885620
  entropy T*S    EENTRO =        -0.00000000
  eigenvalues    EBANDS =      -271.86646309
  atomic energy  EATOM  =      4149.05011781
  Solvation  Ediel_sol  =         0.00000000
  ---------------------------------------------------
  free energy    TOTEN  =        49.70514986 eV

  energy without entropy =       49.70514986  energy(sigma->0) =       49.70514986


--------------------------------------------------------------------------------------------------------




--------------------------------------- Iteration      1(   4)  ---------------------------------------


     EDDAV:  cpu time    6.2091: real time    6.2329
       DOS:  cpu time    0.0000: real time    0.0001
    --------------------------------------------
      LOOP:  cpu time    6.2091: real time    6.2331

 eigenvalue-minimisations  :   160
 total energy-change (2. order) :-0.4559199E+02  (-0.4409726E+02)
 number of electron      44.0000000 magnetization       4.0000000
 augmentation part       44.0000000 magnetization       4.0000000

 Free energy of the ion-electron system (eV)
  ---------------------------------------------------
  alpha Z        PSCENC =         2.67987817
  Ewald energy   TEWEN  =      1219.25648149
  -Hartree energ DENC   =     -5185.34036578
  -exchange      EXHF   =         0.00000000
  -V(xc)+E(xc)   XCENC  =       -46.43880369
  PAW double counting   =      4011.42316115    -3829.05885620
  entropy T*S    EENTRO =        -0.00000000
  eigenvalues    EBANDS =      -317.45845422
  atomic energy  EATOM  =      4149.05011781
  Solvation  Ediel_sol  =         0.00000000
  ---------------------------------------------------
  free energy    TOTEN  =         4.11315873 eV

  energy without entropy =        4.11315873  energy(sigma->0) =        4.11315873


--------------------------------------------------------------------------------------------------------




--------------------------------------- Iteration      1(   5)  ---------------------------------------


     EDDAV:  cpu time    5.8041: real time    5.8446
       DOS:  cpu time    0.0000: real time    0.0001
    --------------------------------------------
      LOOP:  cpu time    5.8041: real time    5.8447

 eigenvalue-minimisations  :   148
 total energy-change (2. order) :-0.9130986E+01  (-0.8118515E+01)
 number of electron      44.0000000 magnetization       4.0000000
 augmentation part       44.0000000 magnetization       4.0000000

 Free energy of the ion-electron system (eV)
  ---------------------------------------------------
  alpha Z        PSCENC =         2.67987817
  Ewald energy   TEWEN  =      1219.25648149
  -Hartree energ DENC   =     -5185.34036578
  -exchange      EXHF   =         0.00000000
  -V(xc)+E(xc)   XCENC  =       -46.43880369
  PAW double counting   =      4011.42316115    -3829.05885620
  entropy T*S    EENTRO =        -0.00000000
  eigenvalues    EBANDS =      -326.58944049
  atomic energy  EATOM  =      4149.05011781
  Solvation  Ediel_sol  =         0.00000000
  ---------------------------------------------------
  free energy    TOTEN  =        -5.01782754 eV

  energy without entropy =       -5.01782754  energy(sigma->0) =       -5.01782754


--------------------------------------------------------------------------------------------------------




--------------------------------------- Iteration      1(   6)  ---------------------------------------


     EDDAV:  cpu time    5.1572: real time    5.2148
       DOS:  cpu time    0.0000: real time    0.0002
    --------------------------------------------
      LOOP:  cpu time    5.1572: real time    5.2150

 eigenvalue-minimisations  :   128
 total energy-change (2. order) :-0.3468108E+00  (-0.3466473E+00)
 number of electron      44.0000000 magnetization       4.0000000
 augmentation part       44.0000000 magnetization       4.0000000

 Free energy of the ion-electron system (eV)
  ---------------------------------------------------
  alpha Z        PSCENC =         2.67987817
  Ewald energy   TEWEN  =      1219.25648149
  -Hartree energ DENC   =     -5185.34036578
  -exchange      EXHF   =         0.00000000
  -V(xc)+E(xc)   XCENC  =       -46.43880369
  PAW double counting   =      4011.42316115    -3829.05885620
  entropy T*S    EENTRO =        -0.00000000
  eigenvalues    EBANDS =      -326.93625124
  atomic energy  EATOM  =      4149.05011781
  Solvation  Ediel_sol  =         0.00000000
  ---------------------------------------------------
  free energy    TOTEN  =        -5.36463829 eV

  energy without entropy =       -5.36463829  energy(sigma->0) =       -5.36463829


--------------------------------------------------------------------------------------------------------




--------------------------------------- Iteration      1(   7)  ---------------------------------------


     EDDAV:  cpu time    7.6428: real time    7.6698
       DOS:  cpu time    0.0000: real time    0.0002
    --------------------------------------------
      LOOP:  cpu time    7.6428: real time    7.6700

 eigenvalue-minimisations  :   208
 total energy-change (2. order) :-0.1998635E-01  (-0.1998565E-01)
 number of electron      44.0000000 magnetization       4.0000000
 augmentation part       44.0000000 magnetization       4.0000000

 Free energy of the ion-electron system (eV)
  ---------------------------------------------------
  alpha Z        PSCENC =         2.67987817
  Ewald energy   TEWEN  =      1219.25648149
  -Hartree energ DENC   =     -5185.34036578
  -exchange      EXHF   =         0.00000000
  -V(xc)+E(xc)   XCENC  =       -46.43880369
  PAW double counting   =      4011.42316115    -3829.05885620
  entropy T*S    EENTRO =        -0.00000000
  eigenvalues    EBANDS =      -326.95623760
  atomic energy  EATOM  =      4149.05011781
  Solvation  Ediel_sol  =         0.00000000
  ---------------------------------------------------
  free energy    TOTEN  =        -5.38462464 eV

  energy without entropy =       -5.38462464  energy(sigma->0) =       -5.38462464


--------------------------------------------------------------------------------------------------------




--------------------------------------- Iteration      1(   8)  ---------------------------------------


     EDDAV:  cpu time    5.6721: real time    5.6938
       DOS:  cpu time    0.0000: real time    0.0004
    CHARGE:  cpu time    2.5736: real time    2.5806
    MIXING:  cpu time    0.0860: real time    0.0872
    --------------------------------------------
      LOOP:  cpu time    8.3317: real time    8.3620

 eigenvalue-minimisations  :   144
 total energy-change (2. order) :-0.5355440E-03  (-0.5355434E-03)
 number of electron      44.0000002 magnetization       3.6000000
 augmentation part       20.9492036 magnetization       3.6762499

 Broyden mixing:
  rms(total) = 0.98719E+00    rms(broyden)= 0.98718E+00
  rms(prec ) = 0.10141E+01
  weight for this iteration     100.00

 Free energy of the ion-electron system (eV)
  ---------------------------------------------------
  alpha Z        PSCENC =         2.67987817
  Ewald energy   TEWEN  =      1219.25648149
  -Hartree energ DENC   =     -5185.34036578
  -exchange      EXHF   =         0.00000000
  -V(xc)+E(xc)   XCENC  =       -46.43880369
  PAW double counting   =      4011.42316115    -3829.05885620
  entropy T*S    EENTRO =        -0.00000000
  eigenvalues    EBANDS =      -326.95677314
  atomic energy  EATOM  =      4149.05011781
  Solvation  Ediel_sol  =         0.00000000
  ---------------------------------------------------
  free energy    TOTEN  =        -5.38516019 eV

  energy without entropy =       -5.38516019  energy(sigma->0) =       -5.38516019


--------------------------------------------------------------------------------------------------------




--------------------------------------- Iteration      1(   9)  ---------------------------------------


    POTLOK:  cpu time    3.4315: real time    3.4400
    SETDIJ:  cpu time    3.3705: real time    3.3755
     EDDAV:  cpu time    5.2142: real time    5.2663
       DOS:  cpu time    0.0000: real time    0.0004
    CHARGE:  cpu time    2.6156: real time    2.6226
    MIXING:  cpu time    0.0860: real time    0.0857
    --------------------------------------------
      LOOP:  cpu time   14.7178: real time   14.7906

 eigenvalue-minimisations  :   136
 total energy-change (2. order) :-0.5226783E-01  (-0.7710475E-03)
 number of electron      44.0000002 magnetization      -0.2908276
 augmentation part       20.9587512 magnetization      -0.2208912

 Broyden mixing:
  rms(total) = 0.90346E+00    rms(broyden)= 0.90346E+00
  rms(prec ) = 0.93020E+00
  weight for this iteration     100.00

 eigenvalues of (default mixing * dielectric matrix)
  average eigenvalue GAMMA=  10.3902
 10.3902

 Free energy of the ion-electron system (eV)
  ---------------------------------------------------
  alpha Z        PSCENC =         2.67987817
  Ewald energy   TEWEN  =      1219.25648149
  -Hartree energ DENC   =     -5185.63138532
  -exchange      EXHF   =         0.00000000
  -V(xc)+E(xc)   XCENC  =       -46.51986484
  PAW double counting   =      4013.44553195    -3831.17439657
  entropy T*S    EENTRO =        -0.00000000
  eigenvalues    EBANDS =      -326.54379072
  atomic energy  EATOM  =      4149.05011781
  Solvation  Ediel_sol  =         0.00000000
  ---------------------------------------------------
  free energy    TOTEN  =        -5.43742802 eV

  energy without entropy =       -5.43742802  energy(sigma->0) =       -5.43742802


--------------------------------------------------------------------------------------------------------




--------------------------------------- Iteration      1(  10)  ---------------------------------------


    POTLOK:  cpu time    3.4145: real time    3.4230
    SETDIJ:  cpu time    3.3455: real time    3.3513
     EDDAV:  cpu time    4.4963: real time    4.5117
       DOS:  cpu time    0.0000: real time    0.0004
    CHARGE:  cpu time    2.5936: real time    2.6050
    MIXING:  cpu time    0.1030: real time    0.1024
    --------------------------------------------
      LOOP:  cpu time   13.9529: real time   13.9938

 eigenvalue-minimisations  :   112
 total energy-change (2. order) :-0.8648069E-01  (-0.7018939E-01)
 number of electron      44.0000002 magnetization      -0.2736682
 augmentation part       21.0506861 magnetization      -0.2653235

 Broyden mixing:
  rms(total) = 0.30076E+00    rms(broyden)= 0.30076E+00
  rms(prec ) = 0.32227E+00
  weight for this iteration     100.00

 eigenvalues of (default mixing * dielectric matrix)
  average eigenvalue GAMMA=   6.0631
 10.3840  1.7421

 Free energy of the ion-electron system (eV)
  ---------------------------------------------------
  alpha Z        PSCENC =         2.67987817
  Ewald energy   TEWEN  =      1219.25648149
  -Hartree energ DENC   =     -5188.68070989
  -exchange      EXHF   =         0.00000000
  -V(xc)+E(xc)   XCENC  =       -46.96518508
  PAW double counting   =      4035.25844227    -3853.98428735
  entropy T*S    EENTRO =        -0.00000000
  eigenvalues    EBANDS =      -322.13864613
  atomic energy  EATOM  =      4149.05011781
  Solvation  Ediel_sol  =         0.00000000
  ---------------------------------------------------
  free energy    TOTEN  =        -5.52390872 eV

  energy without entropy =       -5.52390872  energy(sigma->0) =       -5.52390872


--------------------------------------------------------------------------------------------------------




--------------------------------------- Iteration      1(  11)  ---------------------------------------


    POTLOK:  cpu time    3.4165: real time    3.4257
    SETDIJ:  cpu time    3.3395: real time    3.3446
     EDDAV:  cpu time    5.1162: real time    5.1459
       DOS:  cpu time    0.0000: real time    0.0004
    CHARGE:  cpu time    2.5996: real time    2.6221
    MIXING:  cpu time    0.1010: real time    0.1011
    --------------------------------------------
      LOOP:  cpu time   14.5728: real time   14.6398

 eigenvalue-minimisations  :   132
 total energy-change (2. order) : 0.7039642E-02  (-0.3533902E-02)
 number of electron      44.0000002 magnetization      -0.1638688
 augmentation part       21.0576570 magnetization      -0.1575982

 Broyden mixing:
  rms(total) = 0.28767E+00    rms(broyden)= 0.28767E+00
  rms(prec ) = 0.30779E+00
  weight for this iteration     100.00

 eigenvalues of (default mixing * dielectric matrix)
  average eigenvalue GAMMA=   5.8143
 10.6626  5.4031  1.3773

 Free energy of the ion-electron system (eV)
  ---------------------------------------------------
  alpha Z        PSCENC =         2.67987817
  Ewald energy   TEWEN  =      1219.25648149
  -Hartree energ DENC   =     -5188.77144388
  -exchange      EXHF   =         0.00000000
  -V(xc)+E(xc)   XCENC  =       -46.97302848
  PAW double counting   =      4036.90684935    -3855.70772120
  entropy T*S    EENTRO =        -0.00000000
  eigenvalues    EBANDS =      -321.95800233
  atomic energy  EATOM  =      4149.05011781
  Solvation  Ediel_sol  =         0.00000000
  ---------------------------------------------------
  free energy    TOTEN  =        -5.51686907 eV

  energy without entropy =       -5.51686907  energy(sigma->0) =       -5.51686907


--------------------------------------------------------------------------------------------------------




--------------------------------------- Iteration      1(  12)  ---------------------------------------


    POTLOK:  cpu time    3.4095: real time    3.4172
    SETDIJ:  cpu time    3.3235: real time    3.3293
     EDDAV:  cpu time    4.5323: real time    4.5489
       DOS:  cpu time    0.0000: real time    0.0002
    CHARGE:  cpu time    2.5806: real time    2.5885
    MIXING:  cpu time    0.1090: real time    0.1097
    --------------------------------------------
      LOOP:  cpu time   13.9549: real time   13.9939

 eigenvalue-minimisations  :   112
 total energy-change (2. order) : 0.5889063E-01  (-0.6505753E-02)
 number of electron      44.0000002 magnetization       0.1267034
 augmentation part       21.0892066 magnetization       0.1273558

 Broyden mixing:
  rms(total) = 0.24726E+00    rms(broyden)= 0.24726E+00
  rms(prec ) = 0.25864E+00
  weight for this iteration     100.00

 eigenvalues of (default mixing * dielectric matrix)
  average eigenvalue GAMMA=   8.6470
 21.8504 10.1952  1.8826  0.6597

 Free energy of the ion-electron system (eV)
  ---------------------------------------------------
  alpha Z        PSCENC =         2.67987817
  Ewald energy   TEWEN  =      1219.25648149
  -Hartree energ DENC   =     -5189.51167750
  -exchange      EXHF   =         0.00000000
  -V(xc)+E(xc)   XCENC  =       -47.02789176
  PAW double counting   =      4049.82433628    -3869.20607132
  entropy T*S    EENTRO =        -0.00000000
  eigenvalues    EBANDS =      -320.52315162
  atomic energy  EATOM  =      4149.05011781
  Solvation  Ediel_sol  =         0.00000000
  ---------------------------------------------------
  free energy    TOTEN  =        -5.45797845 eV

  energy without entropy =       -5.45797845  energy(sigma->0) =       -5.45797845


--------------------------------------------------------------------------------------------------------




--------------------------------------- Iteration      1(  13)  ---------------------------------------


    POTLOK:  cpu time    3.4225: real time    3.4289
    SETDIJ:  cpu time    3.3605: real time    3.3626
     EDDAV:  cpu time    4.5263: real time    4.5341
       DOS:  cpu time    0.0000: real time    0.0004
    CHARGE:  cpu time    2.6026: real time    2.6054
    MIXING:  cpu time    0.1290: real time    0.1292
    --------------------------------------------
      LOOP:  cpu time   14.0409: real time   14.0606

 eigenvalue-minimisations  :   112
 total energy-change (2. order) : 0.3533300E-01  (-0.2716609E-01)
 number of electron      44.0000002 magnetization       0.0651973
 augmentation part       21.1554882 magnetization       0.0566982

 Broyden mixing:
  rms(total) = 0.18736E+00    rms(broyden)= 0.18736E+00
  rms(prec ) = 0.19112E+00
  weight for this iteration     100.00

 eigenvalues of (default mixing * dielectric matrix)
  average eigenvalue GAMMA=  11.9308
 33.8581 13.9787  9.9871  0.9150  0.9150

 Free energy of the ion-electron system (eV)
  ---------------------------------------------------
  alpha Z        PSCENC =         2.67987817
  Ewald energy   TEWEN  =      1219.25648149
  -Hartree energ DENC   =     -5191.06805329
  -exchange      EXHF   =         0.00000000
  -V(xc)+E(xc)   XCENC  =       -47.12939721
  PAW double counting   =      4078.55997323    -3899.21306356
  entropy T*S    EENTRO =        -0.00000000
  eigenvalues    EBANDS =      -317.55858210
  atomic energy  EATOM  =      4149.05011781
  Solvation  Ediel_sol  =         0.00000000
  ---------------------------------------------------
  free energy    TOTEN  =        -5.42264545 eV

  energy without entropy =       -5.42264545  energy(sigma->0) =       -5.42264545


--------------------------------------------------------------------------------------------------------




--------------------------------------- Iteration      1(  14)  ---------------------------------------


    POTLOK:  cpu time    3.3965: real time    3.4369
    SETDIJ:  cpu time    3.2935: real time    3.2966
     EDDAV:  cpu time    5.6741: real time    5.6840
       DOS:  cpu time    0.0010: real time    0.0006
    CHARGE:  cpu time    2.5716: real time    2.5748
    MIXING:  cpu time    0.1280: real time    0.1282
    --------------------------------------------
      LOOP:  cpu time   15.0647: real time   15.1212

 eigenvalue-minimisations  :   148
 total energy-change (2. order) : 0.4127197E-02  (-0.3861283E-02)
 number of electron      44.0000002 magnetization      -0.0895982
 augmentation part       21.1509273 magnetization      -0.0905488

 Broyden mixing:
  rms(total) = 0.11171E+00    rms(broyden)= 0.11171E+00
  rms(prec ) = 0.11392E+00
  weight for this iteration     100.00

 eigenvalues of (default mixing * dielectric matrix)
  average eigenvalue GAMMA=  11.3601
 40.3007 14.5319 10.1540  1.0005  0.8984  1.2749

 Free energy of the ion-electron system (eV)
  ---------------------------------------------------
  alpha Z        PSCENC =         2.67987817
  Ewald energy   TEWEN  =      1219.25648149
  -Hartree energ DENC   =     -5190.88914997
  -exchange      EXHF   =         0.00000000
  -V(xc)+E(xc)   XCENC  =       -47.12986823
  PAW double counting   =      4096.69553165    -3918.09789736
  entropy T*S    EENTRO =        -0.00000000
  eigenvalues    EBANDS =      -316.98361182
  atomic energy  EATOM  =      4149.05011781
  Solvation  Ediel_sol  =         0.00000000
  ---------------------------------------------------
  free energy    TOTEN  =        -5.41851825 eV

  energy without entropy =       -5.41851825  energy(sigma->0) =       -5.41851825


--------------------------------------------------------------------------------------------------------




--------------------------------------- Iteration      1(  15)  ---------------------------------------


    POTLOK:  cpu time    3.4275: real time    3.4325
    SETDIJ:  cpu time    3.2715: real time    3.2743
     EDDAV:  cpu time    4.5833: real time    4.5899
       DOS:  cpu time    0.0000: real time    0.0003
    CHARGE:  cpu time    2.5356: real time    2.5385
    MIXING:  cpu time    0.1400: real time    0.1403
    --------------------------------------------
      LOOP:  cpu time   13.9579: real time   13.9758

 eigenvalue-minimisations  :   112
 total energy-change (2. order) : 0.3382985E-02  (-0.1824586E-02)
 number of electron      44.0000002 magnetization      -0.1039039
 augmentation part       21.1448078 magnetization      -0.0979085

 Broyden mixing:
  rms(total) = 0.55036E-01    rms(broyden)= 0.55036E-01
  rms(prec ) = 0.56224E-01
  weight for this iteration     100.00

 eigenvalues of (default mixing * dielectric matrix)
  average eigenvalue GAMMA=  10.9390
 43.8636 15.4611 10.2536  4.2269  0.9944  0.8868  0.8868

 Free energy of the ion-electron system (eV)
  ---------------------------------------------------
  alpha Z        PSCENC =         2.67987817
  Ewald energy   TEWEN  =      1219.25648149
  -Hartree energ DENC   =     -5190.60727272
  -exchange      EXHF   =         0.00000000
  -V(xc)+E(xc)   XCENC  =       -47.11862893
  PAW double counting   =      4114.65830813    -3936.79779244
  entropy T*S    EENTRO =        -0.00000000
  eigenvalues    EBANDS =      -316.53622678
  atomic energy  EATOM  =      4149.05011781
  Solvation  Ediel_sol  =         0.00000000
  ---------------------------------------------------
  free energy    TOTEN  =        -5.41513527 eV

  energy without entropy =       -5.41513527  energy(sigma->0) =       -5.41513527


--------------------------------------------------------------------------------------------------------




--------------------------------------- Iteration      1(  16)  ---------------------------------------


    POTLOK:  cpu time    3.3995: real time    3.4406
    SETDIJ:  cpu time    3.2745: real time    3.2779
     EDDAV:  cpu time    5.8841: real time    5.8929
       DOS:  cpu time    0.0010: real time    0.0005
    CHARGE:  cpu time    2.5296: real time    2.5343
    MIXING:  cpu time    0.1510: real time    0.1505
    --------------------------------------------
      LOOP:  cpu time   15.2397: real time   15.2968

 eigenvalue-minimisations  :   156
 total energy-change (2. order) : 0.9128297E-04  (-0.1897516E-03)
 number of electron      44.0000002 magnetization       0.0080471
 augmentation part       21.1412749 magnetization       0.0140426

 Broyden mixing:
  rms(total) = 0.41915E-01    rms(broyden)= 0.41915E-01
  rms(prec ) = 0.43256E-01
  weight for this iteration     100.00

 eigenvalues of (default mixing * dielectric matrix)
  average eigenvalue GAMMA=  11.3271
 46.3505 18.0717 12.3229 10.0292  0.9330  0.9330  0.9881  0.9881

 Free energy of the ion-electron system (eV)
  ---------------------------------------------------
  alpha Z        PSCENC =         2.67987817
  Ewald energy   TEWEN  =      1219.25648149
  -Hartree energ DENC   =     -5190.59304170
  -exchange      EXHF   =         0.00000000
  -V(xc)+E(xc)   XCENC  =       -47.11363697
  PAW double counting   =      4117.75381655    -3940.02622078
  entropy T*S    EENTRO =        -0.00000000
  eigenvalues    EBANDS =      -316.42243855
  atomic energy  EATOM  =      4149.05011781
  Solvation  Ediel_sol  =         0.00000000
  ---------------------------------------------------
  free energy    TOTEN  =        -5.41504399 eV

  energy without entropy =       -5.41504399  energy(sigma->0) =       -5.41504399


--------------------------------------------------------------------------------------------------------




--------------------------------------- Iteration      1(  17)  ---------------------------------------


    POTLOK:  cpu time    3.4305: real time    3.4341
    SETDIJ:  cpu time    3.2775: real time    3.2800
     EDDAV:  cpu time    5.3822: real time    5.3903
       DOS:  cpu time    0.0010: real time    0.0004
    CHARGE:  cpu time    2.5466: real time    2.5509
    MIXING:  cpu time    0.1640: real time    0.1638
    --------------------------------------------
      LOOP:  cpu time   14.8017: real time   14.8195

 eigenvalue-minimisations  :   140
 total energy-change (2. order) : 0.2681641E-03  (-0.4097171E-03)
 number of electron      44.0000002 magnetization       0.0041787
 augmentation part       21.1373956 magnetization       0.0042757

 Broyden mixing:
  rms(total) = 0.15665E-01    rms(broyden)= 0.15665E-01
  rms(prec ) = 0.16409E-01
  weight for this iteration     100.00

 eigenvalues of (default mixing * dielectric matrix)
  average eigenvalue GAMMA=  10.2941
 47.3683 18.6207 11.5828  9.9725  1.1579  1.1579  0.8972  0.8972  0.9926

 Free energy of the ion-electron system (eV)
  ---------------------------------------------------
  alpha Z        PSCENC =         2.67987817
  Ewald energy   TEWEN  =      1219.25648149
  -Hartree energ DENC   =     -5190.91923423
  -exchange      EXHF   =         0.00000000
  -V(xc)+E(xc)   XCENC  =       -47.10977997
  PAW double counting   =      4120.35571232    -3942.77494259
  entropy T*S    EENTRO =        -0.00000000
  eigenvalues    EBANDS =      -315.95300883
  atomic energy  EATOM  =      4149.05011781
  Solvation  Ediel_sol  =         0.00000000
  ---------------------------------------------------
  free energy    TOTEN  =        -5.41477582 eV

  energy without entropy =       -5.41477582  energy(sigma->0) =       -5.41477582


--------------------------------------------------------------------------------------------------------




--------------------------------------- Iteration      1(  18)  ---------------------------------------


    POTLOK:  cpu time    3.4185: real time    3.4401
    SETDIJ:  cpu time    3.2295: real time    3.2797
     EDDAV:  cpu time    5.0372: real time    5.0552
       DOS:  cpu time    0.0010: real time    0.0005
    CHARGE:  cpu time    2.5256: real time    2.5356
    MIXING:  cpu time    0.1860: real time    0.1856
    --------------------------------------------
      LOOP:  cpu time   14.3978: real time   14.4968

 eigenvalue-minimisations  :   128
 total energy-change (2. order) :-0.1150338E-03  (-0.6350608E-04)
 number of electron      44.0000002 magnetization      -0.0044882
 augmentation part       21.1365207 magnetization      -0.0048635

 Broyden mixing:
  rms(total) = 0.15580E-01    rms(broyden)= 0.15580E-01
  rms(prec ) = 0.16371E-01
  weight for this iteration     100.00

 eigenvalues of (default mixing * dielectric matrix)
  average eigenvalue GAMMA=   9.5112
 47.6035 18.2843 11.6658  9.9477  3.0346  1.0692  0.9847  0.8955  0.8955  0.7308

 Free energy of the ion-electron system (eV)
  ---------------------------------------------------
  alpha Z        PSCENC =         2.67987817
  Ewald energy   TEWEN  =      1219.25648149
  -Hartree energ DENC   =     -5190.90370404
  -exchange      EXHF   =         0.00000000
  -V(xc)+E(xc)   XCENC  =       -47.11002367
  PAW double counting   =      4120.74196269    -3943.17919536
  entropy T*S    EENTRO =        -0.00000000
  eigenvalues    EBANDS =      -315.95040793
  atomic energy  EATOM  =      4149.05011781
  Solvation  Ediel_sol  =         0.00000000
  ---------------------------------------------------
  free energy    TOTEN  =        -5.41489086 eV

  energy without entropy =       -5.41489086  energy(sigma->0) =       -5.41489086


--------------------------------------------------------------------------------------------------------




--------------------------------------- Iteration      1(  19)  ---------------------------------------


    POTLOK:  cpu time    3.4425: real time    3.4508
    SETDIJ:  cpu time    3.2945: real time    3.3009
     EDDAV:  cpu time    6.3670: real time    6.3898
       DOS:  cpu time    0.0000: real time    0.0005
    CHARGE:  cpu time    2.5106: real time    2.5190
    MIXING:  cpu time    0.1930: real time    0.1931
    --------------------------------------------
      LOOP:  cpu time   15.8076: real time   15.8540

 eigenvalue-minimisations  :   172
 total energy-change (2. order) : 0.6927740E-04  (-0.1081747E-04)
 number of electron      44.0000002 magnetization      -0.0158052
 augmentation part       21.1370497 magnetization      -0.0161463

 Broyden mixing:
  rms(total) = 0.14352E-01    rms(broyden)= 0.14352E-01
  rms(prec ) = 0.14943E-01
  weight for this iteration     100.00

 eigenvalues of (default mixing * dielectric matrix)
  average eigenvalue GAMMA=  10.6487
 48.9755 24.4740 15.8734 11.9101 10.0798  1.1851  0.8992  0.8992  0.9538  0.9538
  0.9316

 Free energy of the ion-electron system (eV)
  ---------------------------------------------------
  alpha Z        PSCENC =         2.67987817
  Ewald energy   TEWEN  =      1219.25648149
  -Hartree energ DENC   =     -5190.89091962
  -exchange      EXHF   =         0.00000000
  -V(xc)+E(xc)   XCENC  =       -47.11236121
  PAW double counting   =      4120.81784797    -3943.26849463
  entropy T*S    EENTRO =        -0.00000000
  eigenvalues    EBANDS =      -315.94737155
  atomic energy  EATOM  =      4149.05011781
  Solvation  Ediel_sol  =         0.00000000
  ---------------------------------------------------
  free energy    TOTEN  =        -5.41482158 eV

  energy without entropy =       -5.41482158  energy(sigma->0) =       -5.41482158


--------------------------------------------------------------------------------------------------------




--------------------------------------- Iteration      1(  20)  ---------------------------------------


    POTLOK:  cpu time    3.4275: real time    3.4524
    SETDIJ:  cpu time    3.2465: real time    3.2854
     EDDAV:  cpu time    4.5823: real time    4.5888
       DOS:  cpu time    0.0000: real time    0.0005
    CHARGE:  cpu time    2.5386: real time    2.5422
    MIXING:  cpu time    0.2180: real time    0.2174
    --------------------------------------------
      LOOP:  cpu time   14.0129: real time   14.0867

 eigenvalue-minimisations  :   112
 total energy-change (2. order) : 0.9290048E-04  (-0.6198871E-04)
 number of electron      44.0000002 magnetization      -0.0114675
 augmentation part       21.1358692 magnetization      -0.0111398

 Broyden mixing:
  rms(total) = 0.75593E-02    rms(broyden)= 0.75592E-02
  rms(prec ) = 0.79645E-02
  weight for this iteration     100.00

 eigenvalues of (default mixing * dielectric matrix)
  average eigenvalue GAMMA=  10.4004
 49.2146 29.2640 16.0015 11.9257 10.0610  2.6376  1.0070  1.0070  0.9134  0.9134
  0.9301  0.9301

 Free energy of the ion-electron system (eV)
  ---------------------------------------------------
  alpha Z        PSCENC =         2.67987817
  Ewald energy   TEWEN  =      1219.25648149
  -Hartree energ DENC   =     -5190.73325505
  -exchange      EXHF   =         0.00000000
  -V(xc)+E(xc)   XCENC  =       -47.11892390
  PAW double counting   =      4121.32140274    -3943.85064299
  entropy T*S    EENTRO =        -0.00000000
  eigenvalues    EBANDS =      -316.01978696
  atomic energy  EATOM  =      4149.05011781
  Solvation  Ediel_sol  =         0.00000000
  ---------------------------------------------------
  free energy    TOTEN  =        -5.41472868 eV

  energy without entropy =       -5.41472868  energy(sigma->0) =       -5.41472868


--------------------------------------------------------------------------------------------------------




--------------------------------------- Iteration      1(  21)  ---------------------------------------


    POTLOK:  cpu time    3.4255: real time    3.4296
    SETDIJ:  cpu time    3.2775: real time    3.2808
     EDDAV:  cpu time    5.3082: real time    5.3160
       DOS:  cpu time    0.0010: real time    0.0007
    CHARGE:  cpu time    2.5336: real time    2.5369
    MIXING:  cpu time    0.2250: real time    0.2255
    --------------------------------------------
      LOOP:  cpu time   14.7708: real time   14.7896

 eigenvalue-minimisations  :   136
 total energy-change (2. order) :-0.4788805E-04  (-0.2018510E-04)
 number of electron      44.0000002 magnetization      -0.0062334
 augmentation part       21.1347016 magnetization      -0.0059608

 Broyden mixing:
  rms(total) = 0.75279E-02    rms(broyden)= 0.75278E-02
  rms(prec ) = 0.80572E-02
  weight for this iteration     100.00

 eigenvalues of (default mixing * dielectric matrix)
  average eigenvalue GAMMA=  10.4342
 48.1917 30.8746 16.6211 13.9175 10.1540  9.2204  1.0266  1.0266  0.9632  0.9167
  0.9167  0.9076  0.9076

 Free energy of the ion-electron system (eV)
  ---------------------------------------------------
  alpha Z        PSCENC =         2.67987817
  Ewald energy   TEWEN  =      1219.25648149
  -Hartree energ DENC   =     -5190.66691756
  -exchange      EXHF   =         0.00000000
  -V(xc)+E(xc)   XCENC  =       -47.12102452
  PAW double counting   =      4121.34029786    -3943.88701531
  entropy T*S    EENTRO =        -0.00000000
  eigenvalues    EBANDS =      -316.06659450
  atomic energy  EATOM  =      4149.05011781
  Solvation  Ediel_sol  =         0.00000000
  ---------------------------------------------------
  free energy    TOTEN  =        -5.41477657 eV

  energy without entropy =       -5.41477657  energy(sigma->0) =       -5.41477657


--------------------------------------------------------------------------------------------------------




--------------------------------------- Iteration      1(  22)  ---------------------------------------


    POTLOK:  cpu time    3.4325: real time    3.4364
    SETDIJ:  cpu time    3.3325: real time    3.3403
     EDDAV:  cpu time    4.5743: real time    4.5957
       DOS:  cpu time    0.0000: real time    0.0005
    CHARGE:  cpu time    2.5456: real time    2.5502
    MIXING:  cpu time    0.2520: real time    0.2523
    --------------------------------------------
      LOOP:  cpu time   14.1369: real time   14.1753

 eigenvalue-minimisations  :   112
 total energy-change (2. order) : 0.5414322E-04  (-0.1733236E-04)
 number of electron      44.0000002 magnetization      -0.0032701
 augmentation part       21.1357860 magnetization      -0.0028153

 Broyden mixing:
  rms(total) = 0.76031E-02    rms(broyden)= 0.76030E-02
  rms(prec ) = 0.77720E-02
  weight for this iteration     100.00

 eigenvalues of (default mixing * dielectric matrix)
  average eigenvalue GAMMA=  10.6062
 47.2424 42.9476 17.6418 12.7254 10.2269  9.7075  1.1933  1.0258  1.0258  0.9112
  0.9112  1.0079  1.0079  0.9113

 Free energy of the ion-electron system (eV)
  ---------------------------------------------------
  alpha Z        PSCENC =         2.67987817
  Ewald energy   TEWEN  =      1219.25648149
  -Hartree energ DENC   =     -5190.53062916
  -exchange      EXHF   =         0.00000000
  -V(xc)+E(xc)   XCENC  =       -47.12404734
  PAW double counting   =      4121.13184947    -3943.67189941
  entropy T*S    EENTRO =        -0.00000000
  eigenvalues    EBANDS =      -316.20647346
  atomic energy  EATOM  =      4149.05011781
  Solvation  Ediel_sol  =         0.00000000
  ---------------------------------------------------
  free energy    TOTEN  =        -5.41472242 eV

  energy without entropy =       -5.41472242  energy(sigma->0) =       -5.41472242


--------------------------------------------------------------------------------------------------------




--------------------------------------- Iteration      1(  23)  ---------------------------------------


    POTLOK:  cpu time    3.4215: real time    3.4309
    SETDIJ:  cpu time    3.2745: real time    3.2813
     EDDAV:  cpu time    4.7003: real time    4.7176
       DOS:  cpu time    0.0010: real time    0.0005
    CHARGE:  cpu time    2.5426: real time    2.5506
    MIXING:  cpu time    0.2660: real time    0.2673
    --------------------------------------------
      LOOP:  cpu time   14.2058: real time   14.2483

 eigenvalue-minimisations  :   116
 total energy-change (2. order) :-0.9012314E-05  (-0.7647875E-05)
 number of electron      44.0000002 magnetization      -0.0031730
 augmentation part       21.1365416 magnetization      -0.0028648

 Broyden mixing:
  rms(total) = 0.68744E-02    rms(broyden)= 0.68743E-02
  rms(prec ) = 0.69546E-02
  weight for this iteration     100.00

 eigenvalues of (default mixing * dielectric matrix)
  average eigenvalue GAMMA=  10.0812
 48.4429 41.1909 17.2033 12.8903 10.2419  9.5987  3.9794  1.0287  1.0188  1.0188
  0.9677  0.9064  0.9064  0.9118  0.9118

 Free energy of the ion-electron system (eV)
  ---------------------------------------------------
  alpha Z        PSCENC =         2.67987817
  Ewald energy   TEWEN  =      1219.25648149
  -Hartree energ DENC   =     -5190.43309371
  -exchange      EXHF   =         0.00000000
  -V(xc)+E(xc)   XCENC  =       -47.12755831
  PAW double counting   =      4121.06479361    -3943.61842810
  entropy T*S    EENTRO =        -0.00000000
  eigenvalues    EBANDS =      -316.28692239
  atomic energy  EATOM  =      4149.05011781
  Solvation  Ediel_sol  =         0.00000000
  ---------------------------------------------------
  free energy    TOTEN  =        -5.41473144 eV

  energy without entropy =       -5.41473144  energy(sigma->0) =       -5.41473144


--------------------------------------------------------------------------------------------------------




--------------------------------------- Iteration      1(  24)  ---------------------------------------


    POTLOK:  cpu time    3.4265: real time    3.4350
    SETDIJ:  cpu time    3.3005: real time    3.3068
     EDDAV:  cpu time    5.4512: real time    5.5141
       DOS:  cpu time    0.0000: real time    0.0004
    CHARGE:  cpu time    2.5386: real time    2.5465
    MIXING:  cpu time    0.2920: real time    0.2931
    --------------------------------------------
      LOOP:  cpu time   15.0087: real time   15.0958

 eigenvalue-minimisations  :   136
 total energy-change (2. order) :-0.1931766E-05  (-0.5415828E-06)
 number of electron      44.0000002 magnetization      -0.0007383
 augmentation part       21.1365494 magnetization      -0.0005182

 Broyden mixing:
  rms(total) = 0.63427E-02    rms(broyden)= 0.63426E-02
  rms(prec ) = 0.64292E-02
  weight for this iteration     100.00

 eigenvalues of (default mixing * dielectric matrix)
  average eigenvalue GAMMA=  10.5261
 50.7071 41.9478 18.8611 16.4367 10.0478 10.8257 10.8257  0.9873  0.9873  1.0386
  1.0386  1.0149  0.9116  0.9116  0.9381  0.9381

 Free energy of the ion-electron system (eV)
  ---------------------------------------------------
  alpha Z        PSCENC =         2.67987817
  Ewald energy   TEWEN  =      1219.25648149
  -Hartree energ DENC   =     -5190.42094386
  -exchange      EXHF   =         0.00000000
  -V(xc)+E(xc)   XCENC  =       -47.12766528
  PAW double counting   =      4121.11448791    -3943.67064764
  entropy T*S    EENTRO =        -0.00000000
  eigenvalues    EBANDS =      -316.29644196
  atomic energy  EATOM  =      4149.05011781
  Solvation  Ediel_sol  =         0.00000000
  ---------------------------------------------------
  free energy    TOTEN  =        -5.41473337 eV

  energy without entropy =       -5.41473337  energy(sigma->0) =       -5.41473337


--------------------------------------------------------------------------------------------------------




--------------------------------------- Iteration      1(  25)  ---------------------------------------


    POTLOK:  cpu time    3.4425: real time    3.4470
    SETDIJ:  cpu time    3.3065: real time    3.3091
     EDDAV:  cpu time    4.7513: real time    4.7595
       DOS:  cpu time    0.0010: real time    0.0006
    CHARGE:  cpu time    2.5596: real time    2.5625
    MIXING:  cpu time    0.3070: real time    0.3078
    --------------------------------------------
      LOOP:  cpu time   14.3678: real time   14.3865

 eigenvalue-minimisations  :   112
 total energy-change (2. order) : 0.6005666E-06  (-0.5051298E-05)
 number of electron      44.0000002 magnetization      -0.0008276
 augmentation part       21.1374236 magnetization      -0.0007053

 Broyden mixing:
  rms(total) = 0.50350E-02    rms(broyden)= 0.50349E-02
  rms(prec ) = 0.50604E-02
  weight for this iteration     100.00

 eigenvalues of (default mixing * dielectric matrix)
  average eigenvalue GAMMA=  10.1933
 51.3776 42.9049 19.6083 17.4610 11.5004 10.0373 10.5749  1.1237  1.1237  1.0376
  1.0376  1.0143  0.9105  0.9105  0.9353  0.9353  0.7926

 Free energy of the ion-electron system (eV)
  ---------------------------------------------------
  alpha Z        PSCENC =         2.67987817
  Ewald energy   TEWEN  =      1219.25648149
  -Hartree energ DENC   =     -5190.30334216
  -exchange      EXHF   =         0.00000000
  -V(xc)+E(xc)   XCENC  =       -47.13098001
  PAW double counting   =      4121.08464484    -3943.64683204
  entropy T*S    EENTRO =        -0.00000000
  eigenvalues    EBANDS =      -316.40470087
  atomic energy  EATOM  =      4149.05011781
  Solvation  Ediel_sol  =         0.00000000
  ---------------------------------------------------
  free energy    TOTEN  =        -5.41473277 eV

  energy without entropy =       -5.41473277  energy(sigma->0) =       -5.41473277


--------------------------------------------------------------------------------------------------------




--------------------------------------- Iteration      1(  26)  ---------------------------------------


    POTLOK:  cpu time    3.4305: real time    3.4334
    SETDIJ:  cpu time    3.2955: real time    3.2981
     EDDAV:  cpu time    4.9542: real time    4.9986
       DOS:  cpu time    0.0010: real time    0.0005
    CHARGE:  cpu time    2.5486: real time    2.5535
    MIXING:  cpu time    0.3259: real time    0.3252
    --------------------------------------------
      LOOP:  cpu time   14.5558: real time   14.6093

 eigenvalue-minimisations  :   120
 total energy-change (2. order) :-0.1602072E-05  (-0.8935196E-06)
 number of electron      44.0000002 magnetization      -0.0006607
 augmentation part       21.1376739 magnetization      -0.0005648

 Broyden mixing:
  rms(total) = 0.45074E-02    rms(broyden)= 0.45073E-02
  rms(prec ) = 0.45377E-02
  weight for this iteration     100.00

 eigenvalues of (default mixing * dielectric matrix)
  average eigenvalue GAMMA=   9.6808
 51.0627 42.8747 19.8340 17.2668 11.5990 10.0300 10.5424  1.2978  1.0359  1.0359
  1.0625  1.0625  1.0049  0.9111  0.9111  0.9362  0.9362  0.8498

 Free energy of the ion-electron system (eV)
  ---------------------------------------------------
  alpha Z        PSCENC =         2.67987817
  Ewald energy   TEWEN  =      1219.25648149
  -Hartree energ DENC   =     -5190.28815547
  -exchange      EXHF   =         0.00000000
  -V(xc)+E(xc)   XCENC  =       -47.13124392
  PAW double counting   =      4121.08153338    -3943.64434066
  entropy T*S    EENTRO =        -0.00000000
  eigenvalues    EBANDS =      -316.41900516
  atomic energy  EATOM  =      4149.05011781
  Solvation  Ediel_sol  =         0.00000000
  ---------------------------------------------------
  free energy    TOTEN  =        -5.41473437 eV

  energy without entropy =       -5.41473437  energy(sigma->0) =       -5.41473437


--------------------------------------------------------------------------------------------------------




--------------------------------------- Iteration      1(  27)  ---------------------------------------


    POTLOK:  cpu time    3.4335: real time    3.4376
    SETDIJ:  cpu time    3.3035: real time    3.3071
     EDDAV:  cpu time    2.9975: real time    3.0020
       DOS:  cpu time    0.0000: real time    0.0001
    --------------------------------------------
      LOOP:  cpu time    9.7345: real time    9.7468

 eigenvalue-minimisations  :    56
 total energy-change (2. order) :-0.3198975E-06  (-0.4905096E-07)
 number of electron      44.0000002 magnetization      -0.0006607
 augmentation part       21.1376739 magnetization      -0.0005648

 Free energy of the ion-electron system (eV)
  ---------------------------------------------------
  alpha Z        PSCENC =         2.67987817
  Ewald energy   TEWEN  =      1219.25648149
  -Hartree energ DENC   =     -5190.28619212
  -exchange      EXHF   =         0.00000000
  -V(xc)+E(xc)   XCENC  =       -47.13136774
  PAW double counting   =      4121.06635015    -3943.62909545
  entropy T*S    EENTRO =        -0.00000000
  eigenvalues    EBANDS =      -316.42090700
  atomic energy  EATOM  =      4149.05011781
  Solvation  Ediel_sol  =         0.00000000
  ---------------------------------------------------
  free energy    TOTEN  =        -5.41473469 eV

  energy without entropy =       -5.41473469  energy(sigma->0) =       -5.41473469


--------------------------------------------------------------------------------------------------------




 average (electrostatic) potential at core
  the test charge radii are     1.1249
  (the norm of the test charge is              1.0000)
       1 -97.7539       2 -97.1058       3 -97.1059       4 -97.7539
 
 
 
 E-fermi :  -4.2220     XC(G=0):  -0.4923     alpha+bet : -0.1892


 spin component 1

 k-point     1 :       0.0000    0.0000    0.0000
  band No.  band energies     occupation 
      1      -8.6582      1.00000
      2      -8.6112      1.00000
      3      -8.1592      1.00000
      4      -8.1307      1.00000
      5      -8.0635      1.00000
      6      -7.8963      1.00000
      7      -7.6441      1.00000
      8      -7.6296      1.00000
      9      -7.3050      1.00000
     10      -7.2782      1.00000
     11      -7.1156      1.00000
     12      -6.9619      1.00000
     13      -6.9476      1.00000
     14      -6.9366      1.00000
     15      -6.8625      1.00000
     16      -6.8312      1.00000
     17      -6.7980      1.00000
     18      -6.7598      1.00000
     19      -6.6919      1.00000
     20      -6.5280      1.00000
     21      -6.1504      1.00000
     22      -4.2505      1.00000
     23      -3.4577      0.00000
     24      -2.2963      0.00000
     25      -1.6317      0.00000
     26      -0.9502      0.00000
     27      -0.9217      0.00000
     28      -0.4059      0.00000

 spin component 2

 k-point     1 :       0.0000    0.0000    0.0000
  band No.  band energies     occupation 
      1      -8.6584      1.00000
      2      -8.6114      1.00000
      3      -8.1593      1.00000
      4      -8.1307      1.00000
      5      -8.0636      1.00000
      6      -7.8963      1.00000
      7      -7.6441      1.00000
      8      -7.6297      1.00000
      9      -7.3050      1.00000
     10      -7.2782      1.00000
     11      -7.1156      1.00000
     12      -6.9619      1.00000
     13      -6.9477      1.00000
     14      -6.9366      1.00000
     15      -6.8625      1.00000
     16      -6.8312      1.00000
     17      -6.7981      1.00000
     18      -6.7597      1.00000
     19      -6.6919      1.00000
     20      -6.5280      1.00000
     21      -6.1505      1.00000
     22      -4.2506      1.00000
     23      -3.4577      0.00000
     24      -2.2963      0.00000
     25      -1.6317      0.00000
     26      -0.9501      0.00000
     27      -0.9217      0.00000
     28      -0.4059      0.00000


--------------------------------------------------------------------------------------------------------


 soft charge-density along one line, spin component           1
         0         1         2         3         4         5         6         7         8         9
 total charge-density along one line
 
 soft charge-density along one line, spin component           2
         0         1         2         3         4         5         6         7         8         9
 total charge-density along one line
 
 pseudopotential strength for first ion, spin component:           1
-10.966   0.009   0.010   0.012   0.001 -10.863   0.008   0.010
  0.009 -10.978   0.008  -0.014  -0.012   0.008 -10.874   0.007
  0.010   0.008 -10.977   0.004  -0.003   0.010   0.007 -10.874
  0.012  -0.014   0.004 -10.970   0.006   0.011  -0.013   0.004
  0.001  -0.012  -0.003   0.006 -10.961   0.001  -0.011  -0.003
-10.863   0.008   0.010   0.011   0.001 -10.735   0.008   0.010
  0.008 -10.874   0.007  -0.013  -0.011   0.008 -10.747   0.007
  0.010   0.007 -10.874   0.004  -0.003   0.010   0.007 -10.746
  0.011  -0.013   0.004 -10.867   0.006   0.011  -0.013   0.004
  0.001  -0.011  -0.003   0.006 -10.858   0.001  -0.011  -0.003
 -0.001  -0.009  -0.001  -0.008  -0.001  -0.001  -0.008  -0.001
  0.008   0.005   0.004   0.006  -0.000   0.008   0.005   0.004
  0.012  -0.021  -0.011   0.000  -0.018   0.012  -0.020  -0.010
  0.000   0.017  -0.024   0.012  -0.000   0.000   0.016  -0.023
  0.018   0.000  -0.007  -0.021   0.013   0.017   0.000  -0.007
 -0.008   0.014   0.006   0.000   0.011  -0.008   0.013   0.006
  0.000  -0.012   0.016  -0.008  -0.000   0.000  -0.011   0.015
 -0.011   0.000   0.005   0.013  -0.008  -0.011   0.000   0.004
 -0.022   0.000  -0.000  -0.001  -0.033  -0.021   0.000  -0.000
  0.031  -0.017  -0.000  -0.025   0.000   0.030  -0.016  -0.000
  0.006   0.039  -0.028  -0.001  -0.009   0.006   0.037  -0.027
  0.001   0.020   0.041   0.014  -0.000   0.001   0.020   0.040
  0.009  -0.001  -0.020   0.039   0.006   0.008  -0.001  -0.019
  0.000   0.026   0.000  -0.019   0.031   0.000   0.025   0.000
  0.032   0.001   0.001   0.000  -0.023   0.031   0.001   0.001
  0.038  -0.001   0.001   0.001   0.054   0.036  -0.001   0.001
 -0.053   0.029   0.000   0.043  -0.000  -0.051   0.028   0.000
 -0.009  -0.065   0.048   0.001   0.015  -0.008  -0.062   0.045
 -0.002  -0.034  -0.069  -0.024   0.001  -0.002  -0.033  -0.065
 -0.014   0.001   0.034  -0.066  -0.011  -0.013   0.001   0.032
 -0.000  -0.044  -0.000   0.032  -0.053  -0.000  -0.042   0.000
 -0.054  -0.001  -0.002  -0.001   0.038  -0.052  -0.001  -0.002
 pseudopotential strength for first ion, spin component:           2
-10.966   0.009   0.010   0.012   0.001 -10.863   0.008   0.010
  0.009 -10.978   0.008  -0.014  -0.012   0.008 -10.874   0.007
  0.010   0.008 -10.977   0.004  -0.003   0.010   0.007 -10.874
  0.012  -0.014   0.004 -10.970   0.006   0.011  -0.013   0.004
  0.001  -0.012  -0.003   0.006 -10.961   0.001  -0.011  -0.003
-10.863   0.008   0.010   0.011   0.001 -10.735   0.008   0.010
  0.008 -10.874   0.007  -0.013  -0.011   0.008 -10.747   0.007
  0.010   0.007 -10.874   0.004  -0.003   0.010   0.007 -10.746
  0.011  -0.013   0.004 -10.867   0.006   0.011  -0.013   0.003
  0.001  -0.011  -0.003   0.006 -10.858   0.001  -0.011  -0.003
 -0.001  -0.009  -0.001  -0.008  -0.001  -0.001  -0.008  -0.001
  0.008   0.005   0.004   0.006  -0.000   0.008   0.005   0.004
  0.012  -0.021  -0.011   0.000  -0.018   0.012  -0.020  -0.010
  0.000   0.017  -0.024   0.012  -0.000   0.000   0.016  -0.023
  0.018   0.000  -0.007  -0.021   0.013   0.017   0.000  -0.007
 -0.008   0.014   0.006   0.000   0.011  -0.008   0.013   0.006
  0.000  -0.012   0.016  -0.008  -0.000   0.000  -0.011   0.015
 -0.011   0.000   0.005   0.013  -0.008  -0.011   0.000   0.004
 -0.022   0.000  -0.000  -0.001  -0.033  -0.021   0.000  -0.000
  0.031  -0.017  -0.000  -0.025   0.000   0.030  -0.016  -0.000
  0.006   0.039  -0.028  -0.001  -0.009   0.006   0.037  -0.027
  0.001   0.020   0.041   0.014  -0.000   0.001   0.020   0.040
  0.009  -0.001  -0.020   0.039   0.006   0.008  -0.001  -0.019
  0.000   0.026   0.000  -0.019   0.031   0.000   0.025   0.000
  0.032   0.001   0.001   0.000  -0.023   0.031   0.001   0.001
  0.038  -0.001   0.001   0.001   0.054   0.036  -0.001   0.001
 -0.053   0.029   0.000   0.043  -0.000  -0.051   0.028   0.000
 -0.009  -0.065   0.048   0.001   0.015  -0.008  -0.062   0.045
 -0.002  -0.034  -0.069  -0.024   0.001  -0.002  -0.033  -0.065
 -0.014   0.001   0.034  -0.066  -0.011  -0.013   0.001   0.032
 -0.000  -0.044  -0.000   0.032  -0.053  -0.000  -0.042   0.000
 -0.054  -0.001  -0.002  -0.001   0.038  -0.052  -0.001  -0.002
 total augmentation occupancy for first ion, spin component:           1
  2.498   0.017   0.065  -0.060   0.065  -0.518   0.047  -0.115   0.096  -0.048   0.198  -0.001  -0.012  -0.002   0.064  -0.002
  0.017   2.651   0.025  -0.037   0.181   0.047  -0.623   0.013   0.012  -0.221   0.398   0.005  -0.157   0.079   0.044  -0.001
  0.065   0.025   2.430  -0.048   0.046  -0.115   0.013  -0.388   0.066  -0.043   0.121  -0.000  -0.043  -0.042   0.013   0.001
 -0.060  -0.037  -0.048   2.718  -0.220   0.097   0.012   0.066  -0.660   0.242   0.406   0.004   0.055   0.092  -0.183  -0.000
  0.065   0.181   0.046  -0.220   2.736  -0.048  -0.221  -0.042   0.242  -0.667   0.035   0.001  -0.161  -0.012   0.158  -0.001
 -0.518   0.047  -0.115   0.097  -0.048   0.512  -0.103   0.156  -0.129   0.034  -0.168  -0.002   0.010   0.005  -0.060   0.000
  0.047  -0.623   0.013   0.012  -0.221  -0.103   0.581  -0.047   0.012   0.258  -0.351  -0.006   0.155  -0.085  -0.034   0.005
 -0.115   0.013  -0.388   0.066  -0.042   0.156  -0.047   0.331  -0.082   0.040  -0.103  -0.001   0.039   0.039  -0.014   0.001
  0.096   0.012   0.066  -0.660   0.242  -0.129   0.012  -0.082   0.590  -0.262  -0.356  -0.006  -0.044  -0.094   0.176   0.000
 -0.048  -0.221  -0.043   0.242  -0.667   0.034   0.258   0.040  -0.262   0.585  -0.032  -0.001   0.151   0.009  -0.146   0.004
  0.198   0.398   0.121   0.406   0.035  -0.168  -0.351  -0.103  -0.356  -0.032   0.956   0.012  -0.115   0.136  -0.081  -0.005
 -0.001   0.005  -0.000   0.004   0.001  -0.002  -0.006  -0.001  -0.006  -0.001   0.012   0.000  -0.002   0.002  -0.001  -0.000
 -0.012  -0.157  -0.043   0.055  -0.161   0.010   0.155   0.039  -0.044   0.151  -0.115  -0.002   0.080  -0.011  -0.049   0.002
 -0.002   0.079  -0.042   0.092  -0.012   0.005  -0.085   0.039  -0.094   0.009   0.136   0.002  -0.011   0.035  -0.024  -0.001
  0.064   0.044   0.013  -0.183   0.158  -0.060  -0.034  -0.014   0.176  -0.146  -0.081  -0.001  -0.049  -0.024   0.088  -0.001
 -0.002  -0.001   0.001  -0.000  -0.001   0.000   0.005   0.001   0.000   0.004  -0.005  -0.000   0.002  -0.001  -0.001   0.000
 -0.000   0.001   0.003   0.001   0.000   0.000  -0.004   0.001  -0.004   0.000   0.006   0.000  -0.001   0.001  -0.001  -0.000
 -0.001  -0.000   0.001  -0.001   0.001  -0.002   0.000  -0.000   0.005  -0.003  -0.003  -0.000  -0.001  -0.001   0.002  -0.000
  0.010  -0.001   0.003   0.004   0.010  -0.009   0.002  -0.005  -0.004  -0.006   0.007   0.000   0.001   0.001  -0.004   0.000
 -0.024   0.013  -0.003   0.014   0.001   0.028  -0.015   0.005  -0.013  -0.002   0.003   0.000  -0.003   0.001  -0.003  -0.000
  0.006  -0.019   0.016  -0.007   0.006  -0.010   0.017  -0.016   0.009  -0.005  -0.006  -0.000  -0.001  -0.004   0.004   0.000
 -0.002  -0.013  -0.015  -0.011   0.001   0.002   0.012   0.012   0.011  -0.001  -0.018  -0.000   0.003  -0.003   0.004   0.000
 -0.001  -0.006   0.011  -0.018  -0.004  -0.001   0.008  -0.011   0.016   0.004  -0.011  -0.000   0.003  -0.004  -0.000   0.000
 -0.000  -0.022  -0.001   0.020  -0.030  -0.001   0.022   0.000  -0.020   0.030  -0.001  -0.000   0.007  -0.000  -0.007   0.000
 -0.020  -0.002  -0.008   0.002   0.005   0.021   0.000   0.010  -0.003  -0.003  -0.011  -0.000   0.003  -0.000  -0.002   0.000
  0.000  -0.000   0.001   0.001  -0.001  -0.003   0.001  -0.001  -0.001  -0.002   0.002   0.000   0.000   0.000  -0.001  -0.000
 -0.004   0.002  -0.001   0.001   0.001   0.009  -0.005   0.002  -0.004  -0.001   0.001   0.000  -0.001   0.000  -0.001  -0.000
  0.003  -0.001   0.002  -0.002   0.001  -0.003   0.005  -0.005   0.003  -0.002  -0.002  -0.000  -0.000  -0.001   0.001   0.000
 -0.000  -0.002   0.000  -0.002   0.000   0.001   0.003   0.003   0.003  -0.000  -0.005  -0.000   0.001  -0.001   0.001   0.000
  0.001  -0.002   0.001  -0.001  -0.001  -0.000   0.003  -0.003   0.005   0.001  -0.003  -0.000   0.001  -0.001  -0.000   0.000
 -0.000  -0.004  -0.000   0.004  -0.006  -0.000   0.007  -0.000  -0.006   0.009  -0.000  -0.000   0.002  -0.000  -0.002   0.000
 -0.002  -0.000  -0.002   0.001  -0.001   0.006  -0.000   0.003  -0.001  -0.001  -0.003  -0.000   0.001  -0.000  -0.001   0.000
 total augmentation occupancy for first ion, spin component:           2
  0.000  -0.000   0.000  -0.000  -0.000  -0.000  -0.000  -0.000  -0.000   0.000   0.000   0.000   0.000   0.000  -0.000  -0.000
 -0.000   0.000  -0.000   0.000  -0.000   0.000  -0.000   0.000  -0.000   0.000  -0.000  -0.000   0.000  -0.000  -0.000   0.000
  0.000  -0.000   0.000  -0.000  -0.000  -0.000  -0.000  -0.000  -0.000   0.000   0.000  -0.000   0.000  -0.000  -0.000   0.000
 -0.000   0.000  -0.000   0.000   0.000  -0.000  -0.000  -0.000  -0.000  -0.000  -0.000  -0.000  -0.000  -0.000   0.000  -0.000
 -0.000  -0.000  -0.000   0.000   0.000   0.000   0.000   0.000  -0.000  -0.000  -0.000  -0.000   0.000   0.000  -0.000   0.000
 -0.000   0.000  -0.000  -0.000   0.000  -0.000   0.000  -0.000   0.000  -0.000   0.000   0.000  -0.000   0.000   0.000   0.000
 -0.000  -0.000  -0.000  -0.000   0.000   0.000  -0.000   0.000   0.000  -0.000   0.000   0.000  -0.000   0.000   0.000  -0.000
 -0.000   0.000  -0.000  -0.000   0.000  -0.000   0.000  -0.000   0.000  -0.000   0.000   0.000  -0.000  -0.000   0.000  -0.000
 -0.000  -0.000  -0.000  -0.000  -0.000   0.000   0.000   0.000  -0.000   0.000   0.000   0.000   0.000   0.000  -0.000   0.000
  0.000   0.000   0.000  -0.000  -0.000  -0.000  -0.000  -0.000   0.000  -0.000   0.000   0.000  -0.000  -0.000   0.000  -0.000
  0.000  -0.000   0.000  -0.000  -0.000   0.000   0.000   0.000   0.000   0.000  -0.000  -0.000   0.000  -0.000   0.000   0.000
  0.000  -0.000  -0.000  -0.000  -0.000   0.000   0.000   0.000   0.000   0.000  -0.000  -0.000   0.000  -0.000   0.000   0.000
  0.000   0.000   0.000  -0.000   0.000  -0.000  -0.000  -0.000   0.000  -0.000   0.000   0.000  -0.000   0.000   0.000  -0.000
  0.000  -0.000  -0.000  -0.000   0.000   0.000   0.000  -0.000   0.000  -0.000  -0.000  -0.000   0.000  -0.000   0.000   0.000
 -0.000  -0.000  -0.000   0.000  -0.000   0.000   0.000   0.000  -0.000   0.000   0.000   0.000   0.000   0.000  -0.000   0.000
 -0.000   0.000   0.000  -0.000   0.000   0.000  -0.000  -0.000   0.000  -0.000   0.000   0.000  -0.000   0.000   0.000  -0.000
 -0.000  -0.000   0.000  -0.000   0.000  -0.000   0.000  -0.000   0.000  -0.000  -0.000  -0.000   0.000  -0.000   0.000   0.000
 -0.000  -0.000   0.000   0.000  -0.000   0.000   0.000   0.000  -0.000   0.000   0.000   0.000   0.000   0.000  -0.000  -0.000
  0.000  -0.000  -0.000   0.000   0.000   0.000   0.000   0.000  -0.000   0.000  -0.000  -0.000   0.000  -0.000   0.000   0.000
 -0.000   0.000   0.000   0.000   0.000  -0.000   0.000   0.000   0.000  -0.000   0.000   0.000   0.000   0.000   0.000   0.000
 -0.000  -0.000   0.000   0.000   0.000   0.000  -0.000   0.000  -0.000   0.000  -0.000   0.000   0.000   0.000  -0.000   0.000
 -0.000  -0.000  -0.000  -0.000   0.000   0.000  -0.000  -0.000  -0.000  -0.000   0.000   0.000  -0.000   0.000  -0.000  -0.000
 -0.000   0.000   0.000  -0.000  -0.000   0.000  -0.000   0.000  -0.000   0.000   0.000   0.000  -0.000   0.000  -0.000  -0.000
  0.000   0.000   0.000  -0.000   0.000  -0.000  -0.000  -0.000   0.000  -0.000  -0.000  -0.000  -0.000  -0.000   0.000  -0.000
 -0.000  -0.000   0.000  -0.000   0.000  -0.000  -0.000  -0.000   0.000   0.000   0.000   0.000  -0.000   0.000  -0.000  -0.000
  0.000  -0.000  -0.000  -0.000   0.000   0.000   0.000   0.000   0.000   0.000  -0.000  -0.000   0.000  -0.000   0.000   0.000
 -0.000  -0.000   0.000  -0.000  -0.000  -0.000   0.000  -0.000   0.000  -0.000   0.000   0.000   0.000   0.000   0.000   0.000
 -0.000   0.000   0.000   0.000   0.000   0.000  -0.000   0.000  -0.000   0.000  -0.000   0.000   0.000   0.000  -0.000  -0.000
  0.000   0.000  -0.000   0.000   0.000  -0.000  -0.000  -0.000  -0.000  -0.000   0.000   0.000  -0.000   0.000  -0.000  -0.000
 -0.000   0.000   0.000   0.000  -0.000   0.000  -0.000   0.000  -0.000   0.000   0.000   0.000  -0.000   0.000  -0.000  -0.000
  0.000   0.000   0.000  -0.000   0.000  -0.000  -0.000  -0.000   0.000  -0.000  -0.000  -0.000  -0.000  -0.000   0.000  -0.000
 -0.000   0.000   0.000  -0.000   0.000  -0.000  -0.000  -0.000   0.000   0.000   0.000   0.000  -0.000   0.000   0.000  -0.000


------------------------ aborting loop because EDIFF is reached ----------------------------------------


 


 total charge     
 
# of ion       s       p       d       f       tot
--------------------------------------------------
    1        0.405   0.149   9.446   0.009  10.009
    2        0.587   0.050   9.401   0.005  10.042
    3        0.587   0.050   9.401   0.005  10.042
    4        0.405   0.149   9.446   0.009  10.009
--------------------------------------------------
tot          1.984   0.398  37.693   0.028  40.102

 


 magnetization (x)
 
# of ion       s       p       d       f       tot
--------------------------------------------------
    1       -0.000  -0.000   0.000  -0.000  -0.000
    2       -0.000  -0.000  -0.000  -0.000  -0.000
    3       -0.000  -0.000  -0.000  -0.000  -0.000
    4       -0.000  -0.000   0.000  -0.000  -0.000
--------------------------------------------------
tot         -0.000  -0.000   0.000  -0.000  -0.000

 
    CHARGE:  cpu time    2.5396: real time    2.5462
    FORLOC:  cpu time    0.0550: real time    0.0558
    FORNL :  cpu time   12.6631: real time   12.7121
    FORCOR:  cpu time    6.4530: real time    6.4998
    FORHAR:  cpu time    0.3969: real time    0.3987
    MIXING:  cpu time    0.3459: real time    0.3468
    OFIELD:  cpu time    0.0000: real time    0.0000

 VOLUME and BASIS-vectors are now :
 -----------------------------------------------------------------------------
  energy-cutoff  :      500.00
  volume of cell :     4913.00
      direct lattice vectors                 reciprocal lattice vectors
    17.000000000  0.000000000  0.000000000     0.058823529  0.000000000  0.000000000
     0.000000000 17.000000000  0.000000000     0.000000000  0.058823529  0.000000000
     0.000000000  0.000000000 17.000000000     0.000000000  0.000000000  0.058823529

  length of vectors
    17.000000000 17.000000000 17.000000000     0.058823529  0.058823529  0.058823529


 FORCES acting on ions
    electron-ion (+dipol)            ewald-force                    non-local-force                 convergence-correction
 -----------------------------------------------------------------------------------------------
   -.186E+03 -.266E+03 0.315E+03   0.184E+03 0.264E+03 -.312E+03   0.107E+01 0.153E+01 -.180E+01   0.933E-02 0.134E-01 -.157E-01
   0.339E+03 -.296E+03 -.497E+02   -.337E+03 0.294E+03 0.494E+02   -.164E+01 0.142E+01 0.238E+00   -.183E-01 0.158E-01 0.252E-02
   -.339E+03 0.296E+03 0.497E+02   0.337E+03 -.294E+03 -.494E+02   0.164E+01 -.142E+01 -.238E+00   0.183E-01 -.158E-01 -.251E-02
   0.186E+03 0.266E+03 -.314E+03   -.184E+03 -.264E+03 0.312E+03   -.107E+01 -.153E+01 0.180E+01   -.932E-02 -.134E-01 0.157E-01
 -----------------------------------------------------------------------------------------------
   0.291E-01 0.286E-01 0.395E-01   0.000E+00 -.568E-13 0.000E+00   0.000E+00 0.222E-15 0.000E+00   0.897E-05 0.930E-05 0.125E-04
 
 
 POSITION                                       TOTAL-FORCE (eV/Angst)
 -----------------------------------------------------------------------------------
      0.55232      0.79048     16.06585        -0.212821     -0.301429      0.362241
     15.16405      1.59858      0.26722         0.219267     -0.194901     -0.032874
      1.83591     15.40139     16.73273        -0.219267      0.194901      0.032874
     16.44766     16.20949      0.93412         0.212821      0.301429     -0.362241
 -----------------------------------------------------------------------------------
    total drift:                                0.029156      0.028573      0.039536


--------------------------------------------------------------------------------------------------------



  FREE ENERGIE OF THE ION-ELECTRON SYSTEM (eV)
  ---------------------------------------------------
  free  energy   TOTEN  =        -5.41473469 eV

  energy  without entropy=       -5.41473469  energy(sigma->0) =       -5.41473469
 


--------------------------------------------------------------------------------------------------------


    POTLOK:  cpu time    6.7530: real time    6.7666


--------------------------------------------------------------------------------------------------------




--------------------------------------------------------------------------------------------------------


    WAVPRE:  cpu time    0.2460: real time    0.2521
    FEWALD:  cpu time    0.0010: real time    0.0004

 real space projection operators:
  total allocation   :       2340.00 KBytes
  max/ min on nodes  :        589.50        576.50

    ORTHCH:  cpu time    0.5089: real time    0.5102
     LOOP+:  cpu time  361.8280: real time  363.1360


--------------------------------------- Iteration      2(   1)  ---------------------------------------


    POTLOK:  cpu time    3.4155: real time    3.4234
    SETDIJ:  cpu time    3.3075: real time    3.3100
     EDDAV:  cpu time    4.6903: real time    4.6953
       DOS:  cpu time    0.0000: real time    0.0006
    CHARGE:  cpu time    2.5506: real time    2.5541
    MIXING:  cpu time    0.0840: real time    0.0834
    --------------------------------------------
      LOOP:  cpu time   14.0479: real time   14.0668

 eigenvalue-minimisations  :   112
 total energy-change (2. order) :-0.1358475E-01  (-0.1627295E+01)
 number of electron      44.0000001 magnetization      -0.0008555
 augmentation part       21.1251873 magnetization      -0.0008208

  free energy =  -0.542831911585E+01  energy without entropy=  -0.542831911585E+01


--------------------------------------------------------------------------------------------------------




--------------------------------------- Iteration      2(   2)  ---------------------------------------


    POTLOK:  cpu time    3.3925: real time    3.4091
    SETDIJ:  cpu time    3.2915: real time    3.3233
     EDDAV:  cpu time    5.5592: real time    5.5824
       DOS:  cpu time    0.0000: real time    0.0002
    CHARGE:  cpu time    2.5716: real time    2.5853
    MIXING:  cpu time    0.0940: real time    0.0939
    --------------------------------------------
      LOOP:  cpu time   14.9087: real time   14.9943

 eigenvalue-minimisations  :   144
 total energy-change (2. order) :-0.1233335E-01  (-0.1242338E-01)
 number of electron      44.0000001 magnetization      -0.0006919
 augmentation part       21.1188105 magnetization      -0.0006609

 eigenvalues of (default mixing * dielectric matrix)
  average eigenvalue GAMMA=   1.9503
  1.9503

  free energy =  -0.544065246617E+01  energy without entropy=  -0.544065246617E+01


--------------------------------------------------------------------------------------------------------




--------------------------------------- Iteration      2(   3)  ---------------------------------------


    POTLOK:  cpu time    3.4325: real time    3.4410
    SETDIJ:  cpu time    3.3215: real time    3.3286
     EDDAV:  cpu time    5.2142: real time    5.2342
       DOS:  cpu time    0.0000: real time    0.0006
    CHARGE:  cpu time    2.5756: real time    2.5856
    MIXING:  cpu time    0.0970: real time    0.0966
    --------------------------------------------
      LOOP:  cpu time   14.6408: real time   14.6865

 eigenvalue-minimisations  :   136
 total energy-change (2. order) :-0.9263371E-04  (-0.8447248E-04)
 number of electron      44.0000001 magnetization       0.0010777
 augmentation part       21.1189030 magnetization       0.0011038

 eigenvalues of (default mixing * dielectric matrix)
  average eigenvalue GAMMA=  13.0865
  0.9705 25.2025

  free energy =  -0.544074509988E+01  energy without entropy=  -0.544074509988E+01


--------------------------------------------------------------------------------------------------------




--------------------------------------- Iteration      2(   4)  ---------------------------------------


    POTLOK:  cpu time    3.4045: real time    3.4478
    SETDIJ:  cpu time    3.2795: real time    3.3196
     EDDAV:  cpu time    4.4993: real time    4.5245
       DOS:  cpu time    0.0000: real time    0.0004
    CHARGE:  cpu time    2.5856: real time    2.5994
    MIXING:  cpu time    0.1000: real time    0.1000
    --------------------------------------------
      LOOP:  cpu time   13.8689: real time   13.9917

 eigenvalue-minimisations  :   112
 total energy-change (2. order) : 0.8780345E-04  (-0.6282735E-04)
 number of electron      44.0000001 magnetization       0.0023830
 augmentation part       21.1240811 magnetization       0.0023539

 eigenvalues of (default mixing * dielectric matrix)
  average eigenvalue GAMMA=  15.7827
 45.3789  0.9846  0.9846

  free energy =  -0.544065729643E+01  energy without entropy=  -0.544065729643E+01


--------------------------------------------------------------------------------------------------------




--------------------------------------- Iteration      2(   5)  ---------------------------------------


    POTLOK:  cpu time    3.4155: real time    3.4335
    SETDIJ:  cpu time    3.3195: real time    3.3292
     EDDAV:  cpu time    5.5332: real time    5.5667
       DOS:  cpu time    0.0000: real time    0.0005
    CHARGE:  cpu time    2.5666: real time    2.5780
    MIXING:  cpu time    0.1080: real time    0.1087
    --------------------------------------------
      LOOP:  cpu time   14.9427: real time   15.0166

 eigenvalue-minimisations  :   144
 total energy-change (2. order) :-0.1436133E-03  (-0.4821545E-04)
 number of electron      44.0000001 magnetization       0.0018071
 augmentation part       21.1285242 magnetization       0.0017378

 eigenvalues of (default mixing * dielectric matrix)
  average eigenvalue GAMMA=  13.1707
 47.7997  2.8509  0.9444  1.0877

  free energy =  -0.544080090972E+01  energy without entropy=  -0.544080090972E+01


--------------------------------------------------------------------------------------------------------




--------------------------------------- Iteration      2(   6)  ---------------------------------------


    POTLOK:  cpu time    3.4265: real time    3.4390
    SETDIJ:  cpu time    3.3345: real time    3.3475
     EDDAV:  cpu time    6.2321: real time    6.2691
       DOS:  cpu time    0.0000: real time    0.0004
    CHARGE:  cpu time    2.5726: real time    2.5829
    MIXING:  cpu time    0.1180: real time    0.1183
    --------------------------------------------
      LOOP:  cpu time   15.6836: real time   15.7571

 eigenvalue-minimisations  :   168
 total energy-change (2. order) : 0.1738162E-04  (-0.4988249E-05)
 number of electron      44.0000001 magnetization      -0.0003472
 augmentation part       21.1278652 magnetization      -0.0004043

 eigenvalues of (default mixing * dielectric matrix)
  average eigenvalue GAMMA=  12.4570
 47.4419 11.2967  0.9968  0.9968  1.5527

  free energy =  -0.544078352810E+01  energy without entropy=  -0.544078352810E+01


--------------------------------------------------------------------------------------------------------




--------------------------------------- Iteration      2(   7)  ---------------------------------------


    POTLOK:  cpu time    3.4355: real time    3.4460
    SETDIJ:  cpu time    3.3005: real time    3.3109
     EDDAV:  cpu time    4.6533: real time    4.6683
       DOS:  cpu time    0.0010: real time    0.0005
    CHARGE:  cpu time    2.5716: real time    2.5820
    MIXING:  cpu time    0.1260: real time    0.1262
    --------------------------------------------
      LOOP:  cpu time   14.0879: real time   14.1338

 eigenvalue-minimisations  :   112
 total energy-change (2. order) : 0.8627712E-04  (-0.2142474E-04)
 number of electron      44.0000001 magnetization      -0.0011393
 augmentation part       21.1250387 magnetization      -0.0011391

 eigenvalues of (default mixing * dielectric matrix)
  average eigenvalue GAMMA=  11.8698
 49.9614 15.7282  2.5970  1.0042  1.0042  0.9237

  free energy =  -0.544069725097E+01  energy without entropy=  -0.544069725097E+01


--------------------------------------------------------------------------------------------------------




--------------------------------------- Iteration      2(   8)  ---------------------------------------


    POTLOK:  cpu time    3.4105: real time    3.4237
    SETDIJ:  cpu time    3.2945: real time    3.3063
     EDDAV:  cpu time    5.8551: real time    5.9080
       DOS:  cpu time    0.0000: real time    0.0003
    CHARGE:  cpu time    2.5686: real time    2.5769
    MIXING:  cpu time    0.1410: real time    0.1405
    --------------------------------------------
      LOOP:  cpu time   15.2697: real time   15.3558

 eigenvalue-minimisations  :   152
 total energy-change (2. order) : 0.7400048E-05  (-0.8578496E-05)
 number of electron      44.0000001 magnetization       0.0000746
 augmentation part       21.1232318 magnetization       0.0000965

 eigenvalues of (default mixing * dielectric matrix)
  average eigenvalue GAMMA=  10.6625
 48.0224 11.2055 11.2055  0.9726  1.0019  1.0019  1.2275

  free energy =  -0.544068985092E+01  energy without entropy=  -0.544068985092E+01


--------------------------------------------------------------------------------------------------------




--------------------------------------- Iteration      2(   9)  ---------------------------------------


    POTLOK:  cpu time    3.4095: real time    3.4305
    SETDIJ:  cpu time    3.2855: real time    3.2962
     EDDAV:  cpu time    4.6363: real time    4.6648
       DOS:  cpu time    0.0000: real time    0.0005
    CHARGE:  cpu time    2.5396: real time    2.5513
    MIXING:  cpu time    0.1430: real time    0.1462
    --------------------------------------------
      LOOP:  cpu time   14.0139: real time   14.0893

 eigenvalue-minimisations  :   112
 total energy-change (2. order) : 0.1848040E-05  (-0.1686250E-05)
 number of electron      44.0000001 magnetization       0.0009792
 augmentation part       21.1234703 magnetization       0.0009827

 eigenvalues of (default mixing * dielectric matrix)
  average eigenvalue GAMMA=  11.1625
 48.8725 21.5688 13.3006  1.4690  0.9600  0.9969  1.0359  1.0964

  free energy =  -0.544068800288E+01  energy without entropy=  -0.544068800288E+01


--------------------------------------------------------------------------------------------------------




--------------------------------------- Iteration      2(  10)  ---------------------------------------


    POTLOK:  cpu time    3.4205: real time    3.4383
    SETDIJ:  cpu time    3.2795: real time    3.2912
     EDDAV:  cpu time    5.5872: real time    5.6487
       DOS:  cpu time    0.0000: real time    0.0004
    CHARGE:  cpu time    2.5406: real time    2.5525
    MIXING:  cpu time    0.1590: real time    0.1610
    --------------------------------------------
      LOOP:  cpu time   14.9867: real time   15.0919

 eigenvalue-minimisations  :   144
 total energy-change (2. order) : 0.1872640E-06  (-0.2815462E-05)
 number of electron      44.0000001 magnetization       0.0008672
 augmentation part       21.1222146 magnetization       0.0008586

 eigenvalues of (default mixing * dielectric matrix)
  average eigenvalue GAMMA=  10.1001
 49.8415 20.1835 13.6385  2.0976  1.2950  1.0189  0.9869  0.9195  0.9195

  free energy =  -0.544068781562E+01  energy without entropy=  -0.544068781562E+01


--------------------------------------------------------------------------------------------------------




--------------------------------------- Iteration      2(  11)  ---------------------------------------


    POTLOK:  cpu time    3.4275: real time    3.4406
    SETDIJ:  cpu time    3.2945: real time    3.3022
     EDDAV:  cpu time    2.9316: real time    2.9432
       DOS:  cpu time    0.0000: real time    0.0001
    --------------------------------------------
      LOOP:  cpu time    9.6535: real time    9.6861

 eigenvalue-minimisations  :    56
 total energy-change (2. order) :-0.8478037E-07  (-0.8517016E-07)
 number of electron      44.0000001 magnetization       0.0008672
 augmentation part       21.1222146 magnetization       0.0008586

  free energy =  -0.544068790040E+01  energy without entropy=  -0.544068790040E+01


--------------------------------------------------------------------------------------------------------




 average (electrostatic) potential at core
  the test charge radii are     1.1249
  (the norm of the test charge is              1.0000)
       1 -97.7630       2 -97.1199       3 -97.1201       4 -97.7631
 
 
 
 E-fermi :  -4.2326     XC(G=0):  -0.4907     alpha+bet : -0.1892


 spin component 1

 k-point     1 :       0.0000    0.0000    0.0000
  band No.  band energies     occupation 
      1      -8.7533      1.00000
      2      -8.7012      1.00000
      3      -8.2222      1.00000
      4      -8.1747      1.00000
      5      -8.1145      1.00000
      6      -7.9344      1.00000
      7      -7.6542      1.00000
      8      -7.6260      1.00000
      9      -7.2784      1.00000
     10      -7.2574      1.00000
     11      -7.1347      1.00000
     12      -6.9734      1.00000
     13      -6.9595      1.00000
     14      -6.9499      1.00000
     15      -6.8648      1.00000
     16      -6.8341      1.00000
     17      -6.7961      1.00000
     18      -6.7539      1.00000
     19      -6.6879      1.00000
     20      -6.4897      1.00000
     21      -6.1733      1.00000
     22      -4.2598      1.00000
     23      -3.4267      0.00000
     24      -2.2780      0.00000
     25      -1.6449      0.00000
     26      -0.9349      0.00000
     27      -0.8927      0.00000
     28      -0.4011      0.00000

 spin component 2

 k-point     1 :       0.0000    0.0000    0.0000
  band No.  band energies     occupation 
      1      -8.7532      1.00000
      2      -8.7011      1.00000
      3      -8.2221      1.00000
      4      -8.1746      1.00000
      5      -8.1144      1.00000
      6      -7.9344      1.00000
      7      -7.6541      1.00000
      8      -7.6259      1.00000
      9      -7.2784      1.00000
     10      -7.2573      1.00000
     11      -7.1346      1.00000
     12      -6.9733      1.00000
     13      -6.9594      1.00000
     14      -6.9498      1.00000
     15      -6.8648      1.00000
     16      -6.8341      1.00000
     17      -6.7960      1.00000
     18      -6.7538      1.00000
     19      -6.6879      1.00000
     20      -6.4897      1.00000
     21      -6.1732      1.00000
     22      -4.2596      1.00000
     23      -3.4266      0.00000
     24      -2.2778      0.00000
     25      -1.6448      0.00000
     26      -0.9348      0.00000
     27      -0.8925      0.00000
     28      -0.4009      0.00000


--------------------------------------------------------------------------------------------------------


 soft charge-density along one line, spin component           1
         0         1         2         3         4         5         6         7         8         9
 total charge-density along one line
 
 soft charge-density along one line, spin component           2
         0         1         2         3         4         5         6         7         8         9
 total charge-density along one line
 
 pseudopotential strength for first ion, spin component:           1
-10.969   0.010   0.011   0.013   0.001 -10.865   0.010   0.010
  0.010 -10.982   0.009  -0.015  -0.013   0.010 -10.878   0.008
  0.011   0.009 -10.980   0.005  -0.003   0.010   0.008 -10.877
  0.013  -0.015   0.005 -10.973   0.007   0.013  -0.014   0.004
  0.001  -0.013  -0.003   0.007 -10.963   0.001  -0.013  -0.003
-10.865   0.010   0.010   0.013   0.001 -10.738   0.009   0.010
  0.010 -10.878   0.008  -0.014  -0.013   0.009 -10.750   0.008
  0.010   0.008 -10.877   0.004  -0.003   0.010   0.008 -10.749
  0.013  -0.014   0.004 -10.870   0.007   0.012  -0.014   0.004
  0.001  -0.013  -0.003   0.007 -10.860   0.001  -0.012  -0.003
 -0.001  -0.009  -0.001  -0.008  -0.001  -0.001  -0.009  -0.001
  0.008   0.005   0.005   0.006  -0.000   0.008   0.005   0.005
  0.012  -0.020  -0.010   0.001  -0.017   0.011  -0.019  -0.010
  0.001   0.017  -0.024   0.012  -0.000   0.001   0.016  -0.023
  0.017   0.001  -0.007  -0.020   0.012   0.017   0.001  -0.007
 -0.008   0.013   0.006   0.000   0.011  -0.007   0.012   0.006
  0.000  -0.011   0.015  -0.008  -0.000   0.000  -0.010   0.014
 -0.011   0.000   0.004   0.013  -0.007  -0.010   0.000   0.004
 -0.022   0.000  -0.000  -0.001  -0.033  -0.022   0.000  -0.000
  0.031  -0.017  -0.000  -0.025   0.000   0.030  -0.016  -0.000
  0.006   0.039  -0.028  -0.001  -0.009   0.006   0.037  -0.027
  0.001   0.020   0.041   0.014  -0.000   0.001   0.020   0.040
  0.009  -0.001  -0.020   0.039   0.006   0.008  -0.001  -0.019
  0.000   0.026   0.000  -0.019   0.031   0.000   0.025   0.000
  0.032   0.001   0.001   0.001  -0.023   0.031   0.001   0.001
  0.038  -0.001   0.001   0.002   0.055   0.036  -0.001   0.001
 -0.054   0.029   0.000   0.043  -0.000  -0.051   0.028   0.000
 -0.009  -0.066   0.048   0.001   0.015  -0.008  -0.062   0.045
 -0.002  -0.035  -0.070  -0.024   0.001  -0.002  -0.033  -0.066
 -0.014   0.001   0.034  -0.067  -0.011  -0.014   0.001   0.032
 -0.000  -0.044  -0.000   0.033  -0.054  -0.000  -0.042  -0.000
 -0.055  -0.002  -0.002  -0.001   0.038  -0.052  -0.001  -0.002
 pseudopotential strength for first ion, spin component:           2
-10.969   0.010   0.011   0.013   0.001 -10.865   0.010   0.010
  0.010 -10.981   0.009  -0.015  -0.013   0.010 -10.878   0.008
  0.011   0.009 -10.980   0.005  -0.003   0.010   0.008 -10.877
  0.013  -0.015   0.005 -10.973   0.007   0.013  -0.014   0.004
  0.001  -0.013  -0.003   0.007 -10.963   0.001  -0.013  -0.003
-10.865   0.010   0.010   0.013   0.001 -10.738   0.009   0.010
  0.010 -10.878   0.008  -0.014  -0.013   0.009 -10.750   0.008
  0.010   0.008 -10.877   0.004  -0.003   0.010   0.008 -10.749
  0.013  -0.014   0.004 -10.870   0.007   0.012  -0.014   0.004
  0.001  -0.013  -0.003   0.007 -10.860   0.001  -0.012  -0.003
 -0.001  -0.009  -0.001  -0.008  -0.001  -0.001  -0.009  -0.001
  0.008   0.005   0.005   0.006  -0.000   0.008   0.005   0.005
  0.012  -0.020  -0.010   0.001  -0.017   0.011  -0.019  -0.010
  0.001   0.017  -0.024   0.012  -0.000   0.001   0.016  -0.023
  0.017   0.001  -0.007  -0.020   0.012   0.017   0.001  -0.007
 -0.008   0.013   0.006   0.000   0.011  -0.007   0.012   0.006
  0.000  -0.011   0.015  -0.008  -0.000   0.000  -0.010   0.014
 -0.011   0.000   0.004   0.013  -0.007  -0.010   0.000   0.004
 -0.022   0.000  -0.000  -0.001  -0.033  -0.022   0.000  -0.000
  0.031  -0.017  -0.000  -0.025   0.000   0.030  -0.016  -0.000
  0.006   0.039  -0.028  -0.001  -0.009   0.006   0.037  -0.027
  0.001   0.020   0.041   0.014  -0.000   0.001   0.020   0.040
  0.009  -0.001  -0.020   0.039   0.006   0.008  -0.001  -0.019
  0.000   0.026   0.000  -0.019   0.031   0.000   0.025   0.000
  0.032   0.001   0.001   0.001  -0.023   0.031   0.001   0.001
  0.038  -0.001   0.001   0.002   0.055   0.036  -0.001   0.001
 -0.054   0.029   0.000   0.043  -0.000  -0.051   0.028   0.000
 -0.009  -0.066   0.048   0.001   0.015  -0.008  -0.062   0.045
 -0.002  -0.035  -0.070  -0.024   0.001  -0.002  -0.033  -0.066
 -0.014   0.001   0.034  -0.067  -0.011  -0.014   0.001   0.032
 -0.000  -0.044  -0.000   0.033  -0.054  -0.000  -0.042  -0.000
 -0.055  -0.002  -0.002  -0.001   0.038  -0.052  -0.001  -0.002
 total augmentation occupancy for first ion, spin component:           1
  2.541   0.003   0.070  -0.076   0.065  -0.573   0.067  -0.124   0.116  -0.047   0.201  -0.001  -0.009  -0.004   0.070  -0.002
  0.003   2.707   0.017  -0.027   0.200   0.068  -0.690   0.026  -0.000  -0.245   0.424   0.005  -0.169   0.089   0.043  -0.002
  0.070   0.017   2.467  -0.056   0.049  -0.124   0.025  -0.433   0.076  -0.045   0.123  -0.000  -0.045  -0.048   0.013   0.001
 -0.076  -0.027  -0.056   2.768  -0.235   0.117  -0.001   0.077  -0.717   0.258   0.429   0.004   0.055   0.100  -0.195  -0.000
  0.065   0.200   0.049  -0.235   2.780  -0.047  -0.245  -0.045   0.258  -0.717   0.039   0.001  -0.170  -0.012   0.165  -0.001
 -0.573   0.068  -0.124   0.117  -0.047   0.578  -0.129   0.167  -0.153   0.032  -0.170  -0.002   0.007   0.007  -0.067  -0.000
  0.067  -0.690   0.025  -0.001  -0.245  -0.129   0.658  -0.063   0.028   0.286  -0.377  -0.007   0.169  -0.096  -0.033   0.006
 -0.124   0.026  -0.433   0.077  -0.045   0.167  -0.063   0.383  -0.094   0.042  -0.105  -0.001   0.041   0.046  -0.014   0.001
  0.116  -0.000   0.076  -0.717   0.258  -0.153   0.028  -0.094   0.655  -0.280  -0.379  -0.006  -0.043  -0.104   0.189   0.000
 -0.047  -0.245  -0.045   0.258  -0.717   0.032   0.286   0.042  -0.280   0.641  -0.035  -0.001   0.161   0.009  -0.153   0.004
  0.201   0.424   0.123   0.429   0.039  -0.170  -0.377  -0.105  -0.379  -0.035   0.980   0.012  -0.121   0.143  -0.085  -0.005
 -0.001   0.005  -0.000   0.004   0.001  -0.002  -0.007  -0.001  -0.006  -0.001   0.012   0.000  -0.002   0.002  -0.001  -0.000
 -0.009  -0.169  -0.045   0.055  -0.170   0.007   0.169   0.041  -0.043   0.161  -0.121  -0.002   0.085  -0.012  -0.050   0.002
 -0.004   0.089  -0.048   0.100  -0.012   0.007  -0.096   0.046  -0.104   0.009   0.143   0.002  -0.012   0.039  -0.026  -0.001
  0.070   0.043   0.013  -0.195   0.165  -0.067  -0.033  -0.014   0.189  -0.153  -0.085  -0.001  -0.050  -0.026   0.093  -0.001
 -0.002  -0.002   0.001  -0.000  -0.001  -0.000   0.006   0.001   0.000   0.004  -0.005  -0.000   0.002  -0.001  -0.001   0.000
 -0.000   0.001   0.002   0.002   0.000   0.000  -0.004   0.001  -0.004  -0.000   0.006   0.000  -0.001   0.002  -0.001  -0.000
 -0.001  -0.000   0.001  -0.002   0.001  -0.002   0.000  -0.000   0.006  -0.004  -0.004  -0.000  -0.001  -0.001   0.002  -0.000
  0.011  -0.001   0.004   0.004   0.010  -0.011   0.002  -0.005  -0.004  -0.008   0.008   0.000   0.001   0.001  -0.004   0.000
 -0.028   0.016  -0.004   0.016   0.002   0.032  -0.018   0.006  -0.016  -0.003   0.004   0.000  -0.004   0.001  -0.003  -0.000
  0.007  -0.021   0.019  -0.009   0.006  -0.011   0.021  -0.020   0.010  -0.005  -0.007  -0.000  -0.001  -0.005   0.004   0.000
 -0.001  -0.014  -0.016  -0.012   0.000   0.001   0.013   0.014   0.012  -0.000  -0.019  -0.000   0.003  -0.003   0.004   0.000
 -0.000  -0.008   0.012  -0.020  -0.004  -0.001   0.010  -0.013   0.018   0.004  -0.012  -0.000   0.003  -0.005  -0.000   0.000
 -0.000  -0.025  -0.001   0.022  -0.033  -0.001   0.026  -0.000  -0.022   0.033  -0.001  -0.000   0.008  -0.000  -0.007   0.000
 -0.022  -0.001  -0.008   0.002   0.006   0.024  -0.001   0.011  -0.003  -0.004  -0.011  -0.000   0.004  -0.000  -0.003   0.000
  0.001  -0.000   0.001   0.001  -0.001  -0.003   0.001  -0.002  -0.001  -0.002   0.002   0.000   0.000   0.000  -0.001  -0.000
 -0.005   0.003  -0.001   0.002   0.001   0.010  -0.006   0.002  -0.005  -0.001   0.001   0.000  -0.001   0.000  -0.001  -0.000
  0.003  -0.002   0.003  -0.003   0.001  -0.004   0.006  -0.006   0.003  -0.001  -0.002  -0.000  -0.000  -0.002   0.001   0.000
 -0.000  -0.002  -0.000  -0.002  -0.000   0.000   0.004   0.004   0.004  -0.000  -0.006  -0.000   0.001  -0.001   0.001   0.000
  0.001  -0.003   0.002  -0.002  -0.001  -0.001   0.003  -0.004   0.005   0.001  -0.004  -0.000   0.001  -0.001  -0.000   0.000
  0.000  -0.005  -0.000   0.004  -0.007  -0.000   0.008  -0.000  -0.007   0.010  -0.000  -0.000   0.002  -0.000  -0.002   0.000
 -0.003   0.000  -0.003   0.001  -0.001   0.007  -0.000   0.003  -0.001  -0.001  -0.003  -0.000   0.001  -0.000  -0.001   0.000
 total augmentation occupancy for first ion, spin component:           2
 -0.000   0.000  -0.000   0.000  -0.000   0.000  -0.000   0.000  -0.000   0.000   0.000   0.000   0.000   0.000  -0.000   0.000
  0.000  -0.000   0.000  -0.000  -0.000  -0.000   0.000  -0.000   0.000   0.000  -0.000  -0.000   0.000  -0.000  -0.000  -0.000
 -0.000   0.000  -0.000   0.000  -0.000   0.000   0.000   0.000  -0.000   0.000   0.000   0.000   0.000   0.000  -0.000  -0.000
  0.000  -0.000   0.000  -0.000   0.000  -0.000   0.000  -0.000   0.000  -0.000  -0.000   0.000  -0.000  -0.000   0.000  -0.000
 -0.000  -0.000  -0.000   0.000  -0.000   0.000   0.000   0.000  -0.000   0.000  -0.000   0.000   0.000   0.000  -0.000  -0.000
  0.000  -0.000   0.000  -0.000   0.000   0.000  -0.000   0.000  -0.000  -0.000  -0.000  -0.000  -0.000  -0.000   0.000  -0.000
 -0.000   0.000   0.000   0.000   0.000  -0.000  -0.000  -0.000  -0.000  -0.000   0.000   0.000  -0.000   0.000   0.000   0.000
  0.000  -0.000   0.000  -0.000   0.000   0.000  -0.000   0.000  -0.000  -0.000  -0.000   0.000  -0.000   0.000   0.000   0.000
 -0.000   0.000  -0.000   0.000  -0.000  -0.000  -0.000  -0.000  -0.000   0.000   0.000   0.000   0.000   0.000  -0.000  -0.000
  0.000   0.000   0.000  -0.000   0.000  -0.000  -0.000  -0.000   0.000  -0.000   0.000   0.000  -0.000  -0.000   0.000   0.000
  0.000  -0.000   0.000  -0.000  -0.000  -0.000   0.000  -0.000   0.000   0.000   0.000   0.000   0.000  -0.000   0.000  -0.000
  0.000  -0.000   0.000   0.000   0.000  -0.000   0.000   0.000   0.000   0.000   0.000  -0.000   0.000  -0.000   0.000   0.000
  0.000   0.000   0.000  -0.000   0.000  -0.000  -0.000  -0.000   0.000  -0.000   0.000   0.000  -0.000  -0.000   0.000  -0.000
  0.000  -0.000   0.000  -0.000   0.000  -0.000   0.000   0.000   0.000  -0.000  -0.000  -0.000  -0.000  -0.000   0.000  -0.000
 -0.000  -0.000  -0.000   0.000  -0.000   0.000   0.000   0.000  -0.000   0.000   0.000   0.000   0.000   0.000  -0.000   0.000
  0.000  -0.000  -0.000  -0.000  -0.000  -0.000   0.000   0.000  -0.000   0.000  -0.000   0.000  -0.000  -0.000   0.000  -0.000
  0.000   0.000  -0.000   0.000  -0.000  -0.000  -0.000   0.000  -0.000   0.000   0.000  -0.000  -0.000   0.000   0.000   0.000
  0.000  -0.000  -0.000  -0.000   0.000  -0.000  -0.000   0.000   0.000  -0.000  -0.000   0.000   0.000  -0.000   0.000   0.000
 -0.000  -0.000   0.000  -0.000  -0.000  -0.000   0.000  -0.000   0.000  -0.000  -0.000  -0.000  -0.000  -0.000   0.000  -0.000
  0.000   0.000  -0.000  -0.000  -0.000   0.000  -0.000   0.000  -0.000  -0.000  -0.000  -0.000  -0.000  -0.000  -0.000   0.000
  0.000   0.000  -0.000  -0.000  -0.000  -0.000   0.000  -0.000   0.000  -0.000  -0.000   0.000  -0.000  -0.000   0.000  -0.000
 -0.000   0.000   0.000   0.000   0.000   0.000  -0.000   0.000  -0.000  -0.000  -0.000   0.000  -0.000  -0.000   0.000   0.000
  0.000  -0.000  -0.000   0.000   0.000   0.000   0.000  -0.000  -0.000   0.000   0.000   0.000   0.000  -0.000  -0.000  -0.000
  0.000   0.000   0.000  -0.000   0.000  -0.000   0.000  -0.000   0.000  -0.000  -0.000  -0.000  -0.000  -0.000   0.000  -0.000
  0.000   0.000  -0.000   0.000  -0.000   0.000  -0.000   0.000  -0.000  -0.000   0.000   0.000  -0.000  -0.000   0.000  -0.000
 -0.000  -0.000   0.000  -0.000  -0.000  -0.000   0.000  -0.000   0.000  -0.000  -0.000  -0.000  -0.000  -0.000   0.000  -0.000
  0.000  -0.000  -0.000  -0.000   0.000   0.000  -0.000   0.000  -0.000  -0.000  -0.000  -0.000  -0.000  -0.000   0.000   0.000
  0.000   0.000  -0.000  -0.000  -0.000  -0.000   0.000  -0.000   0.000  -0.000   0.000   0.000  -0.000   0.000   0.000  -0.000
 -0.000   0.000   0.000   0.000   0.000   0.000  -0.000   0.000  -0.000  -0.000   0.000   0.000  -0.000   0.000   0.000  -0.000
  0.000   0.000  -0.000   0.000  -0.000  -0.000   0.000  -0.000  -0.000   0.000   0.000   0.000   0.000   0.000  -0.000  -0.000
  0.000   0.000   0.000  -0.000   0.000  -0.000  -0.000  -0.000   0.000  -0.000   0.000   0.000  -0.000  -0.000   0.000  -0.000
  0.000   0.000  -0.000   0.000  -0.000   0.000  -0.000   0.000  -0.000  -0.000   0.000   0.000  -0.000   0.000   0.000   0.000


------------------------ aborting loop because EDIFF is reached ----------------------------------------


 


 total charge     
 
# of ion       s       p       d       f       tot
--------------------------------------------------
    1        0.416   0.158   9.447   0.011  10.031
    2        0.591   0.053   9.401   0.005  10.051
    3        0.591   0.053   9.401   0.005  10.051
    4        0.416   0.158   9.447   0.011  10.031
--------------------------------------------------
tot          2.014   0.424  37.695   0.032  40.164

 


 magnetization (x)
 
# of ion       s       p       d       f       tot
--------------------------------------------------
    1       -0.000  -0.000   0.000   0.000   0.000
    2       -0.000  -0.000  -0.000   0.000  -0.000
    3       -0.000  -0.000  -0.000   0.000  -0.000
    4       -0.000  -0.000   0.000   0.000   0.000
--------------------------------------------------
tot         -0.000  -0.000  -0.000   0.000  -0.000

 
    CHARGE:  cpu time    2.5456: real time    2.5580
    FORLOC:  cpu time    0.0440: real time    0.0435
    FORNL :  cpu time   12.6281: real time   12.7076
    FORCOR:  cpu time    6.4260: real time    6.4672
    FORHAR:  cpu time    0.3959: real time    0.3967
    MIXING:  cpu time    0.1730: real time    0.1745
    OFIELD:  cpu time    0.0000: real time    0.0000

 VOLUME and BASIS-vectors are now :
 -----------------------------------------------------------------------------
  energy-cutoff  :      500.00
  volume of cell :     4913.00
      direct lattice vectors                 reciprocal lattice vectors
    17.000000000  0.000000000  0.000000000     0.058823529  0.000000000  0.000000000
     0.000000000 17.000000000  0.000000000     0.000000000  0.058823529  0.000000000
     0.000000000  0.000000000 17.000000000     0.000000000  0.000000000  0.058823529

  length of vectors
    17.000000000 17.000000000 17.000000000     0.058823529  0.058823529  0.058823529


 FORCES acting on ions
    electron-ion (+dipol)            ewald-force                    non-local-force                 convergence-correction
 -----------------------------------------------------------------------------------------------
   -.190E+03 -.272E+03 0.322E+03   0.189E+03 0.270E+03 -.320E+03   0.113E+01 0.162E+01 -.191E+01   0.420E-02 0.579E-02 -.718E-02
   0.346E+03 -.302E+03 -.506E+02   -.344E+03 0.300E+03 0.504E+02   -.170E+01 0.147E+01 0.246E+00   -.124E-01 0.104E-01 0.118E-02
   -.346E+03 0.302E+03 0.507E+02   0.344E+03 -.300E+03 -.504E+02   0.170E+01 -.147E+01 -.246E+00   0.124E-01 -.104E-01 -.118E-02
   0.190E+03 0.272E+03 -.322E+03   -.189E+03 -.270E+03 0.320E+03   -.113E+01 -.162E+01 0.191E+01   -.420E-02 -.579E-02 0.718E-02
 -----------------------------------------------------------------------------------------------
   0.294E-01 0.288E-01 0.398E-01   0.568E-13 0.568E-13 0.000E+00   0.000E+00 0.222E-15 0.000E+00   -.111E-05 -.102E-05 -.164E-05
 
 
 POSITION                                       TOTAL-FORCE (eV/Angst)
 -----------------------------------------------------------------------------------
      0.54205      0.77594     16.08333        -0.097047     -0.140725      0.167398
     15.17463      1.58918      0.26563         0.133090     -0.118725     -0.019871
      1.82533     15.41079     16.73432        -0.133090      0.118725      0.019871
     16.45793     16.22403      0.91664         0.097047      0.140725     -0.167398
 -----------------------------------------------------------------------------------
    total drift:                                0.029354      0.028767      0.039836


--------------------------------------------------------------------------------------------------------



  FREE ENERGIE OF THE ION-ELECTRON SYSTEM (eV)
  ---------------------------------------------------
  free  energy   TOTEN  =        -5.44068790 eV

  energy  without entropy=       -5.44068790  energy(sigma->0) =       -5.44068790
 
 d Force = 0.2562657E-01[ 0.170E-01, 0.342E-01]  d Energy = 0.2595321E-01-0.327E-03
 d Force =-0.3560938E+02[-0.360E+02,-0.352E+02]  d Ewald  =-0.3560682E+02-0.256E-02


--------------------------------------------------------------------------------------------------------


    POTLOK:  cpu time    6.7180: real time    6.7391


--------------------------------------------------------------------------------------------------------


 Steepest descent step on ions:
 trial-energy change:   -0.025953  1 .order   -0.025627   -0.034206   -0.017048
  (g-gl).g = 0.342E-01      g.g   = 0.342E-01  gl.gl    = 0.000E+00
 g(Force)  = 0.342E-01   g(Stress)= 0.000E+00 ortho     = 0.000E+00
 gamma     =   0.00000
 trial     =   1.00000
 opt step  =   1.82238  (harmonic =   1.99357) maximal distance =0.03184693
 next E    =    -5.447879   (d E  =  -0.03314)


--------------------------------------------------------------------------------------------------------


    WAVPRE:  cpu time    0.2430: real time    0.2534
    FEWALD:  cpu time    0.0000: real time    0.0001

 real space projection operators:
  total allocation   :       2341.50 KBytes
  max/ min on nodes  :        590.50        576.00

    ORTHCH:  cpu time    0.5109: real time    0.5114
     LOOP+:  cpu time  185.8018: real time  186.7406


--------------------------------------- Iteration      3(   1)  ---------------------------------------


    POTLOK:  cpu time    3.4165: real time    3.4298
    SETDIJ:  cpu time    3.2625: real time    3.2741
     EDDAV:  cpu time    4.7163: real time    4.7322
       DOS:  cpu time    0.0000: real time    0.0005
    CHARGE:  cpu time    2.5176: real time    2.5260
    MIXING:  cpu time    0.0790: real time    0.0790
    --------------------------------------------
      LOOP:  cpu time   13.9919: real time   14.0417

 eigenvalue-minimisations  :   112
 total energy-change (2. order) : 0.8204142E-03  (-0.1099814E+01)
 number of electron      44.0000002 magnetization       0.0006282
 augmentation part       21.1110376 magnetization       0.0006187

  free energy =  -0.543986740138E+01  energy without entropy=  -0.543986740138E+01


--------------------------------------------------------------------------------------------------------




--------------------------------------- Iteration      3(   2)  ---------------------------------------


    POTLOK:  cpu time    3.3855: real time    3.4428
    SETDIJ:  cpu time    3.3335: real time    3.3411
     EDDAV:  cpu time    5.4172: real time    5.4352
       DOS:  cpu time    0.0000: real time    0.0003
    CHARGE:  cpu time    2.5996: real time    2.6119
    MIXING:  cpu time    0.0980: real time    0.0984
    --------------------------------------------
      LOOP:  cpu time   14.8337: real time   14.9297

 eigenvalue-minimisations  :   144
 total energy-change (2. order) :-0.8278296E-02  (-0.8339271E-02)
 number of electron      44.0000002 magnetization       0.0005026
 augmentation part       21.1066561 magnetization       0.0004938

 eigenvalues of (default mixing * dielectric matrix)
  average eigenvalue GAMMA=   2.0538
  2.0538

  free energy =  -0.544814569779E+01  energy without entropy=  -0.544814569779E+01


--------------------------------------------------------------------------------------------------------




--------------------------------------- Iteration      3(   3)  ---------------------------------------


    POTLOK:  cpu time    3.4215: real time    3.4297
    SETDIJ:  cpu time    3.3275: real time    3.3388
     EDDAV:  cpu time    4.6983: real time    4.7171
       DOS:  cpu time    0.0000: real time    0.0003
    CHARGE:  cpu time    2.6136: real time    2.6230
    MIXING:  cpu time    0.0920: real time    0.0917
    --------------------------------------------
      LOOP:  cpu time   14.1528: real time   14.2005

 eigenvalue-minimisations  :   120
 total energy-change (2. order) :-0.6320660E-04  (-0.5608321E-04)
 number of electron      44.0000002 magnetization      -0.0010930
 augmentation part       21.1067914 magnetization      -0.0011003

 eigenvalues of (default mixing * dielectric matrix)
  average eigenvalue GAMMA=  15.8724
  0.9779 30.7669

  free energy =  -0.544820890440E+01  energy without entropy=  -0.544820890440E+01


--------------------------------------------------------------------------------------------------------




--------------------------------------- Iteration      3(   4)  ---------------------------------------


    POTLOK:  cpu time    3.4085: real time    3.4278
    SETDIJ:  cpu time    3.3085: real time    3.3412
     EDDAV:  cpu time    4.4373: real time    4.4517
       DOS:  cpu time    0.0010: real time    0.0004
    CHARGE:  cpu time    2.5886: real time    2.5987
    MIXING:  cpu time    0.1070: real time    0.1074
    --------------------------------------------
      LOOP:  cpu time   13.8509: real time   13.9272

 eigenvalue-minimisations  :   112
 total energy-change (2. order) : 0.4466749E-04  (-0.5501938E-04)
 number of electron      44.0000002 magnetization      -0.0019333
 augmentation part       21.1121957 magnetization      -0.0019218

 eigenvalues of (default mixing * dielectric matrix)
  average eigenvalue GAMMA=  16.8952
 48.7332  0.9762  0.9762

  free energy =  -0.544816423690E+01  energy without entropy=  -0.544816423690E+01


--------------------------------------------------------------------------------------------------------




--------------------------------------- Iteration      3(   5)  ---------------------------------------


    POTLOK:  cpu time    3.4145: real time    3.4231
    SETDIJ:  cpu time    3.3335: real time    3.3460
     EDDAV:  cpu time    6.3710: real time    6.3957
       DOS:  cpu time    0.0000: real time    0.0006
    CHARGE:  cpu time    2.5926: real time    2.6073
    MIXING:  cpu time    0.1130: real time    0.1131
    --------------------------------------------
      LOOP:  cpu time   15.8246: real time   15.8858

 eigenvalue-minimisations  :   176
 total energy-change (2. order) :-0.9850295E-04  (-0.2627554E-04)
 number of electron      44.0000002 magnetization      -0.0010874
 augmentation part       21.1153588 magnetization      -0.0010644

 eigenvalues of (default mixing * dielectric matrix)
  average eigenvalue GAMMA=  13.8937
 49.3391  4.2085  0.9627  1.0646

  free energy =  -0.544826273986E+01  energy without entropy=  -0.544826273986E+01


--------------------------------------------------------------------------------------------------------




--------------------------------------- Iteration      3(   6)  ---------------------------------------


    POTLOK:  cpu time    3.4115: real time    3.4281
    SETDIJ:  cpu time    3.2935: real time    3.3389
     EDDAV:  cpu time    4.4903: real time    4.5149
       DOS:  cpu time    0.0000: real time    0.0003
    CHARGE:  cpu time    2.6026: real time    2.6199
    MIXING:  cpu time    0.1170: real time    0.1168
    --------------------------------------------
      LOOP:  cpu time   13.9149: real time   14.0188

 eigenvalue-minimisations  :   112
 total energy-change (2. order) : 0.3652769E-04  (-0.3599105E-05)
 number of electron      44.0000002 magnetization       0.0010315
 augmentation part       21.1141259 magnetization       0.0010456

 eigenvalues of (default mixing * dielectric matrix)
  average eigenvalue GAMMA=  14.0836
 51.7584 15.3936  1.0006  1.0006  1.2647

  free energy =  -0.544822621217E+01  energy without entropy=  -0.544822621217E+01


--------------------------------------------------------------------------------------------------------




--------------------------------------- Iteration      3(   7)  ---------------------------------------


    POTLOK:  cpu time    3.4215: real time    3.4346
    SETDIJ:  cpu time    3.3045: real time    3.3168
     EDDAV:  cpu time    4.5973: real time    4.6215
       DOS:  cpu time    0.0000: real time    0.0004
    CHARGE:  cpu time    2.5536: real time    2.5718
    MIXING:  cpu time    0.1270: real time    0.1287
    --------------------------------------------
      LOOP:  cpu time   14.0039: real time   14.0738

 eigenvalue-minimisations  :   112
 total energy-change (2. order) : 0.4572461E-04  (-0.1965654E-04)
 number of electron      44.0000002 magnetization       0.0008537
 augmentation part       21.1107821 magnetization       0.0008463

 eigenvalues of (default mixing * dielectric matrix)
  average eigenvalue GAMMA=  12.0791
 50.0900 16.3529  3.0412  1.0076  1.0076  0.9752

  free energy =  -0.544818048756E+01  energy without entropy=  -0.544818048756E+01


--------------------------------------------------------------------------------------------------------




--------------------------------------- Iteration      3(   8)  ---------------------------------------


    POTLOK:  cpu time    3.4265: real time    3.4391
    SETDIJ:  cpu time    3.3105: real time    3.3289
     EDDAV:  cpu time    6.9959: real time    7.0593
       DOS:  cpu time    0.0000: real time    0.0006
    CHARGE:  cpu time    2.5756: real time    2.5881
    MIXING:  cpu time    0.1380: real time    0.1376
    --------------------------------------------
      LOOP:  cpu time   16.4465: real time   16.5537

 eigenvalue-minimisations  :   192
 total energy-change (2. order) : 0.6867895E-06  (-0.2093768E-05)
 number of electron      44.0000002 magnetization       0.0000112
 augmentation part       21.1102713 magnetization       0.0000043

 eigenvalues of (default mixing * dielectric matrix)
  average eigenvalue GAMMA=  11.1757
 48.0467 16.1792  9.8824  1.1429  0.9878  0.9878  1.0032

  free energy =  -0.544817980077E+01  energy without entropy=  -0.544817980077E+01


--------------------------------------------------------------------------------------------------------




--------------------------------------- Iteration      3(   9)  ---------------------------------------


    POTLOK:  cpu time    3.4075: real time    3.4254
    SETDIJ:  cpu time    3.2935: real time    3.3023
     EDDAV:  cpu time    3.3845: real time    3.4035
       DOS:  cpu time    0.0010: real time    0.0006
    CHARGE:  cpu time    2.5376: real time    2.5531
    MIXING:  cpu time    0.1460: real time    0.1462
    --------------------------------------------
      LOOP:  cpu time   12.7701: real time   12.8312

 eigenvalue-minimisations  :    72
 total energy-change (2. order) : 0.1884405E-05  (-0.2359281E-06)
 number of electron      44.0000002 magnetization      -0.0009492
 augmentation part       21.1101330 magnetization      -0.0009432

 eigenvalues of (default mixing * dielectric matrix)
  average eigenvalue GAMMA=  10.7733
 48.9123 17.0872 15.0298  1.2653  1.0205  1.0205  0.9926  0.8585

  free energy =  -0.544817791636E+01  energy without entropy=  -0.544817791636E+01


--------------------------------------------------------------------------------------------------------




--------------------------------------- Iteration      3(  10)  ---------------------------------------


    POTLOK:  cpu time    3.4315: real time    3.4484
    SETDIJ:  cpu time    3.2995: real time    3.3090
     EDDAV:  cpu time    4.5603: real time    4.6202
       DOS:  cpu time    0.0000: real time    0.0001
    --------------------------------------------
      LOOP:  cpu time   11.2913: real time   11.3776

 eigenvalue-minimisations  :   112
 total energy-change (2. order) :-0.5659222E-06  (-0.5214142E-06)
 number of electron      44.0000002 magnetization      -0.0009492
 augmentation part       21.1101330 magnetization      -0.0009432

  free energy =  -0.544817848228E+01  energy without entropy=  -0.544817848228E+01


--------------------------------------------------------------------------------------------------------




 average (electrostatic) potential at core
  the test charge radii are     1.1249
  (the norm of the test charge is              1.0000)
       1 -97.7756       2 -97.1316       3 -97.1317       4 -97.7757
 
 
 
 E-fermi :  -4.2386     XC(G=0):  -0.4889     alpha+bet : -0.1892


 spin component 1

 k-point     1 :       0.0000    0.0000    0.0000
  band No.  band energies     occupation 
      1      -8.8389      1.00000
      2      -8.7829      1.00000
      3      -8.2815      1.00000
      4      -8.2143      1.00000
      5      -8.1623      1.00000
      6      -7.9710      1.00000
      7      -7.6657      1.00000
      8      -7.6241      1.00000
      9      -7.2573      1.00000
     10      -7.2418      1.00000
     11      -7.1521      1.00000
     12      -6.9833      1.00000
     13      -6.9696      1.00000
     14      -6.9620      1.00000
     15      -6.8676      1.00000
     16      -6.8373      1.00000
     17      -6.7947      1.00000
     18      -6.7493      1.00000
     19      -6.6856      1.00000
     20      -6.4572      1.00000
     21      -6.1924      1.00000
     22      -4.2679      1.00000
     23      -3.4013      0.00000
     24      -2.2634      0.00000
     25      -1.6562      0.00000
     26      -0.9219      0.00000
     27      -0.8674      0.00000
     28      -0.3966      0.00000

 spin component 2

 k-point     1 :       0.0000    0.0000    0.0000
  band No.  band energies     occupation 
      1      -8.8390      1.00000
      2      -8.7830      1.00000
      3      -8.2816      1.00000
      4      -8.2144      1.00000
      5      -8.1624      1.00000
      6      -7.9711      1.00000
      7      -7.6658      1.00000
      8      -7.6242      1.00000
      9      -7.2574      1.00000
     10      -7.2419      1.00000
     11      -7.1522      1.00000
     12      -6.9834      1.00000
     13      -6.9697      1.00000
     14      -6.9621      1.00000
     15      -6.8677      1.00000
     16      -6.8374      1.00000
     17      -6.7948      1.00000
     18      -6.7494      1.00000
     19      -6.6857      1.00000
     20      -6.4573      1.00000
     21      -6.1925      1.00000
     22      -4.2681      1.00000
     23      -3.4014      0.00000
     24      -2.2635      0.00000
     25      -1.6563      0.00000
     26      -0.9220      0.00000
     27      -0.8676      0.00000
     28      -0.3968      0.00000


--------------------------------------------------------------------------------------------------------


 soft charge-density along one line, spin component           1
         0         1         2         3         4         5         6         7         8         9
 total charge-density along one line
 
 soft charge-density along one line, spin component           2
         0         1         2         3         4         5         6         7         8         9
 total charge-density along one line
 
 pseudopotential strength for first ion, spin component:           1
-10.974   0.011   0.011   0.015   0.001 -10.870   0.011   0.011
  0.011 -10.987   0.010  -0.015  -0.015   0.011 -10.883   0.009
  0.011   0.010 -10.986   0.005  -0.003   0.011   0.009 -10.881
  0.015  -0.015   0.005 -10.978   0.008   0.014  -0.015   0.005
  0.001  -0.015  -0.003   0.008 -10.968   0.001  -0.014  -0.003
-10.870   0.011   0.011   0.014   0.001 -10.742   0.010   0.010
  0.011 -10.883   0.009  -0.015  -0.014   0.010 -10.755   0.009
  0.011   0.009 -10.881   0.005  -0.003   0.010   0.009 -10.753
  0.014  -0.015   0.005 -10.874   0.007   0.013  -0.014   0.005
  0.001  -0.014  -0.003   0.007 -10.864   0.001  -0.013  -0.003
 -0.001  -0.010  -0.001  -0.009  -0.001  -0.001  -0.010  -0.001
  0.008   0.005   0.005   0.007  -0.000   0.008   0.005   0.005
  0.012  -0.019  -0.010   0.001  -0.017   0.011  -0.019  -0.010
  0.001   0.016  -0.023   0.011  -0.000   0.001   0.015  -0.022
  0.017   0.001  -0.007  -0.020   0.012   0.016   0.001  -0.007
 -0.008   0.012   0.006   0.000   0.010  -0.007   0.011   0.005
  0.000  -0.011   0.014  -0.007  -0.000   0.000  -0.010   0.013
 -0.011   0.000   0.004   0.012  -0.007  -0.010   0.000   0.004
 -0.022   0.000  -0.000  -0.001  -0.033  -0.022   0.000  -0.000
  0.031  -0.017  -0.000  -0.025   0.000   0.029  -0.016  -0.000
  0.006   0.039  -0.028  -0.001  -0.009   0.006   0.037  -0.027
  0.001   0.020   0.041   0.014  -0.000   0.001   0.020   0.040
  0.009  -0.001  -0.020   0.039   0.006   0.009  -0.001  -0.019
  0.000   0.026   0.000  -0.019   0.031   0.000   0.025   0.000
  0.032   0.001   0.001   0.001  -0.023   0.031   0.001   0.001
  0.038  -0.001   0.001   0.002   0.056   0.036  -0.001   0.001
 -0.054   0.029   0.000   0.043  -0.000  -0.051   0.028   0.000
 -0.009  -0.066   0.048   0.001   0.016  -0.009  -0.063   0.046
 -0.002  -0.035  -0.070  -0.024   0.001  -0.002  -0.033  -0.067
 -0.015   0.001   0.034  -0.067  -0.011  -0.014   0.001   0.032
 -0.000  -0.045  -0.000   0.033  -0.054  -0.000  -0.042  -0.000
 -0.055  -0.002  -0.002  -0.001   0.038  -0.053  -0.002  -0.002
 pseudopotential strength for first ion, spin component:           2
-10.974   0.011   0.011   0.015   0.001 -10.870   0.011   0.011
  0.011 -10.987   0.010  -0.015  -0.015   0.011 -10.883   0.009
  0.011   0.010 -10.986   0.005  -0.003   0.011   0.009 -10.882
  0.015  -0.015   0.005 -10.978   0.008   0.014  -0.015   0.005
  0.001  -0.015  -0.003   0.008 -10.968   0.001  -0.014  -0.003
-10.870   0.011   0.011   0.014   0.001 -10.742   0.010   0.010
  0.011 -10.883   0.009  -0.015  -0.014   0.010 -10.755   0.009
  0.011   0.009 -10.882   0.005  -0.003   0.010   0.009 -10.753
  0.014  -0.015   0.005 -10.875   0.007   0.013  -0.014   0.005
  0.001  -0.014  -0.003   0.007 -10.865   0.001  -0.013  -0.003
 -0.001  -0.010  -0.001  -0.009  -0.001  -0.001  -0.010  -0.001
  0.008   0.005   0.005   0.007  -0.000   0.008   0.005   0.005
  0.012  -0.019  -0.010   0.001  -0.017   0.011  -0.019  -0.010
  0.001   0.016  -0.023   0.011  -0.000   0.001   0.015  -0.022
  0.017   0.001  -0.007  -0.020   0.012   0.016   0.001  -0.007
 -0.008   0.012   0.006   0.000   0.010  -0.007   0.011   0.005
  0.000  -0.011   0.014  -0.007  -0.000   0.000  -0.010   0.013
 -0.011   0.000   0.004   0.012  -0.007  -0.010   0.000   0.004
 -0.022   0.000  -0.000  -0.001  -0.033  -0.022   0.000  -0.000
  0.031  -0.017  -0.000  -0.025   0.000   0.029  -0.016  -0.000
  0.006   0.039  -0.028  -0.001  -0.009   0.006   0.037  -0.027
  0.001   0.020   0.041   0.014  -0.000   0.001   0.020   0.040
  0.009  -0.001  -0.020   0.039   0.006   0.009  -0.001  -0.019
  0.000   0.026   0.000  -0.019   0.031   0.000   0.025   0.000
  0.032   0.001   0.001   0.001  -0.023   0.031   0.001   0.001
  0.038  -0.001   0.001   0.002   0.056   0.036  -0.001   0.001
 -0.054   0.029   0.000   0.043  -0.000  -0.051   0.028   0.000
 -0.009  -0.066   0.048   0.001   0.016  -0.009  -0.063   0.046
 -0.002  -0.035  -0.070  -0.024   0.001  -0.002  -0.033  -0.067
 -0.015   0.001   0.034  -0.067  -0.011  -0.014   0.001   0.032
 -0.000  -0.045  -0.000   0.033  -0.054  -0.000  -0.042  -0.000
 -0.055  -0.002  -0.002  -0.001   0.038  -0.053  -0.002  -0.002
 total augmentation occupancy for first ion, spin component:           1
  2.588  -0.012   0.074  -0.092   0.065  -0.628   0.087  -0.131   0.136  -0.046   0.203  -0.001  -0.006  -0.006   0.076  -0.002
 -0.012   2.766   0.008  -0.017   0.219   0.088  -0.757   0.038  -0.013  -0.267   0.447   0.006  -0.181   0.098   0.042  -0.002
  0.074   0.008   2.508  -0.064   0.052  -0.131   0.037  -0.478   0.086  -0.047   0.125  -0.000  -0.047  -0.054   0.013   0.000
 -0.092  -0.017  -0.064   2.819  -0.249   0.136  -0.013   0.087  -0.774   0.274   0.450   0.005   0.054   0.108  -0.206  -0.000
  0.065   0.219   0.052  -0.249   2.826  -0.046  -0.267  -0.047   0.274  -0.766   0.042   0.001  -0.179  -0.011   0.172  -0.001
 -0.628   0.088  -0.131   0.136  -0.046   0.640  -0.154   0.177  -0.177   0.030  -0.172  -0.002   0.003   0.010  -0.073  -0.000
  0.087  -0.757   0.037  -0.013  -0.267  -0.154   0.732  -0.078   0.044   0.312  -0.401  -0.007   0.182  -0.106  -0.031   0.006
 -0.131   0.038  -0.478   0.087  -0.047   0.177  -0.078   0.432  -0.106   0.044  -0.106  -0.001   0.043   0.053  -0.013   0.001
  0.136  -0.013   0.086  -0.774   0.274  -0.177   0.044  -0.106   0.715  -0.297  -0.401  -0.007  -0.042  -0.113   0.200   0.000
 -0.046  -0.267  -0.047   0.274  -0.766   0.030   0.312   0.044  -0.297   0.693  -0.039  -0.001   0.170   0.008  -0.160   0.005
  0.203   0.447   0.125   0.450   0.042  -0.172  -0.401  -0.106  -0.401  -0.039   1.002   0.013  -0.126   0.149  -0.088  -0.005
 -0.001   0.006  -0.000   0.005   0.001  -0.002  -0.007  -0.001  -0.007  -0.001   0.013   0.000  -0.002   0.002  -0.001  -0.000
 -0.006  -0.181  -0.047   0.054  -0.179   0.003   0.182   0.043  -0.042   0.170  -0.126  -0.002   0.089  -0.013  -0.052   0.002
 -0.006   0.098  -0.054   0.108  -0.011   0.010  -0.106   0.053  -0.113   0.008   0.149   0.002  -0.013   0.042  -0.027  -0.001
  0.076   0.042   0.013  -0.206   0.172  -0.073  -0.031  -0.013   0.200  -0.160  -0.088  -0.001  -0.052  -0.027   0.097  -0.001
 -0.002  -0.002   0.000  -0.000  -0.001  -0.000   0.006   0.001   0.000   0.005  -0.005  -0.000   0.002  -0.001  -0.001   0.000
 -0.000   0.001   0.002   0.002   0.000   0.000  -0.005   0.002  -0.004  -0.000   0.006   0.000  -0.001   0.002  -0.001  -0.000
 -0.001  -0.000   0.001  -0.002   0.002  -0.002   0.000  -0.000   0.006  -0.004  -0.004  -0.000  -0.001  -0.001   0.002  -0.000
  0.012  -0.001   0.004   0.003   0.011  -0.012   0.002  -0.005  -0.003  -0.009   0.008   0.000   0.001   0.001  -0.004   0.000
 -0.031   0.018  -0.004   0.019   0.002   0.036  -0.021   0.007  -0.019  -0.003   0.005   0.000  -0.005   0.002  -0.004  -0.000
  0.008  -0.024   0.021  -0.010   0.006  -0.013   0.025  -0.023   0.012  -0.005  -0.008  -0.000  -0.001  -0.006   0.004   0.000
 -0.000  -0.015  -0.018  -0.013  -0.000   0.001   0.015   0.016   0.013  -0.000  -0.020  -0.000   0.004  -0.004   0.004   0.000
  0.000  -0.009   0.014  -0.022  -0.004  -0.002   0.011  -0.015   0.021   0.004  -0.013  -0.000   0.004  -0.005  -0.000   0.000
  0.000  -0.027  -0.001   0.023  -0.036  -0.002   0.029  -0.000  -0.024   0.037  -0.001  -0.000   0.008  -0.000  -0.008   0.000
 -0.024   0.000  -0.009   0.003   0.006   0.026  -0.002   0.012  -0.004  -0.005  -0.011  -0.000   0.004   0.000  -0.003   0.000
  0.001  -0.000   0.001   0.001  -0.000  -0.004   0.001  -0.002  -0.001  -0.003   0.002   0.000   0.000   0.000  -0.001  -0.000
 -0.006   0.004  -0.002   0.003   0.001   0.011  -0.007   0.002  -0.006  -0.001   0.001   0.000  -0.001   0.001  -0.001  -0.000
  0.003  -0.003   0.003  -0.003   0.001  -0.004   0.008  -0.007   0.004  -0.001  -0.002  -0.000  -0.000  -0.002   0.001   0.000
  0.000  -0.002  -0.001  -0.002  -0.000   0.000   0.004   0.005   0.004   0.000  -0.006  -0.000   0.001  -0.001   0.001   0.000
  0.001  -0.003   0.002  -0.002  -0.001  -0.001   0.004  -0.005   0.006   0.001  -0.004  -0.000   0.001  -0.002  -0.000   0.000
  0.000  -0.006  -0.000   0.005  -0.007  -0.001   0.009  -0.000  -0.007   0.011  -0.000  -0.000   0.003  -0.000  -0.002   0.000
 -0.004   0.000  -0.003   0.001  -0.001   0.008  -0.001   0.004  -0.001  -0.002  -0.003  -0.000   0.001   0.000  -0.001   0.000
 total augmentation occupancy for first ion, spin component:           2
 -0.000  -0.000   0.000  -0.000  -0.000   0.000   0.000   0.000   0.000   0.000  -0.000  -0.000   0.000   0.000   0.000  -0.000
 -0.000  -0.000  -0.000   0.000   0.000  -0.000   0.000  -0.000   0.000  -0.000  -0.000  -0.000   0.000  -0.000   0.000   0.000
  0.000  -0.000  -0.000  -0.000   0.000   0.000   0.000   0.000   0.000  -0.000  -0.000  -0.000  -0.000  -0.000  -0.000  -0.000
 -0.000   0.000  -0.000  -0.000   0.000  -0.000   0.000  -0.000   0.000   0.000  -0.000  -0.000   0.000  -0.000   0.000   0.000
 -0.000   0.000   0.000   0.000  -0.000  -0.000  -0.000  -0.000   0.000   0.000  -0.000   0.000   0.000  -0.000   0.000  -0.000
  0.000  -0.000   0.000  -0.000  -0.000   0.000   0.000  -0.000   0.000   0.000  -0.000  -0.000   0.000  -0.000  -0.000  -0.000
  0.000   0.000   0.000   0.000  -0.000   0.000  -0.000   0.000  -0.000  -0.000   0.000  -0.000  -0.000   0.000  -0.000  -0.000
  0.000  -0.000   0.000  -0.000  -0.000  -0.000   0.000   0.000   0.000   0.000  -0.000  -0.000   0.000   0.000   0.000   0.000
  0.000   0.000   0.000   0.000   0.000   0.000  -0.000   0.000  -0.000  -0.000   0.000  -0.000  -0.000   0.000  -0.000  -0.000
  0.000  -0.000  -0.000   0.000   0.000   0.000  -0.000   0.000  -0.000   0.000   0.000  -0.000   0.000   0.000  -0.000  -0.000
 -0.000  -0.000  -0.000  -0.000  -0.000  -0.000   0.000  -0.000   0.000   0.000   0.000   0.000  -0.000   0.000  -0.000  -0.000
 -0.000  -0.000  -0.000  -0.000   0.000  -0.000  -0.000  -0.000  -0.000  -0.000   0.000   0.000  -0.000   0.000  -0.000  -0.000
  0.000   0.000  -0.000   0.000   0.000   0.000  -0.000   0.000  -0.000   0.000  -0.000  -0.000   0.000   0.000  -0.000  -0.000
  0.000  -0.000  -0.000  -0.000  -0.000  -0.000   0.000   0.000   0.000   0.000   0.000   0.000   0.000  -0.000  -0.000  -0.000
  0.000   0.000  -0.000   0.000   0.000  -0.000  -0.000   0.000  -0.000  -0.000  -0.000  -0.000  -0.000  -0.000   0.000   0.000
 -0.000   0.000  -0.000   0.000  -0.000  -0.000  -0.000   0.000  -0.000  -0.000  -0.000  -0.000  -0.000  -0.000   0.000  -0.000
  0.000  -0.000  -0.000  -0.000  -0.000  -0.000   0.000   0.000   0.000   0.000   0.000   0.000  -0.000  -0.000   0.000  -0.000
  0.000   0.000  -0.000  -0.000   0.000  -0.000  -0.000   0.000  -0.000   0.000  -0.000  -0.000   0.000   0.000  -0.000   0.000
  0.000  -0.000  -0.000   0.000  -0.000  -0.000   0.000  -0.000  -0.000  -0.000   0.000   0.000  -0.000   0.000  -0.000  -0.000
 -0.000  -0.000   0.000  -0.000   0.000   0.000   0.000  -0.000   0.000   0.000  -0.000   0.000   0.000  -0.000   0.000   0.000
  0.000   0.000   0.000   0.000   0.000   0.000  -0.000  -0.000  -0.000  -0.000  -0.000  -0.000  -0.000   0.000  -0.000   0.000
  0.000   0.000  -0.000   0.000   0.000  -0.000  -0.000   0.000  -0.000  -0.000  -0.000  -0.000  -0.000  -0.000  -0.000   0.000
 -0.000   0.000   0.000   0.000  -0.000   0.000  -0.000  -0.000  -0.000  -0.000  -0.000  -0.000   0.000   0.000  -0.000  -0.000
  0.000   0.000   0.000   0.000   0.000   0.000  -0.000   0.000  -0.000   0.000   0.000  -0.000  -0.000   0.000  -0.000  -0.000
 -0.000  -0.000  -0.000   0.000  -0.000   0.000   0.000  -0.000   0.000   0.000  -0.000  -0.000   0.000  -0.000   0.000  -0.000
 -0.000  -0.000   0.000  -0.000  -0.000  -0.000  -0.000   0.000   0.000  -0.000   0.000   0.000  -0.000   0.000   0.000  -0.000
 -0.000  -0.000  -0.000  -0.000   0.000   0.000   0.000  -0.000   0.000   0.000  -0.000   0.000   0.000  -0.000   0.000   0.000
  0.000   0.000   0.000   0.000  -0.000   0.000  -0.000  -0.000  -0.000  -0.000   0.000  -0.000  -0.000   0.000  -0.000   0.000
  0.000   0.000   0.000   0.000  -0.000  -0.000  -0.000   0.000  -0.000   0.000  -0.000  -0.000   0.000  -0.000   0.000   0.000
  0.000   0.000   0.000   0.000   0.000   0.000  -0.000  -0.000  -0.000  -0.000  -0.000  -0.000  -0.000  -0.000   0.000  -0.000
  0.000   0.000   0.000  -0.000   0.000   0.000   0.000   0.000  -0.000   0.000   0.000  -0.000   0.000   0.000  -0.000   0.000
  0.000   0.000  -0.000   0.000  -0.000   0.000   0.000  -0.000   0.000  -0.000  -0.000  -0.000   0.000  -0.000   0.000  -0.000


------------------------ aborting loop because EDIFF is reached ----------------------------------------


 


 total charge     
 
# of ion       s       p       d       f       tot
--------------------------------------------------
    1        0.425   0.167   9.448   0.012  10.051
    2        0.595   0.056   9.402   0.006  10.059
    3        0.595   0.056   9.402   0.006  10.059
    4        0.425   0.167   9.448   0.012  10.051
--------------------------------------------------
tot          2.040   0.446  37.699   0.036  40.221

 


 magnetization (x)
 
# of ion       s       p       d       f       tot
--------------------------------------------------
    1       -0.000   0.000  -0.000  -0.000  -0.000
    2        0.000   0.000   0.000   0.000   0.000
    3        0.000   0.000   0.000   0.000   0.000
    4       -0.000   0.000  -0.000  -0.000  -0.000
--------------------------------------------------
tot          0.000   0.000  -0.000  -0.000  -0.000

 
    CHARGE:  cpu time    2.5496: real time    2.5560
    FORLOC:  cpu time    0.0520: real time    0.0519
    FORNL :  cpu time   12.6581: real time   12.7069
    FORCOR:  cpu time    6.4690: real time    6.4868
    FORHAR:  cpu time    0.3949: real time    0.3970
    MIXING:  cpu time    0.1580: real time    0.1583
    OFIELD:  cpu time    0.0000: real time    0.0000

 VOLUME and BASIS-vectors are now :
 -----------------------------------------------------------------------------
  energy-cutoff  :      500.00
  volume of cell :     4913.00
      direct lattice vectors                 reciprocal lattice vectors
    17.000000000  0.000000000  0.000000000     0.058823529  0.000000000  0.000000000
     0.000000000 17.000000000  0.000000000     0.000000000  0.058823529  0.000000000
     0.000000000  0.000000000 17.000000000     0.000000000  0.000000000  0.058823529

  length of vectors
    17.000000000 17.000000000 17.000000000     0.058823529  0.058823529  0.058823529


 FORCES acting on ions
    electron-ion (+dipol)            ewald-force                    non-local-force                 convergence-correction
 -----------------------------------------------------------------------------------------------
   -.194E+03 -.278E+03 0.328E+03   0.193E+03 0.276E+03 -.326E+03   0.119E+01 0.170E+01 -.200E+01   -.645E-03 -.105E-02 0.925E-03
   0.352E+03 -.307E+03 -.515E+02   -.350E+03 0.305E+03 0.512E+02   -.174E+01 0.151E+01 0.255E+00   0.204E-05 0.221E-03 -.108E-03
   -.352E+03 0.307E+03 0.515E+02   0.350E+03 -.305E+03 -.512E+02   0.174E+01 -.151E+01 -.255E+00   -.266E-05 -.222E-03 0.108E-03
   0.194E+03 0.278E+03 -.328E+03   -.193E+03 -.276E+03 0.326E+03   -.119E+01 -.170E+01 0.200E+01   0.644E-03 0.105E-02 -.926E-03
 -----------------------------------------------------------------------------------------------
   0.295E-01 0.289E-01 0.401E-01   0.284E-13 -.568E-13 -.568E-13   0.000E+00 0.222E-15 0.000E+00   -.108E-05 -.949E-06 -.151E-05
 
 
 POSITION                                       TOTAL-FORCE (eV/Angst)
 -----------------------------------------------------------------------------------
      0.53361      0.76398     16.09770         0.013693      0.016974     -0.020457
     15.18333      1.58145      0.26433         0.059019     -0.054586     -0.007194
      1.81663     15.41852     16.73562        -0.059019      0.054586      0.007194
     16.46637     16.23599      0.90227        -0.013693     -0.016974      0.020457
 -----------------------------------------------------------------------------------
    total drift:                                0.029531      0.028943      0.040107


--------------------------------------------------------------------------------------------------------



  FREE ENERGIE OF THE ION-ELECTRON SYSTEM (eV)
  ---------------------------------------------------
  free  energy   TOTEN  =        -5.44817848 eV

  energy  without entropy=       -5.44817848  energy(sigma->0) =       -5.44817848
 
 d Force = 0.7342057E-02[ 0.665E-03, 0.140E-01]  d Energy = 0.7490582E-02-0.149E-03
 d Force =-0.2989921E+02[-0.302E+02,-0.296E+02]  d Ewald  =-0.2989770E+02-0.151E-02


--------------------------------------------------------------------------------------------------------


    POTLOK:  cpu time    6.7100: real time    6.7582


--------------------------------------------------------------------------------------------------------




--------------------------------------------------------------------------------------------------------


    WAVPRE:  cpu time    0.2210: real time    0.2530
    FEWALD:  cpu time    0.0000: real time    0.0001

 real space projection operators:
  total allocation   :       2342.00 KBytes
  max/ min on nodes  :        591.00        576.00

    ORTHCH:  cpu time    0.5129: real time    0.5130
     LOOP+:  cpu time  170.8190: real time  171.7408


--------------------------------------- Iteration      4(   1)  ---------------------------------------


    POTLOK:  cpu time    3.4245: real time    3.4404
    SETDIJ:  cpu time    3.2785: real time    3.2851
     EDDAV:  cpu time    4.7803: real time    4.7967
       DOS:  cpu time    0.0000: real time    0.0008
    CHARGE:  cpu time    2.5196: real time    2.5246
    MIXING:  cpu time    0.0710: real time    0.0713
    --------------------------------------------
      LOOP:  cpu time   14.0739: real time   14.1189

 eigenvalue-minimisations  :   112
 total energy-change (2. order) : 0.5872488E-05  (-0.2719669E-02)
 number of electron      44.0000002 magnetization      -0.0005986
 augmentation part       21.1091228 magnetization      -0.0005946

  free energy =  -0.544817204387E+01  energy without entropy=  -0.544817204387E+01


--------------------------------------------------------------------------------------------------------




--------------------------------------- Iteration      4(   2)  ---------------------------------------


    POTLOK:  cpu time    3.4225: real time    3.4341
    SETDIJ:  cpu time    3.3655: real time    3.3730
     EDDAV:  cpu time    6.2031: real time    6.2278
       DOS:  cpu time    0.0010: real time    0.0009
    CHARGE:  cpu time    2.5756: real time    2.5862
    MIXING:  cpu time    0.0870: real time    0.0865
    --------------------------------------------
      LOOP:  cpu time   15.6546: real time   15.7085

 eigenvalue-minimisations  :   160
 total energy-change (2. order) :-0.2074220E-04  (-0.2077712E-04)
 number of electron      44.0000002 magnetization      -0.0005814
 augmentation part       21.1090626 magnetization      -0.0005777

 eigenvalues of (default mixing * dielectric matrix)
  average eigenvalue GAMMA=   0.2958
  0.2958

  free energy =  -0.544819278608E+01  energy without entropy=  -0.544819278608E+01


--------------------------------------------------------------------------------------------------------




--------------------------------------- Iteration      4(   3)  ---------------------------------------


    POTLOK:  cpu time    3.4035: real time    3.4275
    SETDIJ:  cpu time    3.3655: real time    3.3725
     EDDAV:  cpu time    2.8716: real time    2.8823
       DOS:  cpu time    0.0000: real time    0.0003
    CHARGE:  cpu time    2.5546: real time    2.5626
    MIXING:  cpu time    0.1040: real time    0.1038
    --------------------------------------------
      LOOP:  cpu time   12.2991: real time   12.3490

 eigenvalue-minimisations  :    56
 total energy-change (2. order) :-0.8973893E-07  (-0.3333308E-07)
 number of electron      44.0000002 magnetization      -0.0003356
 augmentation part       21.1090673 magnetization      -0.0003320

 eigenvalues of (default mixing * dielectric matrix)
  average eigenvalue GAMMA=   3.2993
  1.1667  5.4319

  free energy =  -0.544819287582E+01  energy without entropy=  -0.544819287582E+01


--------------------------------------------------------------------------------------------------------




--------------------------------------- Iteration      4(   4)  ---------------------------------------


    POTLOK:  cpu time    3.4155: real time    3.4308
    SETDIJ:  cpu time    3.3695: real time    3.3778
     EDDAV:  cpu time    2.9136: real time    2.9249
       DOS:  cpu time    0.0010: real time    0.0006
    CHARGE:  cpu time    2.5736: real time    2.5867
    MIXING:  cpu time    0.0990: real time    0.0991
    --------------------------------------------
      LOOP:  cpu time   12.3721: real time   12.4199

 eigenvalue-minimisations  :    56
 total energy-change (2. order) :-0.4496087E-07  (-0.7723687E-08)
 number of electron      44.0000002 magnetization       0.0016472
 augmentation part       21.1091094 magnetization       0.0016498

 eigenvalues of (default mixing * dielectric matrix)
  average eigenvalue GAMMA=  11.9708
 33.7799  0.9519  1.1806

  free energy =  -0.544819292078E+01  energy without entropy=  -0.544819292078E+01


--------------------------------------------------------------------------------------------------------




--------------------------------------- Iteration      4(   5)  ---------------------------------------


    POTLOK:  cpu time    3.4265: real time    3.4342
    SETDIJ:  cpu time    3.3905: real time    3.3990
     EDDAV:  cpu time    4.5333: real time    4.5505
       DOS:  cpu time    0.0010: real time    0.0004
    CHARGE:  cpu time    2.5696: real time    2.5839
    MIXING:  cpu time    0.1170: real time    0.1177
    --------------------------------------------
      LOOP:  cpu time   14.0379: real time   14.0857

 eigenvalue-minimisations  :   112
 total energy-change (2. order) :-0.1459256E-05  (-0.4532170E-06)
 number of electron      44.0000002 magnetization       0.0010239
 augmentation part       21.1095145 magnetization       0.0010175

 eigenvalues of (default mixing * dielectric matrix)
  average eigenvalue GAMMA=  13.0561
 43.0073  7.1855  0.9797  1.0517

  free energy =  -0.544819438003E+01  energy without entropy=  -0.544819438003E+01


--------------------------------------------------------------------------------------------------------




--------------------------------------- Iteration      4(   6)  ---------------------------------------


    POTLOK:  cpu time    3.4045: real time    3.4171
    SETDIJ:  cpu time    3.3675: real time    3.3792
     EDDAV:  cpu time    2.8596: real time    2.8742
       DOS:  cpu time    0.0000: real time    0.0001
    --------------------------------------------
      LOOP:  cpu time    9.6315: real time    9.6706

 eigenvalue-minimisations  :    56
 total energy-change (2. order) :-0.1003255E-06  (-0.3473403E-07)
 number of electron      44.0000002 magnetization       0.0010239
 augmentation part       21.1095145 magnetization       0.0010175

  free energy =  -0.544819448036E+01  energy without entropy=  -0.544819448036E+01


--------------------------------------------------------------------------------------------------------




 average (electrostatic) potential at core
  the test charge radii are     1.1249
  (the norm of the test charge is              1.0000)
       1 -97.7781       2 -97.1322       3 -97.1324       4 -97.7782
 
 
 
 E-fermi :  -4.2409     XC(G=0):  -0.4888     alpha+bet : -0.1892


 spin component 1

 k-point     1 :       0.0000    0.0000    0.0000
  band No.  band energies     occupation 
      1      -8.8444      1.00000
      2      -8.7881      1.00000
      3      -8.2859      1.00000
      4      -8.2173      1.00000
      5      -8.1659      1.00000
      6      -7.9741      1.00000
      7      -7.6677      1.00000
      8      -7.6248      1.00000
      9      -7.2577      1.00000
     10      -7.2425      1.00000
     11      -7.1534      1.00000
     12      -6.9839      1.00000
     13      -6.9702      1.00000
     14      -6.9628      1.00000
     15      -6.8684      1.00000
     16      -6.8378      1.00000
     17      -6.7951      1.00000
     18      -6.7495      1.00000
     19      -6.6858      1.00000
     20      -6.4563      1.00000
     21      -6.1937      1.00000
     22      -4.2686      1.00000
     23      -3.4007      0.00000
     24      -2.2628      0.00000
     25      -1.6571      0.00000
     26      -0.9214      0.00000
     27      -0.8666      0.00000
     28      -0.3965      0.00000

 spin component 2

 k-point     1 :       0.0000    0.0000    0.0000
  band No.  band energies     occupation 
      1      -8.8443      1.00000
      2      -8.7880      1.00000
      3      -8.2858      1.00000
      4      -8.2172      1.00000
      5      -8.1658      1.00000
      6      -7.9740      1.00000
      7      -7.6676      1.00000
      8      -7.6247      1.00000
      9      -7.2576      1.00000
     10      -7.2424      1.00000
     11      -7.1533      1.00000
     12      -6.9838      1.00000
     13      -6.9701      1.00000
     14      -6.9627      1.00000
     15      -6.8683      1.00000
     16      -6.8377      1.00000
     17      -6.7950      1.00000
     18      -6.7494      1.00000
     19      -6.6857      1.00000
     20      -6.4562      1.00000
     21      -6.1936      1.00000
     22      -4.2684      1.00000
     23      -3.4005      0.00000
     24      -2.2627      0.00000
     25      -1.6569      0.00000
     26      -0.9213      0.00000
     27      -0.8665      0.00000
     28      -0.3964      0.00000


--------------------------------------------------------------------------------------------------------


 soft charge-density along one line, spin component           1
         0         1         2         3         4         5         6         7         8         9
 total charge-density along one line
 
 soft charge-density along one line, spin component           2
         0         1         2         3         4         5         6         7         8         9
 total charge-density along one line
 
 pseudopotential strength for first ion, spin component:           1
-10.975   0.011   0.011   0.015   0.001 -10.871   0.011   0.011
  0.011 -10.989   0.010  -0.015  -0.015   0.011 -10.884   0.009
  0.011   0.010 -10.987   0.005  -0.003   0.011   0.009 -10.883
  0.015  -0.015   0.005 -10.980   0.008   0.014  -0.015   0.005
  0.001  -0.015  -0.003   0.008 -10.969   0.001  -0.014  -0.003
-10.871   0.011   0.011   0.014   0.001 -10.744   0.010   0.010
  0.011 -10.884   0.009  -0.015  -0.014   0.010 -10.756   0.009
  0.011   0.009 -10.883   0.005  -0.003   0.010   0.009 -10.755
  0.014  -0.015   0.005 -10.876   0.007   0.013  -0.014   0.005
  0.001  -0.014  -0.003   0.007 -10.866   0.001  -0.013  -0.003
 -0.001  -0.010  -0.001  -0.009  -0.001  -0.001  -0.010  -0.001
  0.008   0.005   0.005   0.007  -0.000   0.008   0.005   0.005
  0.012  -0.019  -0.010   0.001  -0.017   0.011  -0.019  -0.010
  0.001   0.016  -0.023   0.011  -0.000   0.001   0.015  -0.023
  0.017   0.001  -0.007  -0.020   0.012   0.016   0.001  -0.007
 -0.008   0.012   0.006   0.000   0.010  -0.007   0.011   0.005
  0.000  -0.011   0.015  -0.007  -0.000   0.000  -0.010   0.013
 -0.011   0.000   0.004   0.012  -0.007  -0.010   0.000   0.004
 -0.023   0.000  -0.000  -0.001  -0.033  -0.022   0.000  -0.000
  0.031  -0.017  -0.000  -0.025   0.000   0.029  -0.016  -0.000
  0.006   0.039  -0.028  -0.001  -0.009   0.006   0.037  -0.027
  0.001   0.020   0.042   0.014  -0.000   0.001   0.020   0.040
  0.009  -0.001  -0.020   0.039   0.007   0.009  -0.001  -0.019
  0.000   0.026   0.000  -0.019   0.031   0.000   0.025   0.000
  0.032   0.001   0.001   0.001  -0.023   0.031   0.001   0.001
  0.038  -0.001   0.001   0.002   0.056   0.037  -0.001   0.001
 -0.054   0.029   0.000   0.043  -0.000  -0.051   0.028   0.000
 -0.009  -0.066   0.048   0.001   0.016  -0.009  -0.063   0.046
 -0.002  -0.035  -0.070  -0.024   0.001  -0.002  -0.033  -0.067
 -0.015   0.001   0.034  -0.067  -0.011  -0.014   0.001   0.033
 -0.000  -0.045  -0.000   0.033  -0.054  -0.000  -0.043  -0.000
 -0.055  -0.002  -0.002  -0.001   0.039  -0.053  -0.002  -0.002
 pseudopotential strength for first ion, spin component:           2
-10.975   0.011   0.011   0.015   0.001 -10.871   0.011   0.011
  0.011 -10.988   0.010  -0.015  -0.015   0.011 -10.884   0.009
  0.011   0.010 -10.987   0.005  -0.003   0.011   0.009 -10.883
  0.015  -0.015   0.005 -10.979   0.008   0.014  -0.015   0.005
  0.001  -0.015  -0.003   0.008 -10.969   0.001  -0.014  -0.003
-10.871   0.011   0.011   0.014   0.001 -10.744   0.010   0.010
  0.011 -10.884   0.009  -0.015  -0.014   0.010 -10.756   0.009
  0.011   0.009 -10.883   0.005  -0.003   0.010   0.009 -10.754
  0.014  -0.015   0.005 -10.876   0.007   0.013  -0.014   0.005
  0.001  -0.014  -0.003   0.007 -10.866   0.001  -0.013  -0.003
 -0.001  -0.010  -0.001  -0.009  -0.001  -0.001  -0.010  -0.001
  0.008   0.005   0.005   0.007  -0.000   0.008   0.005   0.005
  0.012  -0.019  -0.010   0.001  -0.017   0.011  -0.019  -0.010
  0.001   0.016  -0.023   0.011  -0.000   0.001   0.015  -0.023
  0.017   0.001  -0.007  -0.020   0.012   0.016   0.001  -0.007
 -0.008   0.012   0.006   0.000   0.010  -0.007   0.011   0.005
  0.000  -0.011   0.015  -0.007  -0.000   0.000  -0.010   0.013
 -0.011   0.000   0.004   0.012  -0.007  -0.010   0.000   0.004
 -0.023   0.000  -0.000  -0.001  -0.033  -0.022   0.000  -0.000
  0.031  -0.017  -0.000  -0.025   0.000   0.029  -0.016  -0.000
  0.006   0.039  -0.028  -0.001  -0.009   0.006   0.037  -0.027
  0.001   0.020   0.042   0.014  -0.000   0.001   0.020   0.040
  0.009  -0.001  -0.020   0.039   0.007   0.009  -0.001  -0.019
  0.000   0.026   0.000  -0.019   0.031   0.000   0.025   0.000
  0.032   0.001   0.001   0.001  -0.023   0.031   0.001   0.001
  0.038  -0.001   0.001   0.002   0.056   0.037  -0.001   0.001
 -0.054   0.029   0.000   0.043  -0.000  -0.051   0.028   0.000
 -0.009  -0.066   0.048   0.001   0.016  -0.009  -0.063   0.046
 -0.002  -0.035  -0.070  -0.024   0.001  -0.002  -0.033  -0.067
 -0.015   0.001   0.034  -0.067  -0.011  -0.014   0.001   0.033
 -0.000  -0.045  -0.000   0.033  -0.054  -0.000  -0.043  -0.000
 -0.055  -0.002  -0.002  -0.001   0.039  -0.053  -0.002  -0.002
 total augmentation occupancy for first ion, spin component:           1
  2.590  -0.013   0.074  -0.093   0.065  -0.631   0.088  -0.131   0.137  -0.046   0.203  -0.001  -0.006  -0.006   0.076  -0.002
 -0.013   2.769   0.007  -0.017   0.220   0.089  -0.760   0.038  -0.014  -0.268   0.449   0.006  -0.181   0.098   0.042  -0.002
  0.074   0.007   2.511  -0.065   0.052  -0.131   0.038  -0.480   0.087  -0.047   0.125  -0.000  -0.048  -0.054   0.013   0.000
 -0.093  -0.017  -0.065   2.822  -0.249   0.137  -0.014   0.087  -0.776   0.274   0.451   0.005   0.054   0.108  -0.207  -0.000
  0.065   0.220   0.052  -0.249   2.828  -0.046  -0.268  -0.047   0.274  -0.769   0.042   0.001  -0.179  -0.011   0.172  -0.001
 -0.631   0.089  -0.131   0.137  -0.046   0.643  -0.155   0.177  -0.178   0.030  -0.172  -0.002   0.003   0.010  -0.074  -0.000
  0.088  -0.760   0.038  -0.014  -0.268  -0.155   0.736  -0.079   0.045   0.313  -0.402  -0.007   0.182  -0.107  -0.031   0.006
 -0.131   0.038  -0.480   0.087  -0.047   0.177  -0.079   0.435  -0.107   0.045  -0.106  -0.001   0.043   0.053  -0.013   0.001
  0.137  -0.014   0.087  -0.776   0.274  -0.178   0.045  -0.107   0.719  -0.298  -0.402  -0.007  -0.042  -0.113   0.201   0.000
 -0.046  -0.268  -0.047   0.274  -0.769   0.030   0.313   0.045  -0.298   0.696  -0.039  -0.001   0.171   0.008  -0.160   0.005
  0.203   0.449   0.125   0.451   0.042  -0.172  -0.402  -0.106  -0.402  -0.039   1.003   0.013  -0.127   0.150  -0.089  -0.005
 -0.001   0.006  -0.000   0.005   0.001  -0.002  -0.007  -0.001  -0.007  -0.001   0.013   0.000  -0.002   0.002  -0.001  -0.000
 -0.006  -0.181  -0.048   0.054  -0.179   0.003   0.182   0.043  -0.042   0.171  -0.127  -0.002   0.089  -0.014  -0.052   0.003
 -0.006   0.098  -0.054   0.108  -0.011   0.010  -0.107   0.053  -0.113   0.008   0.150   0.002  -0.014   0.042  -0.027  -0.001
  0.076   0.042   0.013  -0.207   0.172  -0.074  -0.031  -0.013   0.201  -0.160  -0.089  -0.001  -0.052  -0.027   0.098  -0.001
 -0.002  -0.002   0.000  -0.000  -0.001  -0.000   0.006   0.001   0.000   0.005  -0.005  -0.000   0.003  -0.001  -0.001   0.000
 -0.000   0.001   0.002   0.002   0.000   0.000  -0.005   0.002  -0.004  -0.000   0.006   0.000  -0.001   0.002  -0.001  -0.000
 -0.001  -0.000   0.001  -0.002   0.002  -0.002   0.000  -0.000   0.006  -0.004  -0.004  -0.000  -0.001  -0.001   0.002  -0.000
  0.012  -0.001   0.004   0.003   0.011  -0.012   0.002  -0.005  -0.003  -0.009   0.008   0.000   0.001   0.001  -0.004   0.000
 -0.031   0.018  -0.004   0.019   0.002   0.037  -0.021   0.007  -0.019  -0.003   0.005   0.000  -0.005   0.002  -0.004  -0.000
  0.008  -0.024   0.021  -0.010   0.006  -0.013   0.025  -0.023   0.012  -0.005  -0.008  -0.000  -0.001  -0.006   0.004   0.000
 -0.000  -0.015  -0.018  -0.013  -0.000   0.001   0.015   0.016   0.013  -0.000  -0.020  -0.000   0.004  -0.004   0.004   0.000
  0.000  -0.009   0.014  -0.022  -0.004  -0.002   0.011  -0.015   0.021   0.004  -0.013  -0.000   0.004  -0.005  -0.000   0.000
  0.000  -0.028  -0.001   0.023  -0.036  -0.002   0.029  -0.000  -0.024   0.037  -0.002  -0.000   0.008  -0.000  -0.008   0.000
 -0.024   0.000  -0.009   0.003   0.006   0.026  -0.002   0.012  -0.004  -0.005  -0.011  -0.000   0.004   0.000  -0.003   0.000
  0.001  -0.000   0.001   0.001  -0.000  -0.004   0.001  -0.002  -0.001  -0.003   0.002   0.000   0.000   0.000  -0.001  -0.000
 -0.007   0.004  -0.002   0.003   0.001   0.011  -0.007   0.002  -0.006  -0.001   0.001   0.000  -0.002   0.001  -0.001  -0.000
  0.003  -0.003   0.003  -0.003   0.001  -0.004   0.008  -0.007   0.004  -0.001  -0.002  -0.000  -0.000  -0.002   0.001   0.000
  0.000  -0.002  -0.001  -0.003  -0.000   0.000   0.005   0.005   0.004   0.000  -0.006  -0.000   0.001  -0.001   0.001   0.000
  0.001  -0.003   0.002  -0.002  -0.001  -0.001   0.004  -0.005   0.006   0.001  -0.004  -0.000   0.001  -0.002  -0.000   0.000
  0.000  -0.006  -0.000   0.005  -0.008  -0.001   0.009  -0.000  -0.007   0.011  -0.000  -0.000   0.003  -0.000  -0.002   0.000
 -0.004   0.000  -0.003   0.001  -0.001   0.008  -0.001   0.004  -0.001  -0.002  -0.003  -0.000   0.001   0.000  -0.001   0.000
 total augmentation occupancy for first ion, spin component:           2
 -0.000   0.000  -0.000   0.000  -0.000   0.000  -0.000   0.000  -0.000   0.000   0.000   0.000  -0.000   0.000  -0.000   0.000
  0.000  -0.000   0.000  -0.000  -0.000  -0.000   0.000  -0.000   0.000   0.000  -0.000  -0.000   0.000  -0.000  -0.000  -0.000
 -0.000   0.000  -0.000   0.000  -0.000   0.000  -0.000   0.000  -0.000   0.000   0.000   0.000   0.000   0.000  -0.000  -0.000
  0.000  -0.000   0.000  -0.000   0.000  -0.000   0.000  -0.000   0.000  -0.000  -0.000  -0.000  -0.000  -0.000   0.000  -0.000
 -0.000  -0.000  -0.000   0.000  -0.000   0.000   0.000   0.000  -0.000   0.000  -0.000  -0.000   0.000  -0.000  -0.000  -0.000
  0.000  -0.000   0.000  -0.000   0.000   0.000  -0.000   0.000   0.000  -0.000  -0.000  -0.000  -0.000  -0.000   0.000  -0.000
 -0.000   0.000  -0.000   0.000   0.000  -0.000  -0.000  -0.000  -0.000  -0.000   0.000  -0.000  -0.000   0.000   0.000  -0.000
  0.000  -0.000   0.000  -0.000   0.000   0.000  -0.000   0.000   0.000  -0.000  -0.000  -0.000  -0.000   0.000   0.000   0.000
 -0.000   0.000  -0.000   0.000  -0.000   0.000  -0.000   0.000  -0.000   0.000   0.000  -0.000   0.000   0.000  -0.000  -0.000
  0.000   0.000   0.000  -0.000   0.000  -0.000  -0.000  -0.000   0.000  -0.000   0.000   0.000  -0.000  -0.000   0.000  -0.000
  0.000  -0.000   0.000  -0.000  -0.000  -0.000   0.000  -0.000   0.000   0.000  -0.000   0.000   0.000  -0.000   0.000   0.000
  0.000  -0.000   0.000  -0.000  -0.000  -0.000  -0.000  -0.000  -0.000   0.000   0.000   0.000  -0.000   0.000  -0.000  -0.000
 -0.000   0.000   0.000  -0.000   0.000  -0.000  -0.000  -0.000   0.000  -0.000   0.000  -0.000  -0.000   0.000   0.000  -0.000
  0.000  -0.000   0.000  -0.000  -0.000  -0.000   0.000   0.000   0.000  -0.000  -0.000   0.000   0.000  -0.000   0.000   0.000
 -0.000  -0.000  -0.000   0.000  -0.000   0.000   0.000   0.000  -0.000   0.000   0.000  -0.000   0.000   0.000  -0.000   0.000
  0.000  -0.000  -0.000  -0.000  -0.000  -0.000  -0.000   0.000  -0.000  -0.000   0.000  -0.000  -0.000   0.000   0.000  -0.000
  0.000   0.000  -0.000   0.000  -0.000  -0.000   0.000   0.000   0.000   0.000  -0.000   0.000   0.000  -0.000   0.000   0.000
  0.000  -0.000  -0.000  -0.000   0.000  -0.000  -0.000   0.000  -0.000   0.000   0.000  -0.000   0.000   0.000  -0.000  -0.000
 -0.000  -0.000   0.000   0.000  -0.000   0.000   0.000  -0.000  -0.000   0.000  -0.000   0.000   0.000  -0.000  -0.000   0.000
  0.000   0.000  -0.000  -0.000   0.000   0.000  -0.000  -0.000   0.000  -0.000   0.000   0.000  -0.000  -0.000  -0.000   0.000
  0.000   0.000  -0.000  -0.000   0.000  -0.000   0.000  -0.000  -0.000  -0.000  -0.000  -0.000  -0.000  -0.000   0.000  -0.000
 -0.000  -0.000   0.000  -0.000   0.000   0.000   0.000  -0.000  -0.000  -0.000  -0.000  -0.000   0.000  -0.000   0.000   0.000
 -0.000  -0.000  -0.000   0.000  -0.000   0.000  -0.000  -0.000  -0.000   0.000   0.000  -0.000   0.000  -0.000  -0.000  -0.000
  0.000   0.000   0.000  -0.000   0.000  -0.000  -0.000  -0.000   0.000  -0.000  -0.000  -0.000  -0.000  -0.000   0.000  -0.000
 -0.000  -0.000  -0.000  -0.000  -0.000   0.000   0.000   0.000  -0.000  -0.000  -0.000  -0.000   0.000  -0.000  -0.000   0.000
 -0.000  -0.000   0.000   0.000  -0.000  -0.000   0.000  -0.000   0.000  -0.000  -0.000   0.000  -0.000  -0.000  -0.000   0.000
  0.000  -0.000  -0.000  -0.000   0.000   0.000  -0.000   0.000   0.000  -0.000  -0.000   0.000   0.000  -0.000   0.000   0.000
  0.000   0.000  -0.000  -0.000  -0.000  -0.000   0.000  -0.000  -0.000  -0.000   0.000  -0.000  -0.000   0.000  -0.000  -0.000
 -0.000   0.000   0.000   0.000   0.000   0.000   0.000   0.000  -0.000  -0.000   0.000  -0.000  -0.000   0.000  -0.000  -0.000
  0.000  -0.000  -0.000   0.000   0.000  -0.000  -0.000  -0.000  -0.000   0.000   0.000  -0.000  -0.000   0.000  -0.000  -0.000
  0.000   0.000   0.000  -0.000   0.000  -0.000  -0.000  -0.000   0.000  -0.000   0.000  -0.000  -0.000  -0.000   0.000  -0.000
  0.000   0.000  -0.000   0.000  -0.000   0.000  -0.000   0.000  -0.000  -0.000  -0.000  -0.000   0.000  -0.000   0.000   0.000


------------------------ aborting loop because EDIFF is reached ----------------------------------------


 


 total charge     
 
# of ion       s       p       d       f       tot
--------------------------------------------------
    1        0.425   0.167   9.448   0.012  10.053
    2        0.596   0.056   9.402   0.006  10.059
    3        0.596   0.056   9.402   0.006  10.059
    4        0.425   0.167   9.448   0.012  10.053
--------------------------------------------------
tot          2.041   0.447  37.699   0.036  40.224

 


 magnetization (x)
 
# of ion       s       p       d       f       tot
--------------------------------------------------
    1       -0.000  -0.000   0.000   0.000   0.000
    2       -0.000   0.000  -0.000   0.000  -0.000
    3       -0.000   0.000  -0.000   0.000  -0.000
    4       -0.000  -0.000   0.000   0.000   0.000
--------------------------------------------------
tot         -0.000  -0.000  -0.000   0.000  -0.000

 
    CHARGE:  cpu time    2.5746: real time    2.5874
    FORLOC:  cpu time    0.0370: real time    0.0367
    FORNL :  cpu time   12.7041: real time   12.8183
    FORCOR:  cpu time    6.4590: real time    6.4839
    FORHAR:  cpu time    0.3919: real time    0.3954
    MIXING:  cpu time    0.1150: real time    0.1159
    OFIELD:  cpu time    0.0000: real time    0.0000

 VOLUME and BASIS-vectors are now :
 -----------------------------------------------------------------------------
  energy-cutoff  :      500.00
  volume of cell :     4913.00
      direct lattice vectors                 reciprocal lattice vectors
    17.000000000  0.000000000  0.000000000     0.058823529  0.000000000  0.000000000
     0.000000000 17.000000000  0.000000000     0.000000000  0.058823529  0.000000000
     0.000000000  0.000000000 17.000000000     0.000000000  0.000000000  0.058823529

  length of vectors
    17.000000000 17.000000000 17.000000000     0.058823529  0.058823529  0.058823529


 FORCES acting on ions
    electron-ion (+dipol)            ewald-force                    non-local-force                 convergence-correction
 -----------------------------------------------------------------------------------------------
   -.194E+03 -.278E+03 0.329E+03   0.193E+03 0.276E+03 -.327E+03   0.119E+01 0.170E+01 -.201E+01   -.579E-02 -.831E-02 0.982E-02
   0.352E+03 -.307E+03 -.515E+02   -.350E+03 0.305E+03 0.513E+02   -.175E+01 0.151E+01 0.256E+00   0.634E-02 -.553E-02 -.802E-03
   -.352E+03 0.307E+03 0.515E+02   0.350E+03 -.305E+03 -.513E+02   0.175E+01 -.151E+01 -.256E+00   -.634E-02 0.553E-02 0.802E-03
   0.194E+03 0.278E+03 -.329E+03   -.193E+03 -.276E+03 0.327E+03   -.119E+01 -.170E+01 0.201E+01   0.579E-02 0.831E-02 -.982E-02
 -----------------------------------------------------------------------------------------------
   0.295E-01 0.290E-01 0.401E-01   -.284E-13 0.000E+00 0.000E+00   0.000E+00 0.000E+00 0.000E+00   -.382E-06 -.402E-06 -.506E-06
 
 
 POSITION                                       TOTAL-FORCE (eV/Angst)
 -----------------------------------------------------------------------------------
      0.53319      0.76338     16.09841         0.019103      0.024791     -0.031130
     15.18376      1.58106      0.26426         0.054470     -0.050675     -0.006379
      1.81620     15.41891     16.73569        -0.054470      0.050675      0.006379
     16.46679     16.23659      0.90156        -0.019103     -0.024791      0.031130
 -----------------------------------------------------------------------------------
    total drift:                                0.029541      0.028953      0.040121


--------------------------------------------------------------------------------------------------------



  FREE ENERGIE OF THE ION-ELECTRON SYSTEM (eV)
  ---------------------------------------------------
  free  energy   TOTEN  =        -5.44819448 eV

  energy  without entropy=       -5.44819448  energy(sigma->0) =       -5.44819448
 
 d Force = 0.1498493E-04[-0.310E-05, 0.331E-04]  d Energy = 0.1599808E-04-0.101E-05
 d Force =-0.1502602E+01[-0.150E+01,-0.150E+01]  d Ewald  =-0.1502602E+01-0.191E-06


--------------------------------------------------------------------------------------------------------


    POTLOK:  cpu time    6.7030: real time    6.7282


--------------------------------------------------------------------------------------------------------




--------------------------------------------------------------------------------------------------------


    WAVPRE:  cpu time    0.2420: real time    0.2506
    FEWALD:  cpu time    0.0020: real time    0.0014

 real space projection operators:
  total allocation   :       2343.75 KBytes
  max/ min on nodes  :        593.25        576.00

    ORTHCH:  cpu time    0.5099: real time    0.5111
     LOOP+:  cpu time  107.8196: real time  108.2992


--------------------------------------- Iteration      5(   1)  ---------------------------------------


    POTLOK:  cpu time    3.4295: real time    3.4432
    SETDIJ:  cpu time    3.2895: real time    3.2975
     EDDAV:  cpu time    4.6423: real time    4.6591
       DOS:  cpu time    0.0010: real time    0.0006
    CHARGE:  cpu time    2.5486: real time    2.5584
    MIXING:  cpu time    0.0830: real time    0.0825
    --------------------------------------------
      LOOP:  cpu time   13.9939: real time   14.0414

 eigenvalue-minimisations  :   112
 total energy-change (2. order) :-0.4332027E-03  (-0.4749872E-01)
 number of electron      44.0000002 magnetization      -0.0001626
 augmentation part       21.1081488 magnetization      -0.0001629

  free energy =  -0.544862758276E+01  energy without entropy=  -0.544862758276E+01


--------------------------------------------------------------------------------------------------------




--------------------------------------- Iteration      5(   2)  ---------------------------------------


    POTLOK:  cpu time    3.4085: real time    3.4269
    SETDIJ:  cpu time    3.2975: real time    3.3049
     EDDAV:  cpu time    5.5672: real time    5.5962
       DOS:  cpu time    0.0000: real time    0.0003
    CHARGE:  cpu time    2.5776: real time    2.5885
    MIXING:  cpu time    0.0840: real time    0.0847
    --------------------------------------------
      LOOP:  cpu time   14.9347: real time   15.0016

 eigenvalue-minimisations  :   144
 total energy-change (2. order) :-0.3208363E-03  (-0.3264244E-03)
 number of electron      44.0000002 magnetization      -0.0001457
 augmentation part       21.1079832 magnetization      -0.0001459

 eigenvalues of (default mixing * dielectric matrix)
  average eigenvalue GAMMA=   1.0837
  1.0837

  free energy =  -0.544894841907E+01  energy without entropy=  -0.544894841907E+01


--------------------------------------------------------------------------------------------------------




--------------------------------------- Iteration      5(   3)  ---------------------------------------


    POTLOK:  cpu time    3.4005: real time    3.4168
    SETDIJ:  cpu time    3.3085: real time    3.3212
     EDDAV:  cpu time    4.8513: real time    4.8760
       DOS:  cpu time    0.0010: real time    0.0004
    CHARGE:  cpu time    2.5876: real time    2.6034
    MIXING:  cpu time    0.0900: real time    0.0903
    --------------------------------------------
      LOOP:  cpu time   14.2388: real time   14.3081

 eigenvalue-minimisations  :   120
 total energy-change (2. order) :-0.3610880E-05  (-0.2969952E-05)
 number of electron      44.0000002 magnetization      -0.0000520
 augmentation part       21.1079921 magnetization      -0.0000521

 eigenvalues of (default mixing * dielectric matrix)
  average eigenvalue GAMMA=   3.6940
  0.9765  6.4115

  free energy =  -0.544895202995E+01  energy without entropy=  -0.544895202995E+01


--------------------------------------------------------------------------------------------------------




--------------------------------------- Iteration      5(   4)  ---------------------------------------


    POTLOK:  cpu time    3.3745: real time    3.4298
    SETDIJ:  cpu time    3.2795: real time    3.2907
     EDDAV:  cpu time    3.5285: real time    3.5495
       DOS:  cpu time    0.0010: real time    0.0004
    CHARGE:  cpu time    2.5666: real time    2.5759
    MIXING:  cpu time    0.0950: real time    0.0981
    --------------------------------------------
      LOOP:  cpu time   12.8450: real time   12.9445

 eigenvalue-minimisations  :    80
 total energy-change (2. order) : 0.3530509E-05  (-0.4177364E-06)
 number of electron      44.0000002 magnetization       0.0001015
 augmentation part       21.1081071 magnetization       0.0001014

 eigenvalues of (default mixing * dielectric matrix)
  average eigenvalue GAMMA=   6.1758
 16.7457  1.0075  0.7743

  free energy =  -0.544894849944E+01  energy without entropy=  -0.544894849944E+01


--------------------------------------------------------------------------------------------------------




--------------------------------------- Iteration      5(   5)  ---------------------------------------


    POTLOK:  cpu time    3.4215: real time    3.4368
    SETDIJ:  cpu time    3.2805: real time    3.2910
     EDDAV:  cpu time    6.0851: real time    6.1201
       DOS:  cpu time    0.0000: real time    0.0006
    CHARGE:  cpu time    2.5796: real time    2.5941
    MIXING:  cpu time    0.1060: real time    0.1062
    --------------------------------------------
      LOOP:  cpu time   15.4726: real time   15.5488

 eigenvalue-minimisations  :   160
 total energy-change (2. order) : 0.2190496E-05  (-0.1370564E-05)
 number of electron      44.0000002 magnetization       0.0000794
 augmentation part       21.1083389 magnetization       0.0000794

 eigenvalues of (default mixing * dielectric matrix)
  average eigenvalue GAMMA=   7.6837
 24.2049  4.5543  1.0277  0.9477

  free energy =  -0.544894630894E+01  energy without entropy=  -0.544894630894E+01


--------------------------------------------------------------------------------------------------------




--------------------------------------- Iteration      5(   6)  ---------------------------------------


    POTLOK:  cpu time    3.4085: real time    3.4327
    SETDIJ:  cpu time    3.2245: real time    3.2734
     EDDAV:  cpu time    3.8544: real time    3.8804
       DOS:  cpu time    0.0000: real time    0.0001
    --------------------------------------------
      LOOP:  cpu time   10.4874: real time   10.5865

 eigenvalue-minimisations  :    88
 total energy-change (2. order) :-0.2559127E-06  (-0.2731839E-06)
 number of electron      44.0000002 magnetization       0.0000794
 augmentation part       21.1083389 magnetization       0.0000794

  free energy =  -0.544894656485E+01  energy without entropy=  -0.544894656485E+01


--------------------------------------------------------------------------------------------------------




 average (electrostatic) potential at core
  the test charge radii are     1.1249
  (the norm of the test charge is              1.0000)
       1 -97.7771       2 -97.1353       3 -97.1355       4 -97.7772
 
 
 
 E-fermi :  -4.2369     XC(G=0):  -0.4888     alpha+bet : -0.1892


 spin component 1

 k-point     1 :       0.0000    0.0000    0.0000
  band No.  band energies     occupation 
      1      -8.8419      1.00000
      2      -8.7895      1.00000
      3      -8.2837      1.00000
      4      -8.2241      1.00000
      5      -8.1673      1.00000
      6      -7.9762      1.00000
      7      -7.6711      1.00000
      8      -7.6344      1.00000
      9      -7.2603      1.00000
     10      -7.2441      1.00000
     11      -7.1542      1.00000
     12      -6.9867      1.00000
     13      -6.9726      1.00000
     14      -6.9633      1.00000
     15      -6.8657      1.00000
     16      -6.8379      1.00000
     17      -6.7949      1.00000
     18      -6.7492      1.00000
     19      -6.6845      1.00000
     20      -6.4567      1.00000
     21      -6.1961      1.00000
     22      -4.2673      1.00000
     23      -3.4038      0.00000
     24      -2.2573      0.00000
     25      -1.6582      0.00000
     26      -0.9234      0.00000
     27      -0.8696      0.00000
     28      -0.3912      0.00000

 spin component 2

 k-point     1 :       0.0000    0.0000    0.0000
  band No.  band energies     occupation 
      1      -8.8419      1.00000
      2      -8.7895      1.00000
      3      -8.2837      1.00000
      4      -8.2240      1.00000
      5      -8.1673      1.00000
      6      -7.9762      1.00000
      7      -7.6711      1.00000
      8      -7.6344      1.00000
      9      -7.2603      1.00000
     10      -7.2441      1.00000
     11      -7.1542      1.00000
     12      -6.9867      1.00000
     13      -6.9725      1.00000
     14      -6.9633      1.00000
     15      -6.8657      1.00000
     16      -6.8379      1.00000
     17      -6.7949      1.00000
     18      -6.7492      1.00000
     19      -6.6845      1.00000
     20      -6.4567      1.00000
     21      -6.1961      1.00000
     22      -4.2673      1.00000
     23      -3.4038      0.00000
     24      -2.2573      0.00000
     25      -1.6582      0.00000
     26      -0.9234      0.00000
     27      -0.8696      0.00000
     28      -0.3912      0.00000


--------------------------------------------------------------------------------------------------------


 soft charge-density along one line, spin component           1
         0         1         2         3         4         5         6         7         8         9
 total charge-density along one line
 
 soft charge-density along one line, spin component           2
         0         1         2         3         4         5         6         7         8         9
 total charge-density along one line
 
 pseudopotential strength for first ion, spin component:           1
-10.975   0.011   0.011   0.014   0.001 -10.871   0.011   0.011
  0.011 -10.988   0.010  -0.015  -0.015   0.011 -10.884   0.009
  0.011   0.010 -10.986   0.005  -0.003   0.011   0.009 -10.882
  0.014  -0.015   0.005 -10.979   0.008   0.014  -0.015   0.005
  0.001  -0.015  -0.003   0.008 -10.969   0.001  -0.014  -0.003
-10.871   0.011   0.011   0.014   0.001 -10.743   0.010   0.010
  0.011 -10.884   0.009  -0.015  -0.014   0.010 -10.755   0.009
  0.011   0.009 -10.882   0.005  -0.003   0.010   0.009 -10.754
  0.014  -0.015   0.005 -10.875   0.007   0.013  -0.014   0.005
  0.001  -0.014  -0.003   0.007 -10.865   0.001  -0.013  -0.003
 -0.001  -0.010  -0.001  -0.009  -0.001  -0.001  -0.010  -0.001
  0.008   0.005   0.005   0.007  -0.000   0.008   0.005   0.005
  0.012  -0.019  -0.010   0.001  -0.017   0.011  -0.019  -0.010
  0.001   0.016  -0.023   0.011  -0.000   0.001   0.015  -0.023
  0.017   0.001  -0.007  -0.020   0.012   0.016   0.001  -0.007
 -0.008   0.012   0.006   0.000   0.010  -0.007   0.011   0.005
  0.000  -0.011   0.015  -0.007  -0.000   0.000  -0.010   0.013
 -0.011   0.000   0.004   0.012  -0.007  -0.010   0.000   0.004
 -0.022   0.000  -0.000  -0.001  -0.033  -0.022   0.000  -0.000
  0.031  -0.017  -0.000  -0.025   0.000   0.029  -0.016  -0.000
  0.006   0.039  -0.028  -0.001  -0.009   0.006   0.037  -0.027
  0.001   0.020   0.042   0.014  -0.000   0.001   0.020   0.040
  0.009  -0.001  -0.020   0.039   0.006   0.009  -0.001  -0.019
  0.000   0.026   0.000  -0.019   0.031   0.000   0.025   0.000
  0.032   0.001   0.001   0.001  -0.023   0.031   0.001   0.001
  0.038  -0.001   0.001   0.002   0.056   0.036  -0.001   0.001
 -0.054   0.029   0.000   0.043  -0.000  -0.051   0.028   0.000
 -0.009  -0.066   0.048   0.001   0.016  -0.009  -0.063   0.046
 -0.002  -0.035  -0.070  -0.024   0.001  -0.002  -0.033  -0.067
 -0.015   0.001   0.034  -0.067  -0.011  -0.014   0.001   0.032
 -0.000  -0.045  -0.000   0.033  -0.054  -0.000  -0.043  -0.000
 -0.055  -0.002  -0.002  -0.001   0.039  -0.053  -0.002  -0.002
 pseudopotential strength for first ion, spin component:           2
-10.975   0.011   0.011   0.014   0.001 -10.871   0.011   0.011
  0.011 -10.988   0.010  -0.015  -0.015   0.011 -10.884   0.009
  0.011   0.010 -10.986   0.005  -0.003   0.011   0.009 -10.882
  0.014  -0.015   0.005 -10.979   0.008   0.014  -0.015   0.005
  0.001  -0.015  -0.003   0.008 -10.969   0.001  -0.014  -0.003
-10.871   0.011   0.011   0.014   0.001 -10.743   0.010   0.010
  0.011 -10.884   0.009  -0.015  -0.014   0.010 -10.755   0.009
  0.011   0.009 -10.882   0.005  -0.003   0.010   0.009 -10.754
  0.014  -0.015   0.005 -10.875   0.007   0.013  -0.014   0.005
  0.001  -0.014  -0.003   0.007 -10.865   0.001  -0.013  -0.003
 -0.001  -0.010  -0.001  -0.009  -0.001  -0.001  -0.010  -0.001
  0.008   0.005   0.005   0.007  -0.000   0.008   0.005   0.005
  0.012  -0.019  -0.010   0.001  -0.017   0.011  -0.019  -0.010
  0.001   0.016  -0.023   0.011  -0.000   0.001   0.015  -0.023
  0.017   0.001  -0.007  -0.020   0.012   0.016   0.001  -0.007
 -0.008   0.012   0.006   0.000   0.010  -0.007   0.011   0.005
  0.000  -0.011   0.015  -0.007  -0.000   0.000  -0.010   0.013
 -0.011   0.000   0.004   0.012  -0.007  -0.010   0.000   0.004
 -0.022   0.000  -0.000  -0.001  -0.033  -0.022   0.000  -0.000
  0.031  -0.017  -0.000  -0.025   0.000   0.029  -0.016  -0.000
  0.006   0.039  -0.028  -0.001  -0.009   0.006   0.037  -0.027
  0.001   0.020   0.042   0.014  -0.000   0.001   0.020   0.040
  0.009  -0.001  -0.020   0.039   0.006   0.009  -0.001  -0.019
  0.000   0.026   0.000  -0.019   0.031   0.000   0.025   0.000
  0.032   0.001   0.001   0.001  -0.023   0.031   0.001   0.001
  0.038  -0.001   0.001   0.002   0.056   0.036  -0.001   0.001
 -0.054   0.029   0.000   0.043  -0.000  -0.051   0.028   0.000
 -0.009  -0.066   0.048   0.001   0.016  -0.009  -0.063   0.046
 -0.002  -0.035  -0.070  -0.024   0.001  -0.002  -0.033  -0.067
 -0.015   0.001   0.034  -0.067  -0.011  -0.014   0.001   0.032
 -0.000  -0.045  -0.000   0.033  -0.054  -0.000  -0.043  -0.000
 -0.055  -0.002  -0.002  -0.001   0.039  -0.053  -0.002  -0.002
 total augmentation occupancy for first ion, spin component:           1
  2.589  -0.012   0.076  -0.092   0.066  -0.631   0.086  -0.133   0.135  -0.047   0.206  -0.001  -0.007  -0.006   0.076  -0.002
 -0.012   2.766   0.008  -0.019   0.220   0.087  -0.758   0.037  -0.011  -0.268   0.447   0.006  -0.181   0.098   0.043  -0.002
  0.076   0.008   2.508  -0.065   0.052  -0.133   0.037  -0.479   0.086  -0.048   0.126  -0.000  -0.048  -0.054   0.013   0.000
 -0.092  -0.019  -0.065   2.821  -0.251   0.136  -0.011   0.087  -0.776   0.276   0.450   0.005   0.055   0.108  -0.207  -0.000
  0.066   0.220   0.052  -0.251   2.828  -0.047  -0.268  -0.047   0.276  -0.771   0.042   0.001  -0.180  -0.011   0.173  -0.001
 -0.631   0.087  -0.133   0.136  -0.047   0.645  -0.153   0.180  -0.176   0.031  -0.175  -0.002   0.003   0.009  -0.073  -0.000
  0.086  -0.758   0.037  -0.011  -0.268  -0.153   0.733  -0.077   0.041   0.313  -0.400  -0.007   0.182  -0.106  -0.032   0.006
 -0.133   0.037  -0.479   0.087  -0.047   0.180  -0.077   0.434  -0.106   0.045  -0.108  -0.001   0.044   0.053  -0.014   0.001
  0.135  -0.011   0.086  -0.776   0.276  -0.176   0.041  -0.106   0.719  -0.300  -0.401  -0.007  -0.042  -0.113   0.201   0.000
 -0.047  -0.268  -0.048   0.276  -0.771   0.031   0.313   0.045  -0.300   0.699  -0.038  -0.001   0.171   0.008  -0.161   0.005
  0.206   0.447   0.126   0.450   0.042  -0.175  -0.400  -0.108  -0.401  -0.038   1.003   0.013  -0.127   0.150  -0.088  -0.005
 -0.001   0.006  -0.000   0.005   0.001  -0.002  -0.007  -0.001  -0.007  -0.001   0.013   0.000  -0.002   0.002  -0.001  -0.000
 -0.007  -0.181  -0.048   0.055  -0.180   0.003   0.182   0.044  -0.042   0.171  -0.127  -0.002   0.090  -0.013  -0.052   0.003
 -0.006   0.098  -0.054   0.108  -0.011   0.009  -0.106   0.053  -0.113   0.008   0.150   0.002  -0.013   0.042  -0.027  -0.001
  0.076   0.043   0.013  -0.207   0.173  -0.073  -0.032  -0.014   0.201  -0.161  -0.088  -0.001  -0.052  -0.027   0.098  -0.001
 -0.002  -0.002   0.000  -0.000  -0.001  -0.000   0.006   0.001   0.000   0.005  -0.005  -0.000   0.003  -0.001  -0.001   0.000
 -0.000   0.001   0.002   0.002   0.000   0.000  -0.005   0.002  -0.004  -0.000   0.006   0.000  -0.001   0.002  -0.001  -0.000
 -0.001  -0.000   0.001  -0.002   0.002  -0.002   0.000  -0.000   0.006  -0.004  -0.004  -0.000  -0.001  -0.001   0.002  -0.000
  0.012  -0.001   0.004   0.003   0.011  -0.012   0.002  -0.005  -0.003  -0.009   0.008   0.000   0.001   0.001  -0.004   0.000
 -0.031   0.018  -0.004   0.019   0.002   0.037  -0.021   0.007  -0.019  -0.003   0.005   0.000  -0.005   0.002  -0.004  -0.000
  0.008  -0.024   0.021  -0.010   0.006  -0.013   0.024  -0.023   0.012  -0.005  -0.008  -0.000  -0.001  -0.006   0.004   0.000
 -0.000  -0.015  -0.018  -0.013   0.000   0.001   0.015   0.016   0.013  -0.000  -0.020  -0.000   0.004  -0.004   0.004   0.000
  0.000  -0.009   0.014  -0.022  -0.005  -0.002   0.011  -0.015   0.021   0.005  -0.013  -0.000   0.004  -0.005  -0.000   0.000
  0.000  -0.027  -0.001   0.023  -0.036  -0.002   0.029  -0.000  -0.024   0.037  -0.001  -0.000   0.008  -0.000  -0.008   0.000
 -0.024   0.000  -0.009   0.003   0.006   0.026  -0.002   0.012  -0.004  -0.005  -0.011  -0.000   0.004   0.000  -0.003   0.000
  0.001  -0.000   0.001   0.001  -0.000  -0.004   0.001  -0.002  -0.001  -0.003   0.002   0.000   0.000   0.000  -0.001  -0.000
 -0.007   0.004  -0.002   0.003   0.001   0.011  -0.007   0.002  -0.006  -0.001   0.001   0.000  -0.001   0.001  -0.001  -0.000
  0.003  -0.003   0.003  -0.003   0.001  -0.004   0.008  -0.007   0.004  -0.002  -0.002  -0.000  -0.000  -0.002   0.001   0.000
  0.000  -0.002  -0.001  -0.003  -0.000   0.000   0.004   0.005   0.004   0.000  -0.006  -0.000   0.001  -0.001   0.001   0.000
  0.001  -0.003   0.002  -0.002  -0.001  -0.001   0.004  -0.005   0.006   0.001  -0.004  -0.000   0.001  -0.002  -0.000   0.000
  0.000  -0.006  -0.000   0.005  -0.008  -0.001   0.009  -0.000  -0.007   0.011  -0.000  -0.000   0.003  -0.000  -0.002   0.000
 -0.004   0.000  -0.003   0.001  -0.001   0.008  -0.001   0.004  -0.001  -0.002  -0.003  -0.000   0.001   0.000  -0.001   0.000
 total augmentation occupancy for first ion, spin component:           2
 -0.000   0.000   0.000  -0.000  -0.000   0.000  -0.000   0.000   0.000   0.000  -0.000  -0.000  -0.000   0.000  -0.000  -0.000
  0.000  -0.000  -0.000   0.000   0.000  -0.000   0.000   0.000  -0.000  -0.000  -0.000  -0.000   0.000  -0.000   0.000   0.000
  0.000  -0.000  -0.000  -0.000  -0.000  -0.000   0.000   0.000   0.000   0.000  -0.000   0.000   0.000   0.000  -0.000   0.000
 -0.000   0.000  -0.000  -0.000   0.000   0.000  -0.000   0.000   0.000  -0.000  -0.000  -0.000  -0.000  -0.000   0.000   0.000
 -0.000   0.000  -0.000   0.000  -0.000   0.000  -0.000   0.000  -0.000   0.000  -0.000  -0.000   0.000   0.000  -0.000   0.000
  0.000  -0.000  -0.000   0.000   0.000   0.000   0.000   0.000  -0.000  -0.000   0.000   0.000   0.000  -0.000  -0.000  -0.000
 -0.000   0.000   0.000  -0.000  -0.000   0.000  -0.000  -0.000   0.000   0.000   0.000  -0.000  -0.000   0.000  -0.000  -0.000
  0.000   0.000   0.000   0.000   0.000   0.000  -0.000  -0.000  -0.000  -0.000   0.000  -0.000  -0.000  -0.000   0.000  -0.000
  0.000  -0.000   0.000   0.000  -0.000  -0.000   0.000  -0.000  -0.000   0.000   0.000  -0.000   0.000   0.000  -0.000  -0.000
  0.000  -0.000   0.000  -0.000   0.000  -0.000   0.000  -0.000   0.000  -0.000  -0.000   0.000  -0.000  -0.000   0.000  -0.000
 -0.000  -0.000  -0.000  -0.000  -0.000   0.000   0.000   0.000   0.000  -0.000  -0.000   0.000   0.000  -0.000   0.000   0.000
 -0.000  -0.000   0.000  -0.000  -0.000   0.000  -0.000  -0.000  -0.000   0.000   0.000   0.000  -0.000   0.000  -0.000  -0.000
 -0.000   0.000   0.000  -0.000   0.000   0.000  -0.000  -0.000   0.000  -0.000   0.000  -0.000  -0.000   0.000   0.000  -0.000
  0.000  -0.000   0.000  -0.000   0.000  -0.000   0.000  -0.000   0.000  -0.000  -0.000   0.000   0.000  -0.000   0.000   0.000
 -0.000   0.000  -0.000   0.000  -0.000  -0.000  -0.000   0.000  -0.000   0.000   0.000  -0.000   0.000   0.000  -0.000  -0.000
 -0.000   0.000   0.000   0.000   0.000  -0.000  -0.000  -0.000  -0.000  -0.000   0.000  -0.000  -0.000   0.000  -0.000  -0.000
  0.000   0.000   0.000  -0.000   0.000  -0.000  -0.000  -0.000   0.000  -0.000  -0.000   0.000  -0.000  -0.000   0.000   0.000
  0.000   0.000  -0.000  -0.000  -0.000  -0.000  -0.000   0.000   0.000   0.000   0.000  -0.000  -0.000   0.000   0.000  -0.000
 -0.000   0.000  -0.000  -0.000  -0.000   0.000   0.000   0.000   0.000   0.000  -0.000  -0.000   0.000   0.000  -0.000   0.000
 -0.000  -0.000  -0.000  -0.000  -0.000   0.000   0.000   0.000  -0.000   0.000  -0.000   0.000   0.000  -0.000   0.000   0.000
 -0.000  -0.000  -0.000   0.000  -0.000   0.000   0.000   0.000  -0.000   0.000  -0.000  -0.000   0.000   0.000  -0.000   0.000
 -0.000   0.000   0.000   0.000   0.000   0.000  -0.000  -0.000  -0.000  -0.000   0.000  -0.000  -0.000   0.000   0.000  -0.000
  0.000  -0.000  -0.000   0.000  -0.000  -0.000   0.000   0.000  -0.000   0.000   0.000   0.000   0.000   0.000  -0.000  -0.000
 -0.000  -0.000   0.000  -0.000   0.000   0.000  -0.000  -0.000   0.000  -0.000   0.000  -0.000  -0.000  -0.000   0.000  -0.000
 -0.000  -0.000  -0.000   0.000  -0.000   0.000   0.000   0.000  -0.000   0.000  -0.000  -0.000   0.000   0.000  -0.000   0.000
 -0.000  -0.000  -0.000  -0.000  -0.000   0.000   0.000  -0.000   0.000   0.000  -0.000   0.000   0.000   0.000  -0.000   0.000
  0.000  -0.000  -0.000  -0.000  -0.000   0.000   0.000   0.000   0.000   0.000  -0.000   0.000   0.000  -0.000  -0.000   0.000
 -0.000  -0.000  -0.000   0.000  -0.000   0.000   0.000   0.000  -0.000   0.000  -0.000  -0.000   0.000   0.000  -0.000   0.000
  0.000   0.000   0.000  -0.000   0.000  -0.000  -0.000  -0.000   0.000  -0.000   0.000  -0.000  -0.000   0.000   0.000  -0.000
  0.000  -0.000  -0.000   0.000  -0.000   0.000   0.000   0.000  -0.000   0.000   0.000  -0.000   0.000   0.000  -0.000  -0.000
  0.000   0.000   0.000  -0.000   0.000   0.000  -0.000  -0.000   0.000  -0.000   0.000  -0.000  -0.000  -0.000   0.000  -0.000
 -0.000  -0.000  -0.000   0.000  -0.000   0.000   0.000   0.000  -0.000   0.000  -0.000  -0.000   0.000  -0.000  -0.000   0.000


------------------------ aborting loop because EDIFF is reached ----------------------------------------


 


 total charge     
 
# of ion       s       p       d       f       tot
--------------------------------------------------
    1        0.425   0.168   9.448   0.012  10.053
    2        0.597   0.057   9.401   0.006  10.061
    3        0.597   0.057   9.401   0.006  10.061
    4        0.425   0.168   9.448   0.012  10.053
--------------------------------------------------
tot          2.043   0.449  37.699   0.036  40.227

 


 magnetization (x)
 
# of ion       s       p       d       f       tot
--------------------------------------------------
    1       -0.000  -0.000   0.000  -0.000   0.000
    2       -0.000  -0.000  -0.000   0.000  -0.000
    3       -0.000  -0.000  -0.000   0.000  -0.000
    4       -0.000  -0.000   0.000  -0.000   0.000
--------------------------------------------------
tot         -0.000  -0.000   0.000   0.000  -0.000

 
    CHARGE:  cpu time    2.5586: real time    2.5724
    FORLOC:  cpu time    0.0370: real time    0.0366
    FORNL :  cpu time   12.6221: real time   12.6914
    FORCOR:  cpu time    6.4430: real time    6.4682
    FORHAR:  cpu time    0.3909: real time    0.3943
    MIXING:  cpu time    0.1150: real time    0.1147
    OFIELD:  cpu time    0.0000: real time    0.0000

 VOLUME and BASIS-vectors are now :
 -----------------------------------------------------------------------------
  energy-cutoff  :      500.00
  volume of cell :     4913.00
      direct lattice vectors                 reciprocal lattice vectors
    17.000000000  0.000000000  0.000000000     0.058823529  0.000000000  0.000000000
     0.000000000 17.000000000  0.000000000     0.000000000  0.058823529  0.000000000
     0.000000000  0.000000000 17.000000000     0.000000000  0.000000000  0.058823529

  length of vectors
    17.000000000 17.000000000 17.000000000     0.058823529  0.058823529  0.058823529


 FORCES acting on ions
    electron-ion (+dipol)            ewald-force                    non-local-force                 convergence-correction
 -----------------------------------------------------------------------------------------------
   -.194E+03 -.278E+03 0.329E+03   0.193E+03 0.277E+03 -.327E+03   0.119E+01 0.170E+01 -.201E+01   0.295E-02 0.143E-02 -.322E-02
   0.353E+03 -.307E+03 -.516E+02   -.351E+03 0.306E+03 0.513E+02   -.175E+01 0.152E+01 0.256E+00   0.138E-01 -.144E-01 -.541E-03
   -.353E+03 0.307E+03 0.516E+02   0.351E+03 -.306E+03 -.514E+02   0.175E+01 -.152E+01 -.256E+00   -.138E-01 0.144E-01 0.540E-03
   0.194E+03 0.278E+03 -.329E+03   -.193E+03 -.277E+03 0.327E+03   -.119E+01 -.170E+01 0.201E+01   -.295E-02 -.144E-02 0.322E-02
 -----------------------------------------------------------------------------------------------
   0.296E-01 0.290E-01 0.401E-01   0.000E+00 -.568E-13 0.568E-13   0.000E+00 0.000E+00 0.000E+00   -.492E-05 -.518E-05 -.750E-05
 
 
 POSITION                                       TOTAL-FORCE (eV/Angst)
 -----------------------------------------------------------------------------------
      0.53399      0.76439     16.09713         0.014623      0.019749     -0.023796
     15.18713      1.57794      0.26386         0.040368     -0.036319     -0.004242
      1.81283     15.42203     16.73609        -0.040368      0.036319      0.004242
     16.46599     16.23558      0.90284        -0.014623     -0.019749      0.023796
 -----------------------------------------------------------------------------------
    total drift:                                0.029555      0.028963      0.040137


--------------------------------------------------------------------------------------------------------



  FREE ENERGIE OF THE ION-ELECTRON SYSTEM (eV)
  ---------------------------------------------------
  free  energy   TOTEN  =        -5.44894656 eV

  energy  without entropy=       -5.44894656  energy(sigma->0) =       -5.44894656
 
 d Force = 0.7379366E-03[ 0.627E-03, 0.849E-03]  d Energy = 0.7520845E-03-0.141E-04
 d Force =-0.2616179E+01[-0.262E+01,-0.261E+01]  d Ewald  =-0.2616181E+01 0.181E-05


--------------------------------------------------------------------------------------------------------


    POTLOK:  cpu time    6.7020: real time    6.7287


--------------------------------------------------------------------------------------------------------


 Conjugate gradient step on ions:
 trial-energy change:   -0.000752  1 .order   -0.000738   -0.000849   -0.000627
  (g-gl).g = 0.802E-03      g.g   = 0.726E-03  gl.gl    = 0.342E-01
 g(Force)  = 0.726E-03   g(Stress)= 0.000E+00 ortho     =-0.757E-04
 gamma     =   0.02344
 trial     =   1.17266
 opt step  =   2.87780  (harmonic =   4.47339) maximal distance =0.00827577
 next E    =    -5.449446   (d E  =  -0.00125)


--------------------------------------------------------------------------------------------------------


    WAVPRE:  cpu time    0.2430: real time    0.2496
    FEWALD:  cpu time    0.0010: real time    0.0010

 real space projection operators:
  total allocation   :       2343.75 KBytes
  max/ min on nodes  :        592.75        576.50

    ORTHCH:  cpu time    0.5069: real time    0.5071
     LOOP+:  cpu time  111.6070: real time  112.2172


--------------------------------------- Iteration      6(   1)  ---------------------------------------


    POTLOK:  cpu time    3.4255: real time    3.4420
    SETDIJ:  cpu time    3.3125: real time    3.3185
     EDDAV:  cpu time    4.5763: real time    4.5944
       DOS:  cpu time    0.0010: real time    0.0005
    CHARGE:  cpu time    2.5806: real time    2.5889
    MIXING:  cpu time    0.0700: real time    0.0708
    --------------------------------------------
      LOOP:  cpu time   13.9659: real time   14.0153

 eigenvalue-minimisations  :   112
 total energy-change (2. order) : 0.2162829E-04  (-0.1006043E+00)
 number of electron      44.0000001 magnetization      -0.0001458
 augmentation part       21.1067240 magnetization      -0.0001457

  free energy =  -0.544892468065E+01  energy without entropy=  -0.544892468065E+01


--------------------------------------------------------------------------------------------------------




--------------------------------------- Iteration      6(   2)  ---------------------------------------


    POTLOK:  cpu time    3.4085: real time    3.4206
    SETDIJ:  cpu time    3.3165: real time    3.3215
     EDDAV:  cpu time    5.3952: real time    5.4130
       DOS:  cpu time    0.0000: real time    0.0004
    CHARGE:  cpu time    2.5986: real time    2.6075
    MIXING:  cpu time    0.0840: real time    0.0838
    --------------------------------------------
      LOOP:  cpu time   14.8027: real time   14.8469

 eigenvalue-minimisations  :   144
 total energy-change (2. order) :-0.6827749E-03  (-0.6927454E-03)
 number of electron      44.0000001 magnetization      -0.0001293
 augmentation part       21.1063846 magnetization      -0.0001292

 eigenvalues of (default mixing * dielectric matrix)
  average eigenvalue GAMMA=   1.1646
  1.1646

  free energy =  -0.544960745554E+01  energy without entropy=  -0.544960745554E+01


--------------------------------------------------------------------------------------------------------




--------------------------------------- Iteration      6(   3)  ---------------------------------------


    POTLOK:  cpu time    3.4025: real time    3.4142
    SETDIJ:  cpu time    3.2985: real time    3.3034
     EDDAV:  cpu time    4.7433: real time    4.7609
       DOS:  cpu time    0.0010: real time    0.0009
    CHARGE:  cpu time    2.5806: real time    2.5919
    MIXING:  cpu time    0.0930: real time    0.0924
    --------------------------------------------
      LOOP:  cpu time   14.1189: real time   14.1636

 eigenvalue-minimisations  :   120
 total energy-change (2. order) :-0.7953628E-05  (-0.6263662E-05)
 number of electron      44.0000001 magnetization      -0.0000557
 augmentation part       21.1064060 magnetization      -0.0000556

 eigenvalues of (default mixing * dielectric matrix)
  average eigenvalue GAMMA=   3.3280
  0.9492  5.7068

  free energy =  -0.544961540917E+01  energy without entropy=  -0.544961540917E+01


--------------------------------------------------------------------------------------------------------




--------------------------------------- Iteration      6(   4)  ---------------------------------------


    POTLOK:  cpu time    3.4115: real time    3.4234
    SETDIJ:  cpu time    3.2865: real time    3.2936
     EDDAV:  cpu time    4.0754: real time    4.0929
       DOS:  cpu time    0.0000: real time    0.0002
    CHARGE:  cpu time    2.5626: real time    2.5761
    MIXING:  cpu time    0.0990: real time    0.0985
    --------------------------------------------
      LOOP:  cpu time   13.4350: real time   13.4846

 eigenvalue-minimisations  :    96
 total energy-change (2. order) : 0.4334770E-05  (-0.6203646E-06)
 number of electron      44.0000001 magnetization       0.0001226
 augmentation part       21.1065596 magnetization       0.0001226

 eigenvalues of (default mixing * dielectric matrix)
  average eigenvalue GAMMA=   7.2632
 19.9281  0.9738  0.8878

  free energy =  -0.544961107440E+01  energy without entropy=  -0.544961107440E+01


--------------------------------------------------------------------------------------------------------




--------------------------------------- Iteration      6(   5)  ---------------------------------------


    POTLOK:  cpu time    3.4205: real time    3.4308
    SETDIJ:  cpu time    3.2875: real time    3.2950
     EDDAV:  cpu time    4.9153: real time    4.9356
       DOS:  cpu time    0.0000: real time    0.0002
    CHARGE:  cpu time    2.5706: real time    2.5818
    MIXING:  cpu time    0.1060: real time    0.1060
    --------------------------------------------
      LOOP:  cpu time   14.2998: real time   14.3495

 eigenvalue-minimisations  :   128
 total energy-change (2. order) : 0.2740492E-05  (-0.2690154E-05)
 number of electron      44.0000001 magnetization       0.0000800
 augmentation part       21.1069845 magnetization       0.0000800

 eigenvalues of (default mixing * dielectric matrix)
  average eigenvalue GAMMA=   9.9636
 31.7021  6.1779  1.0355  0.9391

  free energy =  -0.544960833391E+01  energy without entropy=  -0.544960833391E+01


--------------------------------------------------------------------------------------------------------




--------------------------------------- Iteration      6(   6)  ---------------------------------------


    POTLOK:  cpu time    3.4235: real time    3.4320
    SETDIJ:  cpu time    3.3155: real time    3.3227
     EDDAV:  cpu time    4.9542: real time    4.9744
       DOS:  cpu time    0.0000: real time    0.0003
    CHARGE:  cpu time    2.6136: real time    2.6209
    MIXING:  cpu time    0.1150: real time    0.1153
    --------------------------------------------
      LOOP:  cpu time   14.4218: real time   14.4656

 eigenvalue-minimisations  :   128
 total energy-change (2. order) :-0.1782912E-05  (-0.9000791E-06)
 number of electron      44.0000001 magnetization      -0.0001580
 augmentation part       21.1072226 magnetization      -0.0001580

 eigenvalues of (default mixing * dielectric matrix)
  average eigenvalue GAMMA=  13.1901
 49.3355 13.5639  1.0805  0.9852  0.9852

  free energy =  -0.544961011682E+01  energy without entropy=  -0.544961011682E+01


--------------------------------------------------------------------------------------------------------




--------------------------------------- Iteration      6(   7)  ---------------------------------------


    POTLOK:  cpu time    3.3675: real time    3.4196
    SETDIJ:  cpu time    3.3005: real time    3.3092
     EDDAV:  cpu time    4.6353: real time    4.6492
       DOS:  cpu time    0.0000: real time    0.0002
    CHARGE:  cpu time    2.5636: real time    2.5726
    MIXING:  cpu time    0.1230: real time    0.1240
    --------------------------------------------
      LOOP:  cpu time   13.9899: real time   14.0748

 eigenvalue-minimisations  :   112
 total energy-change (2. order) :-0.1624750E-05  (-0.6527853E-06)
 number of electron      44.0000001 magnetization      -0.0001180
 augmentation part       21.1071623 magnetization      -0.0001179

 eigenvalues of (default mixing * dielectric matrix)
  average eigenvalue GAMMA=  10.8862
 47.0131 13.4731  0.9454  0.9939  1.0610  1.8306

  free energy =  -0.544961174157E+01  energy without entropy=  -0.544961174157E+01


--------------------------------------------------------------------------------------------------------




--------------------------------------- Iteration      6(   8)  ---------------------------------------


    POTLOK:  cpu time    3.4145: real time    3.4250
    SETDIJ:  cpu time    3.2915: real time    3.3001
     EDDAV:  cpu time    2.9176: real time    2.9291
       DOS:  cpu time    0.0000: real time    0.0002
    --------------------------------------------
      LOOP:  cpu time    9.6235: real time    9.6543

 eigenvalue-minimisations  :    56
 total energy-change (2. order) : 0.1010631E-06  (-0.3881363E-07)
 number of electron      44.0000001 magnetization      -0.0001180
 augmentation part       21.1071623 magnetization      -0.0001179

  free energy =  -0.544961164051E+01  energy without entropy=  -0.544961164051E+01


--------------------------------------------------------------------------------------------------------




 average (electrostatic) potential at core
  the test charge radii are     1.1249
  (the norm of the test charge is              1.0000)
       1 -97.7783       2 -97.1389       3 -97.1390       4 -97.7783
 
 
 
 E-fermi :  -4.2317     XC(G=0):  -0.4885     alpha+bet : -0.1892


 spin component 1

 k-point     1 :       0.0000    0.0000    0.0000
  band No.  band energies     occupation 
      1      -8.8392      1.00000
      2      -8.7926      1.00000
      3      -8.2817      1.00000
      4      -8.2350      1.00000
      5      -8.1704      1.00000
      6      -7.9805      1.00000
      7      -7.6775      1.00000
      8      -7.6495      1.00000
      9      -7.2657      1.00000
     10      -7.2479      1.00000
     11      -7.1559      1.00000
     12      -6.9905      1.00000
     13      -6.9755      1.00000
     14      -6.9642      1.00000
     15      -6.8624      1.00000
     16      -6.8378      1.00000
     17      -6.7946      1.00000
     18      -6.7492      1.00000
     19      -6.6831      1.00000
     20      -6.4583      1.00000
     21      -6.1998      1.00000
     22      -4.2659      1.00000
     23      -3.4087      0.00000
     24      -2.2493      0.00000
     25      -1.6597      0.00000
     26      -0.9266      0.00000
     27      -0.8737      0.00000
     28      -0.3837      0.00000

 spin component 2

 k-point     1 :       0.0000    0.0000    0.0000
  band No.  band energies     occupation 
      1      -8.8392      1.00000
      2      -8.7926      1.00000
      3      -8.2817      1.00000
      4      -8.2350      1.00000
      5      -8.1704      1.00000
      6      -7.9805      1.00000
      7      -7.6775      1.00000
      8      -7.6495      1.00000
      9      -7.2657      1.00000
     10      -7.2480      1.00000
     11      -7.1559      1.00000
     12      -6.9905      1.00000
     13      -6.9755      1.00000
     14      -6.9642      1.00000
     15      -6.8624      1.00000
     16      -6.8378      1.00000
     17      -6.7947      1.00000
     18      -6.7492      1.00000
     19      -6.6831      1.00000
     20      -6.4583      1.00000
     21      -6.1998      1.00000
     22      -4.2659      1.00000
     23      -3.4087      0.00000
     24      -2.2493      0.00000
     25      -1.6597      0.00000
     26      -0.9266      0.00000
     27      -0.8737      0.00000
     28      -0.3837      0.00000


--------------------------------------------------------------------------------------------------------


 soft charge-density along one line, spin component           1
         0         1         2         3         4         5         6         7         8         9
 total charge-density along one line
 
 soft charge-density along one line, spin component           2
         0         1         2         3         4         5         6         7         8         9
 total charge-density along one line
 
 pseudopotential strength for first ion, spin component:           1
-10.975   0.011   0.011   0.014   0.001 -10.872   0.010   0.010
  0.011 -10.988   0.009  -0.015  -0.015   0.010 -10.884   0.009
  0.011   0.009 -10.987   0.005  -0.003   0.010   0.009 -10.883
  0.014  -0.015   0.005 -10.980   0.008   0.014  -0.014   0.005
  0.001  -0.015  -0.003   0.008 -10.969   0.001  -0.014  -0.003
-10.872   0.010   0.010   0.014   0.001 -10.744   0.010   0.010
  0.010 -10.884   0.009  -0.014  -0.014   0.010 -10.756   0.008
  0.010   0.009 -10.883   0.005  -0.003   0.010   0.008 -10.754
  0.014  -0.014   0.005 -10.876   0.007   0.013  -0.014   0.005
  0.001  -0.014  -0.003   0.007 -10.866   0.001  -0.013  -0.003
 -0.001  -0.010  -0.001  -0.009  -0.001  -0.001  -0.010  -0.001
  0.008   0.005   0.005   0.007  -0.000   0.008   0.005   0.005
  0.012  -0.020  -0.010   0.001  -0.017   0.011  -0.019  -0.010
  0.001   0.016  -0.024   0.011  -0.000   0.001   0.015  -0.023
  0.017   0.001  -0.007  -0.020   0.012   0.016   0.001  -0.007
 -0.008   0.013   0.006   0.000   0.010  -0.007   0.012   0.006
  0.000  -0.011   0.015  -0.007  -0.000   0.000  -0.010   0.014
 -0.011   0.000   0.004   0.012  -0.007  -0.010   0.000   0.004
 -0.023   0.000  -0.000  -0.001  -0.033  -0.022   0.000  -0.000
  0.031  -0.017  -0.000  -0.025   0.000   0.029  -0.016  -0.000
  0.006   0.039  -0.028  -0.001  -0.009   0.006   0.037  -0.027
  0.001   0.021   0.042   0.014  -0.000   0.001   0.020   0.040
  0.009  -0.001  -0.020   0.040   0.006   0.009  -0.001  -0.019
  0.000   0.026   0.000  -0.019   0.031   0.000   0.025   0.000
  0.032   0.001   0.001   0.001  -0.023   0.031   0.001   0.001
  0.038  -0.001   0.001   0.002   0.056   0.037  -0.001   0.001
 -0.054   0.029   0.000   0.043  -0.000  -0.051   0.028   0.000
 -0.009  -0.066   0.048   0.001   0.016  -0.009  -0.063   0.046
 -0.002  -0.035  -0.071  -0.024   0.001  -0.002  -0.033  -0.067
 -0.015   0.001   0.034  -0.067  -0.011  -0.014   0.001   0.033
 -0.000  -0.045  -0.000   0.033  -0.054  -0.000  -0.043  -0.000
 -0.056  -0.002  -0.002  -0.001   0.039  -0.053  -0.002  -0.002
 pseudopotential strength for first ion, spin component:           2
-10.975   0.011   0.011   0.014   0.001 -10.872   0.010   0.010
  0.011 -10.988   0.009  -0.015  -0.015   0.010 -10.884   0.009
  0.011   0.009 -10.987   0.005  -0.003   0.010   0.009 -10.883
  0.014  -0.015   0.005 -10.980   0.008   0.014  -0.014   0.005
  0.001  -0.015  -0.003   0.008 -10.969   0.001  -0.014  -0.003
-10.872   0.010   0.010   0.014   0.001 -10.744   0.010   0.010
  0.010 -10.884   0.009  -0.014  -0.014   0.010 -10.756   0.008
  0.010   0.009 -10.883   0.005  -0.003   0.010   0.008 -10.754
  0.014  -0.014   0.005 -10.876   0.007   0.013  -0.014   0.005
  0.001  -0.014  -0.003   0.007 -10.866   0.001  -0.013  -0.003
 -0.001  -0.010  -0.001  -0.009  -0.001  -0.001  -0.010  -0.001
  0.008   0.005   0.005   0.007  -0.000   0.008   0.005   0.005
  0.012  -0.020  -0.010   0.001  -0.017   0.011  -0.019  -0.010
  0.001   0.016  -0.024   0.011  -0.000   0.001   0.015  -0.023
  0.017   0.001  -0.007  -0.020   0.012   0.016   0.001  -0.007
 -0.008   0.013   0.006   0.000   0.010  -0.007   0.012   0.006
  0.000  -0.011   0.015  -0.007  -0.000   0.000  -0.010   0.014
 -0.011   0.000   0.004   0.012  -0.007  -0.010   0.000   0.004
 -0.023   0.000  -0.000  -0.001  -0.033  -0.022   0.000  -0.000
  0.031  -0.017  -0.000  -0.025   0.000   0.029  -0.016  -0.000
  0.006   0.039  -0.028  -0.001  -0.009   0.006   0.037  -0.027
  0.001   0.021   0.042   0.014  -0.000   0.001   0.020   0.040
  0.009  -0.001  -0.020   0.040   0.006   0.009  -0.001  -0.019
  0.000   0.026   0.000  -0.019   0.031   0.000   0.025   0.000
  0.032   0.001   0.001   0.001  -0.023   0.031   0.001   0.001
  0.038  -0.001   0.001   0.002   0.056   0.037  -0.001   0.001
 -0.054   0.029   0.000   0.043  -0.000  -0.051   0.028   0.000
 -0.009  -0.066   0.048   0.001   0.016  -0.009  -0.063   0.046
 -0.002  -0.035  -0.071  -0.024   0.001  -0.002  -0.033  -0.067
 -0.015   0.001   0.034  -0.067  -0.011  -0.014   0.001   0.033
 -0.000  -0.045  -0.000   0.033  -0.054  -0.000  -0.043  -0.000
 -0.056  -0.002  -0.002  -0.001   0.039  -0.053  -0.002  -0.002
 total augmentation occupancy for first ion, spin component:           1
  2.593  -0.010   0.078  -0.090   0.066  -0.634   0.084  -0.136   0.133  -0.048   0.210  -0.001  -0.008  -0.006   0.076  -0.002
 -0.010   2.766   0.010  -0.023   0.220   0.084  -0.756   0.035  -0.006  -0.268   0.444   0.006  -0.181   0.097   0.044  -0.002
  0.078   0.010   2.509  -0.064   0.052  -0.136   0.035  -0.478   0.086  -0.048   0.129  -0.000  -0.048  -0.054   0.014   0.000
 -0.090  -0.023  -0.064   2.823  -0.253   0.134  -0.006   0.086  -0.778   0.278   0.449   0.005   0.056   0.108  -0.208  -0.000
  0.066   0.220   0.052  -0.253   2.833  -0.048  -0.268  -0.048   0.278  -0.776   0.041   0.001  -0.181  -0.012   0.174  -0.001
 -0.634   0.084  -0.136   0.134  -0.048   0.647  -0.149   0.183  -0.173   0.032  -0.180  -0.002   0.005   0.008  -0.073  -0.000
  0.084  -0.756   0.035  -0.006  -0.268  -0.149   0.731  -0.074   0.034   0.313  -0.398  -0.007   0.182  -0.105  -0.033   0.006
 -0.136   0.035  -0.478   0.086  -0.048   0.183  -0.074   0.433  -0.106   0.045  -0.111  -0.001   0.044   0.052  -0.014   0.001
  0.133  -0.006   0.086  -0.778   0.278  -0.173   0.034  -0.106   0.721  -0.303  -0.400  -0.007  -0.044  -0.112   0.202   0.000
 -0.048  -0.268  -0.048   0.278  -0.776   0.032   0.313   0.045  -0.303   0.705  -0.038  -0.001   0.172   0.009  -0.163   0.005
  0.210   0.444   0.129   0.449   0.041  -0.180  -0.398  -0.111  -0.400  -0.038   1.002   0.013  -0.126   0.149  -0.088  -0.005
 -0.001   0.006  -0.000   0.005   0.001  -0.002  -0.007  -0.001  -0.007  -0.001   0.013   0.000  -0.002   0.002  -0.001  -0.000
 -0.008  -0.181  -0.048   0.056  -0.181   0.005   0.182   0.044  -0.044   0.172  -0.126  -0.002   0.090  -0.013  -0.052   0.003
 -0.006   0.097  -0.054   0.108  -0.012   0.008  -0.105   0.052  -0.112   0.009   0.149   0.002  -0.013   0.042  -0.027  -0.001
  0.076   0.044   0.014  -0.208   0.174  -0.073  -0.033  -0.014   0.202  -0.163  -0.088  -0.001  -0.052  -0.027   0.098  -0.001
 -0.002  -0.002   0.000  -0.000  -0.001  -0.000   0.006   0.001   0.000   0.005  -0.005  -0.000   0.003  -0.001  -0.001   0.000
 -0.000   0.001   0.002   0.002   0.000   0.000  -0.005   0.002  -0.004  -0.000   0.006   0.000  -0.001   0.002  -0.001  -0.000
 -0.001  -0.000   0.001  -0.002   0.002  -0.002   0.000  -0.000   0.006  -0.004  -0.004  -0.000  -0.001  -0.001   0.002  -0.000
  0.012  -0.001   0.004   0.004   0.011  -0.012   0.002  -0.006  -0.004  -0.009   0.008   0.000   0.001   0.001  -0.004   0.000
 -0.031   0.018  -0.004   0.018   0.002   0.037  -0.020   0.007  -0.019  -0.003   0.004   0.000  -0.005   0.002  -0.004  -0.000
  0.008  -0.024   0.021  -0.010   0.006  -0.013   0.024  -0.022   0.011  -0.006  -0.008  -0.000  -0.001  -0.006   0.004   0.000
 -0.001  -0.015  -0.017  -0.013   0.000   0.001   0.015   0.016   0.013  -0.000  -0.020  -0.000   0.004  -0.004   0.004   0.000
 -0.000  -0.009   0.014  -0.022  -0.005  -0.002   0.011  -0.015   0.021   0.005  -0.013  -0.000   0.004  -0.005  -0.000   0.000
  0.000  -0.027  -0.001   0.023  -0.036  -0.002   0.029  -0.000  -0.024   0.037  -0.001  -0.000   0.008  -0.000  -0.008   0.000
 -0.024  -0.000  -0.009   0.003   0.006   0.027  -0.002   0.012  -0.004  -0.005  -0.011  -0.000   0.004  -0.000  -0.003   0.000
  0.001  -0.000   0.001   0.001  -0.000  -0.004   0.001  -0.002  -0.001  -0.003   0.002   0.000   0.000   0.000  -0.001  -0.000
 -0.007   0.004  -0.002   0.003   0.001   0.011  -0.006   0.002  -0.006  -0.001   0.001   0.000  -0.001   0.000  -0.001  -0.000
  0.004  -0.003   0.003  -0.003   0.001  -0.004   0.007  -0.007   0.004  -0.002  -0.002  -0.000  -0.000  -0.002   0.001   0.000
 -0.000  -0.002  -0.001  -0.002  -0.000   0.000   0.004   0.005   0.004  -0.000  -0.006  -0.000   0.001  -0.001   0.001   0.000
  0.001  -0.003   0.002  -0.002  -0.001  -0.001   0.003  -0.005   0.006   0.001  -0.004  -0.000   0.001  -0.002  -0.000   0.000
  0.000  -0.006  -0.000   0.005  -0.008  -0.001   0.009  -0.000  -0.007   0.011  -0.000  -0.000   0.003  -0.000  -0.002   0.000
 -0.004   0.000  -0.003   0.001  -0.001   0.008  -0.001   0.004  -0.001  -0.001  -0.003  -0.000   0.001  -0.000  -0.001   0.000
 total augmentation occupancy for first ion, spin component:           2
  0.000  -0.000  -0.000  -0.000   0.000  -0.000   0.000   0.000   0.000  -0.000  -0.000  -0.000   0.000  -0.000   0.000  -0.000
 -0.000   0.000  -0.000  -0.000   0.000   0.000  -0.000   0.000   0.000  -0.000   0.000   0.000  -0.000   0.000  -0.000   0.000
 -0.000  -0.000   0.000  -0.000   0.000   0.000   0.000  -0.000   0.000  -0.000  -0.000   0.000   0.000  -0.000   0.000   0.000
 -0.000  -0.000  -0.000   0.000  -0.000   0.000   0.000   0.000  -0.000   0.000  -0.000  -0.000   0.000  -0.000  -0.000  -0.000
  0.000   0.000   0.000  -0.000   0.000  -0.000   0.000  -0.000   0.000  -0.000  -0.000  -0.000  -0.000  -0.000   0.000   0.000
 -0.000   0.000   0.000   0.000  -0.000   0.000  -0.000  -0.000  -0.000   0.000   0.000   0.000  -0.000   0.000  -0.000  -0.000
  0.000  -0.000   0.000   0.000   0.000  -0.000   0.000  -0.000  -0.000  -0.000  -0.000  -0.000   0.000  -0.000  -0.000   0.000
  0.000   0.000  -0.000   0.000  -0.000  -0.000  -0.000   0.000  -0.000   0.000   0.000  -0.000  -0.000   0.000  -0.000  -0.000
  0.000   0.000   0.000  -0.000   0.000  -0.000  -0.000  -0.000   0.000  -0.000   0.000   0.000  -0.000  -0.000   0.000   0.000
 -0.000  -0.000  -0.000   0.000  -0.000   0.000  -0.000   0.000  -0.000   0.000   0.000   0.000   0.000   0.000  -0.000  -0.000
 -0.000   0.000  -0.000  -0.000  -0.000   0.000  -0.000   0.000   0.000   0.000   0.000  -0.000  -0.000   0.000  -0.000  -0.000
 -0.000   0.000   0.000  -0.000  -0.000   0.000  -0.000  -0.000   0.000   0.000  -0.000  -0.000  -0.000  -0.000   0.000  -0.000
  0.000  -0.000   0.000   0.000  -0.000  -0.000   0.000  -0.000  -0.000   0.000  -0.000  -0.000   0.000  -0.000  -0.000   0.000
 -0.000   0.000  -0.000  -0.000  -0.000   0.000  -0.000   0.000  -0.000   0.000   0.000  -0.000  -0.000   0.000  -0.000  -0.000
  0.000  -0.000   0.000  -0.000   0.000  -0.000  -0.000  -0.000   0.000  -0.000  -0.000   0.000  -0.000  -0.000   0.000   0.000
 -0.000   0.000   0.000  -0.000   0.000  -0.000   0.000  -0.000   0.000  -0.000  -0.000  -0.000   0.000  -0.000   0.000   0.000
  0.000  -0.000   0.000  -0.000   0.000   0.000  -0.000  -0.000  -0.000  -0.000   0.000  -0.000  -0.000   0.000   0.000  -0.000
 -0.000  -0.000   0.000   0.000  -0.000   0.000   0.000  -0.000   0.000  -0.000  -0.000   0.000   0.000  -0.000   0.000   0.000
  0.000   0.000   0.000  -0.000  -0.000  -0.000  -0.000   0.000  -0.000  -0.000   0.000  -0.000  -0.000   0.000   0.000   0.000
 -0.000   0.000   0.000  -0.000  -0.000   0.000  -0.000  -0.000   0.000   0.000  -0.000  -0.000  -0.000  -0.000   0.000  -0.000
  0.000  -0.000   0.000   0.000   0.000  -0.000   0.000  -0.000  -0.000  -0.000   0.000  -0.000  -0.000   0.000  -0.000   0.000
  0.000  -0.000   0.000   0.000  -0.000  -0.000   0.000  -0.000   0.000   0.000   0.000  -0.000   0.000   0.000  -0.000  -0.000
 -0.000  -0.000  -0.000   0.000   0.000   0.000   0.000  -0.000   0.000  -0.000  -0.000   0.000   0.000  -0.000   0.000   0.000
 -0.000  -0.000  -0.000  -0.000   0.000   0.000   0.000   0.000  -0.000   0.000   0.000   0.000   0.000   0.000  -0.000  -0.000
  0.000   0.000   0.000  -0.000  -0.000  -0.000   0.000  -0.000   0.000   0.000   0.000  -0.000  -0.000   0.000   0.000   0.000
  0.000  -0.000  -0.000   0.000   0.000  -0.000   0.000   0.000  -0.000  -0.000   0.000  -0.000  -0.000   0.000   0.000   0.000
 -0.000   0.000   0.000  -0.000  -0.000   0.000  -0.000  -0.000   0.000   0.000  -0.000  -0.000  -0.000   0.000  -0.000  -0.000
  0.000  -0.000   0.000   0.000   0.000  -0.000   0.000  -0.000  -0.000  -0.000   0.000  -0.000   0.000  -0.000   0.000   0.000
  0.000  -0.000  -0.000  -0.000  -0.000  -0.000   0.000  -0.000   0.000   0.000   0.000  -0.000   0.000   0.000  -0.000   0.000
  0.000  -0.000   0.000  -0.000   0.000  -0.000   0.000  -0.000   0.000   0.000  -0.000   0.000   0.000  -0.000   0.000   0.000
  0.000  -0.000  -0.000   0.000  -0.000  -0.000   0.000   0.000  -0.000   0.000   0.000   0.000   0.000  -0.000  -0.000   0.000
 -0.000   0.000   0.000  -0.000  -0.000  -0.000  -0.000  -0.000   0.000   0.000  -0.000  -0.000  -0.000  -0.000   0.000  -0.000


------------------------ aborting loop because EDIFF is reached ----------------------------------------


 


 total charge     
 
# of ion       s       p       d       f       tot
--------------------------------------------------
    1        0.425   0.168   9.448   0.012  10.053
    2        0.598   0.057   9.401   0.006  10.063
    3        0.598   0.057   9.401   0.006  10.063
    4        0.425   0.168   9.448   0.012  10.053
--------------------------------------------------
tot          2.045   0.451  37.698   0.036  40.231

 


 magnetization (x)
 
# of ion       s       p       d       f       tot
--------------------------------------------------
    1        0.000   0.000  -0.000  -0.000  -0.000
    2        0.000   0.000   0.000  -0.000   0.000
    3        0.000   0.000   0.000  -0.000   0.000
    4        0.000   0.000  -0.000  -0.000  -0.000
--------------------------------------------------
tot          0.000   0.000  -0.000  -0.000  -0.000

 
    CHARGE:  cpu time    2.5456: real time    2.5601
    FORLOC:  cpu time    0.0540: real time    0.0545
    FORNL :  cpu time   12.7021: real time   12.7479
    FORCOR:  cpu time    6.4460: real time    6.4647
    FORHAR:  cpu time    0.3949: real time    0.3951
    MIXING:  cpu time    0.1330: real time    0.1333
    OFIELD:  cpu time    0.0000: real time    0.0000

 VOLUME and BASIS-vectors are now :
 -----------------------------------------------------------------------------
  energy-cutoff  :      500.00
  volume of cell :     4913.00
      direct lattice vectors                 reciprocal lattice vectors
    17.000000000  0.000000000  0.000000000     0.058823529  0.000000000  0.000000000
     0.000000000 17.000000000  0.000000000     0.000000000  0.058823529  0.000000000
     0.000000000  0.000000000 17.000000000     0.000000000  0.000000000  0.058823529

  length of vectors
    17.000000000 17.000000000 17.000000000     0.058823529  0.058823529  0.058823529


 FORCES acting on ions
    electron-ion (+dipol)            ewald-force                    non-local-force                 convergence-correction
 -----------------------------------------------------------------------------------------------
   -.194E+03 -.279E+03 0.329E+03   0.193E+03 0.277E+03 -.327E+03   0.118E+01 0.169E+01 -.200E+01   -.199E-02 -.559E-02 0.556E-02
   0.354E+03 -.308E+03 -.517E+02   -.352E+03 0.307E+03 0.515E+02   -.176E+01 0.153E+01 0.255E+00   -.209E-01 0.183E-01 0.344E-02
   -.354E+03 0.308E+03 0.518E+02   0.352E+03 -.307E+03 -.515E+02   0.176E+01 -.153E+01 -.255E+00   0.209E-01 -.183E-01 -.344E-02
   0.194E+03 0.279E+03 -.329E+03   -.193E+03 -.277E+03 0.327E+03   -.118E+01 -.169E+01 0.200E+01   0.199E-02 0.559E-02 -.556E-02
 -----------------------------------------------------------------------------------------------
   0.296E-01 0.290E-01 0.402E-01   0.284E-13 0.114E-12 -.568E-13   0.000E+00 0.222E-15 0.000E+00   -.114E-05 -.814E-06 -.140E-05
 
 
 POSITION                                       TOTAL-FORCE (eV/Angst)
 -----------------------------------------------------------------------------------
      0.53515      0.76585     16.09527         0.005576      0.011351     -0.012441
     15.19204      1.57339      0.26327         0.016490     -0.016688     -0.003244
      1.80792     15.42658     16.73668        -0.016490      0.016688      0.003244
     16.46483     16.23412      0.90470        -0.005576     -0.011351      0.012441
 -----------------------------------------------------------------------------------
    total drift:                                0.029586      0.028990      0.040176


--------------------------------------------------------------------------------------------------------



  FREE ENERGIE OF THE ION-ELECTRON SYSTEM (eV)
  ---------------------------------------------------
  free  energy   TOTEN  =        -5.44961164 eV

  energy  without entropy=       -5.44961164  energy(sigma->0) =       -5.44961164
 
 d Force = 0.6603822E-03[ 0.410E-03, 0.911E-03]  d Energy = 0.6650757E-03-0.469E-05
 d Force =-0.3817726E+01[-0.383E+01,-0.381E+01]  d Ewald  =-0.3817731E+01 0.558E-05


--------------------------------------------------------------------------------------------------------


    POTLOK:  cpu time    6.7050: real time    6.7332


--------------------------------------------------------------------------------------------------------




--------------------------------------------------------------------------------------------------------


    WAVPRE:  cpu time    0.2420: real time    0.2487
    FEWALD:  cpu time    0.0010: real time    0.0004

 real space projection operators:
  total allocation   :       2346.00 KBytes
  max/ min on nodes  :        594.50        577.50

    ORTHCH:  cpu time    0.5059: real time    0.5086
     LOOP+:  cpu time  138.4000: real time  138.9196


--------------------------------------- Iteration      7(   1)  ---------------------------------------


    POTLOK:  cpu time    3.4355: real time    3.4492
    SETDIJ:  cpu time    3.2845: real time    3.2941
     EDDAV:  cpu time    4.5293: real time    4.5843
       DOS:  cpu time    0.0000: real time    0.0005
    CHARGE:  cpu time    2.5566: real time    2.5683
    MIXING:  cpu time    0.0690: real time    0.0707
    --------------------------------------------
      LOOP:  cpu time   13.8749: real time   13.9672

 eigenvalue-minimisations  :   112
 total energy-change (2. order) : 0.2749578E-02  (-0.4016729E+00)
 number of electron      44.0000001 magnetization      -0.0000381
 augmentation part       21.1041514 magnetization      -0.0000380

  free energy =  -0.544686216393E+01  energy without entropy=  -0.544686216393E+01


--------------------------------------------------------------------------------------------------------




--------------------------------------- Iteration      7(   2)  ---------------------------------------


    POTLOK:  cpu time    3.4285: real time    3.4359
    SETDIJ:  cpu time    3.2965: real time    3.3054
     EDDAV:  cpu time    5.4032: real time    5.4258
       DOS:  cpu time    0.0010: real time    0.0004
    CHARGE:  cpu time    2.5656: real time    2.5794
    MIXING:  cpu time    0.0980: real time    0.0977
    --------------------------------------------
      LOOP:  cpu time   14.7928: real time   14.8445

 eigenvalue-minimisations  :   144
 total energy-change (2. order) :-0.2740097E-02  (-0.2774205E-02)
 number of electron      44.0000001 magnetization      -0.0000334
 augmentation part       21.1027936 magnetization      -0.0000334

 eigenvalues of (default mixing * dielectric matrix)
  average eigenvalue GAMMA=   1.2744
  1.2744

  free energy =  -0.544960226135E+01  energy without entropy=  -0.544960226135E+01


--------------------------------------------------------------------------------------------------------




--------------------------------------- Iteration      7(   3)  ---------------------------------------


    POTLOK:  cpu time    3.4025: real time    3.4195
    SETDIJ:  cpu time    3.2665: real time    3.2775
     EDDAV:  cpu time    5.4502: real time    5.4820
       DOS:  cpu time    0.0000: real time    0.0003
    CHARGE:  cpu time    2.5046: real time    2.5528
    MIXING:  cpu time    0.0990: real time    0.0990
    --------------------------------------------
      LOOP:  cpu time   14.7228: real time   14.8310

 eigenvalue-minimisations  :   144
 total energy-change (2. order) :-0.3830584E-04  (-0.3746191E-04)
 number of electron      44.0000001 magnetization      -0.0000176
 augmentation part       21.1028491 magnetization      -0.0000173

 eigenvalues of (default mixing * dielectric matrix)
  average eigenvalue GAMMA=   2.7467
  0.8942  4.5991

  free energy =  -0.544964056718E+01  energy without entropy=  -0.544964056718E+01


--------------------------------------------------------------------------------------------------------




--------------------------------------- Iteration      7(   4)  ---------------------------------------


    POTLOK:  cpu time    3.4095: real time    3.4308
    SETDIJ:  cpu time    3.2825: real time    3.2918
     EDDAV:  cpu time    7.3089: real time    7.3536
       DOS:  cpu time    0.0000: real time    0.0003
    CHARGE:  cpu time    2.5726: real time    2.5838
    MIXING:  cpu time    0.0980: real time    0.0977
    --------------------------------------------
      LOOP:  cpu time   16.6715: real time   16.7580

 eigenvalue-minimisations  :   208
 total energy-change (2. order) : 0.2156510E-04  (-0.2088391E-05)
 number of electron      44.0000001 magnetization       0.0000356
 augmentation part       21.1031250 magnetization       0.0000357

 eigenvalues of (default mixing * dielectric matrix)
  average eigenvalue GAMMA=   7.8124
 21.4645  0.9864  0.9864

  free energy =  -0.544961900208E+01  energy without entropy=  -0.544961900208E+01


--------------------------------------------------------------------------------------------------------




--------------------------------------- Iteration      7(   5)  ---------------------------------------


    POTLOK:  cpu time    3.4175: real time    3.4326
    SETDIJ:  cpu time    3.3015: real time    3.3095
     EDDAV:  cpu time    4.9422: real time    4.9604
       DOS:  cpu time    0.0000: real time    0.0004
    CHARGE:  cpu time    2.5646: real time    2.6066
    MIXING:  cpu time    0.1100: real time    0.1122
    --------------------------------------------
      LOOP:  cpu time   14.3358: real time   14.4216

 eigenvalue-minimisations  :   128
 total energy-change (2. order) : 0.2651849E-04  (-0.1762650E-04)
 number of electron      44.0000001 magnetization       0.0000232
 augmentation part       21.1043190 magnetization       0.0000232

 eigenvalues of (default mixing * dielectric matrix)
  average eigenvalue GAMMA=   6.3574
 20.4840  2.9630  1.0677  0.9148

  free energy =  -0.544959248359E+01  energy without entropy=  -0.544959248359E+01


--------------------------------------------------------------------------------------------------------




--------------------------------------- Iteration      7(   6)  ---------------------------------------


    POTLOK:  cpu time    3.4205: real time    3.4328
    SETDIJ:  cpu time    3.2795: real time    3.2866
     EDDAV:  cpu time    4.4773: real time    4.4971
       DOS:  cpu time    0.0000: real time    0.0003
    CHARGE:  cpu time    2.5676: real time    2.5782
    MIXING:  cpu time    0.1160: real time    0.1161
    --------------------------------------------
      LOOP:  cpu time   13.8609: real time   13.9110

 eigenvalue-minimisations  :   112
 total energy-change (2. order) :-0.9893492E-06  (-0.2789783E-05)
 number of electron      44.0000001 magnetization      -0.0000153
 augmentation part       21.1044279 magnetization      -0.0000153

 eigenvalues of (default mixing * dielectric matrix)
  average eigenvalue GAMMA=  10.5499
 38.6463 11.3789  1.0442  0.8937  0.7864

  free energy =  -0.544959347294E+01  energy without entropy=  -0.544959347294E+01


--------------------------------------------------------------------------------------------------------




--------------------------------------- Iteration      7(   7)  ---------------------------------------


    POTLOK:  cpu time    3.4205: real time    3.4336
    SETDIJ:  cpu time    3.2745: real time    3.2825
     EDDAV:  cpu time    4.6203: real time    4.6386
       DOS:  cpu time    0.0000: real time    0.0002
    CHARGE:  cpu time    2.5406: real time    2.5512
    MIXING:  cpu time    0.1230: real time    0.1230
    --------------------------------------------
      LOOP:  cpu time   13.9789: real time   14.0292

 eigenvalue-minimisations  :   112
 total energy-change (2. order) :-0.5017268E-05  (-0.2434106E-05)
 number of electron      44.0000001 magnetization      -0.0000458
 augmentation part       21.1045904 magnetization      -0.0000459

 eigenvalues of (default mixing * dielectric matrix)
  average eigenvalue GAMMA=  10.8296
 46.1655 14.9834  0.9614  0.9614  1.0025  0.9031

  free energy =  -0.544959849021E+01  energy without entropy=  -0.544959849021E+01


--------------------------------------------------------------------------------------------------------




--------------------------------------- Iteration      7(   8)  ---------------------------------------


    POTLOK:  cpu time    3.3915: real time    3.4370
    SETDIJ:  cpu time    3.2775: real time    3.2836
     EDDAV:  cpu time    4.8633: real time    4.8783
       DOS:  cpu time    0.0010: real time    0.0005
    CHARGE:  cpu time    2.5286: real time    2.5398
    MIXING:  cpu time    0.1330: real time    0.1339
    --------------------------------------------
      LOOP:  cpu time   14.1948: real time   14.2731

 eigenvalue-minimisations  :   120
 total energy-change (2. order) :-0.2888790E-05  (-0.1035128E-05)
 number of electron      44.0000001 magnetization      -0.0000145
 augmentation part       21.1044124 magnetization      -0.0000144

 eigenvalues of (default mixing * dielectric matrix)
  average eigenvalue GAMMA=   9.8727
 46.2641 13.1648  5.9178  1.0606  0.9929  0.9122  0.7966

  free energy =  -0.544960137900E+01  energy without entropy=  -0.544960137900E+01


--------------------------------------------------------------------------------------------------------




--------------------------------------- Iteration      7(   9)  ---------------------------------------


    POTLOK:  cpu time    3.4185: real time    3.4292
    SETDIJ:  cpu time    3.2985: real time    3.3079
     EDDAV:  cpu time    2.9086: real time    2.9182
       DOS:  cpu time    0.0000: real time    0.0001
    --------------------------------------------
      LOOP:  cpu time    9.6255: real time    9.6553

 eigenvalue-minimisations  :    56
 total energy-change (2. order) : 0.4405010E-06  (-0.1603590E-06)
 number of electron      44.0000001 magnetization      -0.0000145
 augmentation part       21.1044124 magnetization      -0.0000144

  free energy =  -0.544960093850E+01  energy without entropy=  -0.544960093850E+01


--------------------------------------------------------------------------------------------------------




 average (electrostatic) potential at core
  the test charge radii are     1.1249
  (the norm of the test charge is              1.0000)
       1 -97.7794       2 -97.1468       3 -97.1469       4 -97.7794
 
 
 
 E-fermi :  -4.2213     XC(G=0):  -0.4882     alpha+bet : -0.1892


 spin component 1

 k-point     1 :       0.0000    0.0000    0.0000
  band No.  band energies     occupation 
      1      -8.8347      1.00000
      2      -8.7987      1.00000
      3      -8.2780      1.00000
      4      -8.2564      1.00000
      5      -8.1763      1.00000
      6      -7.9888      1.00000
      7      -7.6899      1.00000
      8      -7.6796      1.00000
      9      -7.2759      1.00000
     10      -7.2550      1.00000
     11      -7.1586      1.00000
     12      -6.9984      1.00000
     13      -6.9818      1.00000
     14      -6.9658      1.00000
     15      -6.8552      1.00000
     16      -6.8379      1.00000
     17      -6.7942      1.00000
     18      -6.7491      1.00000
     19      -6.6801      1.00000
     20      -6.4612      1.00000
     21      -6.2072      1.00000
     22      -4.2626      1.00000
     23      -3.4186      0.00000
     24      -2.2334      0.00000
     25      -1.6631      0.00000
     26      -0.9329      0.00000
     27      -0.8823      0.00000
     28      -0.3685      0.00000

 spin component 2

 k-point     1 :       0.0000    0.0000    0.0000
  band No.  band energies     occupation 
      1      -8.8347      1.00000
      2      -8.7987      1.00000
      3      -8.2780      1.00000
      4      -8.2564      1.00000
      5      -8.1763      1.00000
      6      -7.9888      1.00000
      7      -7.6899      1.00000
      8      -7.6796      1.00000
      9      -7.2759      1.00000
     10      -7.2550      1.00000
     11      -7.1586      1.00000
     12      -6.9984      1.00000
     13      -6.9818      1.00000
     14      -6.9658      1.00000
     15      -6.8552      1.00000
     16      -6.8379      1.00000
     17      -6.7942      1.00000
     18      -6.7491      1.00000
     19      -6.6801      1.00000
     20      -6.4612      1.00000
     21      -6.2072      1.00000
     22      -4.2626      1.00000
     23      -3.4186      0.00000
     24      -2.2334      0.00000
     25      -1.6631      0.00000
     26      -0.9329      0.00000
     27      -0.8823      0.00000
     28      -0.3685      0.00000


--------------------------------------------------------------------------------------------------------


 soft charge-density along one line, spin component           1
         0         1         2         3         4         5         6         7         8         9
 total charge-density along one line
 
 soft charge-density along one line, spin component           2
         0         1         2         3         4         5         6         7         8         9
 total charge-density along one line
 
 pseudopotential strength for first ion, spin component:           1
-10.976   0.011   0.010   0.014   0.001 -10.872   0.010   0.010
  0.011 -10.989   0.009  -0.015  -0.014   0.010 -10.884   0.009
  0.010   0.009 -10.987   0.005  -0.003   0.010   0.009 -10.883
  0.014  -0.015   0.005 -10.980   0.008   0.013  -0.014   0.005
  0.001  -0.014  -0.003   0.008 -10.970   0.001  -0.014  -0.003
-10.872   0.010   0.010   0.013   0.001 -10.744   0.010   0.010
  0.010 -10.884   0.009  -0.014  -0.014   0.010 -10.756   0.008
  0.010   0.009 -10.883   0.005  -0.003   0.010   0.008 -10.755
  0.013  -0.014   0.005 -10.876   0.007   0.013  -0.013   0.004
  0.001  -0.014  -0.003   0.007 -10.867   0.001  -0.013  -0.003
 -0.001  -0.010  -0.001  -0.009  -0.001  -0.001  -0.009  -0.001
  0.008   0.005   0.005   0.007  -0.000   0.008   0.005   0.005
  0.012  -0.020  -0.010   0.001  -0.017   0.011  -0.019  -0.010
  0.001   0.016  -0.024   0.011  -0.000   0.001   0.016  -0.023
  0.017   0.001  -0.007  -0.020   0.012   0.016   0.001  -0.007
 -0.008   0.013   0.006   0.000   0.011  -0.007   0.012   0.006
  0.000  -0.011   0.015  -0.007  -0.000   0.000  -0.010   0.014
 -0.011   0.000   0.004   0.013  -0.007  -0.010   0.000   0.004
 -0.023   0.000  -0.000  -0.001  -0.033  -0.022   0.000  -0.000
  0.031  -0.017  -0.000  -0.025   0.000   0.029  -0.016  -0.000
  0.006   0.039  -0.028  -0.001  -0.009   0.006   0.037  -0.027
  0.001   0.021   0.042   0.014  -0.000   0.001   0.020   0.040
  0.009  -0.001  -0.020   0.040   0.006   0.009  -0.001  -0.019
  0.000   0.026   0.000  -0.019   0.031   0.000   0.025   0.000
  0.032   0.001   0.001   0.001  -0.023   0.031   0.001   0.001
  0.038  -0.001   0.001   0.002   0.056   0.037  -0.001   0.001
 -0.054   0.030   0.000   0.044  -0.000  -0.052   0.028   0.000
 -0.009  -0.067   0.049   0.001   0.016  -0.009  -0.063   0.046
 -0.002  -0.035  -0.071  -0.024   0.001  -0.002  -0.034  -0.067
 -0.015   0.001   0.034  -0.068  -0.011  -0.014   0.001   0.033
 -0.000  -0.045  -0.000   0.033  -0.054  -0.000  -0.043  -0.000
 -0.056  -0.002  -0.002  -0.001   0.039  -0.053  -0.002  -0.002
 pseudopotential strength for first ion, spin component:           2
-10.976   0.011   0.010   0.014   0.001 -10.872   0.010   0.010
  0.011 -10.989   0.009  -0.015  -0.014   0.010 -10.884   0.009
  0.010   0.009 -10.987   0.005  -0.003   0.010   0.009 -10.883
  0.014  -0.015   0.005 -10.980   0.008   0.013  -0.014   0.005
  0.001  -0.014  -0.003   0.008 -10.970   0.001  -0.014  -0.003
-10.872   0.010   0.010   0.013   0.001 -10.744   0.010   0.010
  0.010 -10.884   0.009  -0.014  -0.014   0.010 -10.756   0.008
  0.010   0.009 -10.883   0.005  -0.003   0.010   0.008 -10.755
  0.013  -0.014   0.005 -10.876   0.007   0.013  -0.013   0.004
  0.001  -0.014  -0.003   0.007 -10.867   0.001  -0.013  -0.003
 -0.001  -0.010  -0.001  -0.009  -0.001  -0.001  -0.009  -0.001
  0.008   0.005   0.005   0.007  -0.000   0.008   0.005   0.005
  0.012  -0.020  -0.010   0.001  -0.017   0.011  -0.019  -0.010
  0.001   0.016  -0.024   0.011  -0.000   0.001   0.016  -0.023
  0.017   0.001  -0.007  -0.020   0.012   0.016   0.001  -0.007
 -0.008   0.013   0.006   0.000   0.011  -0.007   0.012   0.006
  0.000  -0.011   0.015  -0.007  -0.000   0.000  -0.010   0.014
 -0.011   0.000   0.004   0.013  -0.007  -0.010   0.000   0.004
 -0.023   0.000  -0.000  -0.001  -0.033  -0.022   0.000  -0.000
  0.031  -0.017  -0.000  -0.025   0.000   0.029  -0.016  -0.000
  0.006   0.039  -0.028  -0.001  -0.009   0.006   0.037  -0.027
  0.001   0.021   0.042   0.014  -0.000   0.001   0.020   0.040
  0.009  -0.001  -0.020   0.040   0.006   0.009  -0.001  -0.019
  0.000   0.026   0.000  -0.019   0.031   0.000   0.025   0.000
  0.032   0.001   0.001   0.001  -0.023   0.031   0.001   0.001
  0.038  -0.001   0.001   0.002   0.056   0.037  -0.001   0.001
 -0.054   0.030   0.000   0.044  -0.000  -0.052   0.028   0.000
 -0.009  -0.067   0.049   0.001   0.016  -0.009  -0.063   0.046
 -0.002  -0.035  -0.071  -0.024   0.001  -0.002  -0.034  -0.067
 -0.015   0.001   0.034  -0.068  -0.011  -0.014   0.001   0.033
 -0.000  -0.045  -0.000   0.033  -0.054  -0.000  -0.043  -0.000
 -0.056  -0.002  -0.002  -0.001   0.039  -0.053  -0.002  -0.002
 total augmentation occupancy for first ion, spin component:           1
  2.598  -0.006   0.083  -0.088   0.068  -0.639   0.079  -0.142   0.129  -0.050   0.220  -0.001  -0.010  -0.005   0.076  -0.002
 -0.006   2.764   0.012  -0.030   0.221   0.079  -0.753   0.031   0.004  -0.268   0.439   0.006  -0.181   0.096   0.046  -0.002
  0.083   0.012   2.508  -0.064   0.052  -0.142   0.031  -0.477   0.085  -0.048   0.134  -0.000  -0.049  -0.053   0.014   0.000
 -0.088  -0.030  -0.064   2.826  -0.256   0.130   0.004   0.085  -0.781   0.283   0.447   0.005   0.059   0.107  -0.210  -0.000
  0.068   0.221   0.052  -0.256   2.841  -0.050  -0.268  -0.048   0.283  -0.785   0.039   0.001  -0.183  -0.013   0.177  -0.001
 -0.639   0.079  -0.142   0.130  -0.050   0.653  -0.143   0.190  -0.168   0.035  -0.190  -0.002   0.007   0.007  -0.073  -0.000
  0.079  -0.753   0.031   0.004  -0.268  -0.143   0.726  -0.069   0.023   0.312  -0.393  -0.007   0.182  -0.104  -0.036   0.006
 -0.142   0.031  -0.477   0.085  -0.048   0.190  -0.069   0.431  -0.104   0.046  -0.116  -0.001   0.045   0.051  -0.014   0.001
  0.129   0.004   0.085  -0.781   0.283  -0.168   0.023  -0.104   0.724  -0.308  -0.398  -0.007  -0.046  -0.112   0.204   0.000
 -0.050  -0.268  -0.048   0.283  -0.785   0.035   0.312   0.046  -0.308   0.716  -0.036  -0.001   0.174   0.010  -0.165   0.005
  0.220   0.439   0.134   0.447   0.039  -0.190  -0.393  -0.116  -0.398  -0.036   1.001   0.013  -0.126   0.149  -0.088  -0.005
 -0.001   0.006  -0.000   0.005   0.001  -0.002  -0.007  -0.001  -0.007  -0.001   0.013   0.000  -0.002   0.002  -0.001  -0.000
 -0.010  -0.181  -0.049   0.059  -0.183   0.007   0.182   0.045  -0.046   0.174  -0.126  -0.002   0.090  -0.013  -0.053   0.003
 -0.005   0.096  -0.053   0.107  -0.013   0.007  -0.104   0.051  -0.112   0.010   0.149   0.002  -0.013   0.042  -0.027  -0.001
  0.076   0.046   0.014  -0.210   0.177  -0.073  -0.036  -0.014   0.204  -0.165  -0.088  -0.001  -0.053  -0.027   0.099  -0.001
 -0.002  -0.002   0.000  -0.000  -0.001  -0.000   0.006   0.001   0.000   0.005  -0.005  -0.000   0.003  -0.001  -0.001   0.000
 -0.000   0.001   0.002   0.002   0.000   0.000  -0.004   0.002  -0.004  -0.000   0.006   0.000  -0.001   0.002  -0.001  -0.000
 -0.001  -0.000   0.001  -0.002   0.002  -0.002   0.000  -0.000   0.006  -0.004  -0.004  -0.000  -0.001  -0.001   0.002  -0.000
  0.012  -0.001   0.004   0.004   0.011  -0.012   0.002  -0.006  -0.004  -0.009   0.008   0.000   0.001   0.001  -0.004   0.000
 -0.031   0.017  -0.004   0.018   0.002   0.036  -0.019   0.007  -0.018  -0.003   0.003   0.000  -0.004   0.001  -0.004  -0.000
  0.009  -0.023   0.020  -0.009   0.007  -0.013   0.023  -0.022   0.011  -0.006  -0.007  -0.000  -0.001  -0.006   0.004   0.000
 -0.001  -0.015  -0.017  -0.013   0.000   0.002   0.015   0.015   0.013  -0.001  -0.020  -0.000   0.004  -0.004   0.004   0.000
 -0.000  -0.008   0.014  -0.022  -0.005  -0.001   0.010  -0.014   0.020   0.005  -0.013  -0.000   0.004  -0.005  -0.001   0.000
 -0.000  -0.027  -0.001   0.024  -0.036  -0.001   0.029  -0.000  -0.025   0.038  -0.001  -0.000   0.008  -0.000  -0.008   0.000
 -0.024  -0.001  -0.010   0.003   0.006   0.027  -0.001   0.013  -0.003  -0.005  -0.012  -0.000   0.004  -0.000  -0.003   0.000
  0.001  -0.000   0.001   0.001  -0.000  -0.004   0.001  -0.002  -0.001  -0.003   0.003   0.000   0.000   0.000  -0.001  -0.000
 -0.006   0.003  -0.002   0.003   0.001   0.011  -0.006   0.002  -0.006  -0.001   0.001   0.000  -0.001   0.000  -0.001  -0.000
  0.004  -0.003   0.003  -0.003   0.001  -0.004   0.007  -0.007   0.003  -0.002  -0.002  -0.000  -0.000  -0.002   0.001   0.000
 -0.000  -0.002  -0.001  -0.002   0.000   0.001   0.004   0.005   0.004  -0.000  -0.006  -0.000   0.001  -0.001   0.001   0.000
  0.001  -0.003   0.002  -0.002  -0.001  -0.001   0.003  -0.004   0.006   0.001  -0.004  -0.000   0.001  -0.002  -0.000   0.000
  0.000  -0.006  -0.000   0.005  -0.008  -0.001   0.009  -0.000  -0.008   0.012  -0.000  -0.000   0.003  -0.000  -0.002   0.000
 -0.004   0.000  -0.003   0.001  -0.001   0.008  -0.000   0.004  -0.001  -0.001  -0.004  -0.000   0.001  -0.000  -0.001   0.000
 total augmentation occupancy for first ion, spin component:           2
  0.000  -0.000   0.000   0.000   0.000  -0.000   0.000   0.000   0.000  -0.000  -0.000  -0.000  -0.000  -0.000   0.000  -0.000
 -0.000   0.000  -0.000  -0.000   0.000   0.000  -0.000   0.000  -0.000  -0.000   0.000   0.000  -0.000   0.000  -0.000  -0.000
  0.000  -0.000  -0.000   0.000   0.000  -0.000   0.000   0.000  -0.000  -0.000   0.000   0.000   0.000   0.000  -0.000   0.000
  0.000  -0.000   0.000  -0.000  -0.000  -0.000   0.000  -0.000  -0.000   0.000  -0.000  -0.000   0.000  -0.000   0.000   0.000
  0.000   0.000   0.000  -0.000  -0.000  -0.000  -0.000  -0.000   0.000   0.000  -0.000  -0.000   0.000  -0.000   0.000   0.000
 -0.000   0.000  -0.000  -0.000  -0.000   0.000  -0.000  -0.000  -0.000   0.000   0.000   0.000   0.000   0.000  -0.000   0.000
  0.000  -0.000   0.000   0.000  -0.000  -0.000   0.000  -0.000   0.000   0.000  -0.000  -0.000   0.000  -0.000   0.000   0.000
  0.000   0.000   0.000  -0.000  -0.000  -0.000  -0.000  -0.000   0.000  -0.000  -0.000  -0.000  -0.000  -0.000   0.000  -0.000
  0.000  -0.000  -0.000  -0.000   0.000  -0.000   0.000   0.000   0.000  -0.000   0.000   0.000  -0.000   0.000   0.000  -0.000
 -0.000  -0.000  -0.000   0.000   0.000   0.000   0.000  -0.000  -0.000  -0.000   0.000   0.000  -0.000   0.000  -0.000   0.000
 -0.000   0.000   0.000  -0.000  -0.000   0.000  -0.000  -0.000   0.000   0.000   0.000   0.000  -0.000   0.000  -0.000  -0.000
 -0.000   0.000   0.000  -0.000  -0.000   0.000  -0.000  -0.000   0.000   0.000   0.000   0.000  -0.000   0.000  -0.000  -0.000
 -0.000  -0.000   0.000   0.000   0.000   0.000   0.000  -0.000  -0.000  -0.000  -0.000  -0.000  -0.000  -0.000   0.000   0.000
 -0.000   0.000   0.000  -0.000  -0.000   0.000  -0.000  -0.000   0.000   0.000   0.000   0.000  -0.000   0.000   0.000  -0.000
  0.000  -0.000  -0.000   0.000   0.000  -0.000   0.000   0.000   0.000  -0.000  -0.000  -0.000   0.000   0.000  -0.000  -0.000
 -0.000  -0.000   0.000   0.000   0.000   0.000   0.000  -0.000  -0.000   0.000  -0.000  -0.000   0.000  -0.000  -0.000   0.000
 -0.000  -0.000   0.000   0.000  -0.000   0.000  -0.000   0.000  -0.000   0.000   0.000   0.000   0.000   0.000  -0.000  -0.000
 -0.000  -0.000  -0.000   0.000  -0.000  -0.000   0.000   0.000  -0.000  -0.000  -0.000  -0.000   0.000   0.000  -0.000  -0.000
  0.000   0.000   0.000   0.000   0.000  -0.000  -0.000  -0.000  -0.000   0.000   0.000  -0.000  -0.000   0.000   0.000   0.000
  0.000  -0.000  -0.000   0.000  -0.000  -0.000  -0.000   0.000  -0.000   0.000   0.000  -0.000   0.000   0.000  -0.000  -0.000
  0.000  -0.000  -0.000   0.000  -0.000  -0.000   0.000   0.000  -0.000   0.000   0.000  -0.000   0.000   0.000  -0.000   0.000
  0.000  -0.000   0.000  -0.000   0.000  -0.000   0.000  -0.000   0.000  -0.000   0.000  -0.000  -0.000  -0.000   0.000  -0.000
 -0.000  -0.000  -0.000   0.000  -0.000   0.000   0.000   0.000  -0.000  -0.000  -0.000   0.000   0.000  -0.000  -0.000   0.000
 -0.000  -0.000   0.000   0.000  -0.000   0.000   0.000  -0.000  -0.000   0.000  -0.000   0.000   0.000  -0.000  -0.000   0.000
  0.000  -0.000  -0.000   0.000   0.000  -0.000   0.000  -0.000  -0.000  -0.000   0.000  -0.000  -0.000   0.000   0.000   0.000
  0.000   0.000   0.000  -0.000   0.000  -0.000  -0.000  -0.000  -0.000  -0.000   0.000  -0.000  -0.000   0.000   0.000   0.000
 -0.000  -0.000  -0.000   0.000  -0.000   0.000   0.000   0.000  -0.000   0.000   0.000   0.000   0.000   0.000  -0.000  -0.000
 -0.000  -0.000  -0.000   0.000  -0.000  -0.000   0.000   0.000  -0.000   0.000   0.000  -0.000   0.000   0.000  -0.000   0.000
  0.000   0.000   0.000  -0.000   0.000  -0.000  -0.000  -0.000   0.000  -0.000   0.000  -0.000  -0.000  -0.000   0.000  -0.000
 -0.000  -0.000  -0.000   0.000  -0.000   0.000   0.000   0.000  -0.000   0.000  -0.000   0.000   0.000   0.000  -0.000   0.000
 -0.000  -0.000   0.000   0.000  -0.000   0.000   0.000  -0.000  -0.000   0.000   0.000   0.000   0.000  -0.000  -0.000   0.000
 -0.000   0.000  -0.000   0.000  -0.000  -0.000  -0.000  -0.000  -0.000   0.000   0.000  -0.000  -0.000   0.000  -0.000   0.000


------------------------ aborting loop because EDIFF is reached ----------------------------------------


 


 total charge     
 
# of ion       s       p       d       f       tot
--------------------------------------------------
    1        0.424   0.169   9.448   0.012  10.053
    2        0.601   0.059   9.401   0.006  10.067
    3        0.601   0.059   9.401   0.006  10.067
    4        0.424   0.169   9.448   0.012  10.053
--------------------------------------------------
tot          2.050   0.455  37.698   0.037  40.240

 


 magnetization (x)
 
# of ion       s       p       d       f       tot
--------------------------------------------------
    1        0.000  -0.000   0.000  -0.000   0.000
    2       -0.000  -0.000  -0.000   0.000  -0.000
    3       -0.000  -0.000  -0.000   0.000  -0.000
    4        0.000  -0.000   0.000  -0.000   0.000
--------------------------------------------------
tot          0.000  -0.000  -0.000   0.000  -0.000

 
    CHARGE:  cpu time    2.5516: real time    2.5625
    FORLOC:  cpu time    0.0370: real time    0.0369
    FORNL :  cpu time   12.6471: real time   12.7444
    FORCOR:  cpu time    6.4510: real time    6.4687
    FORHAR:  cpu time    0.3949: real time    0.3945
    MIXING:  cpu time    0.1430: real time    0.1448
    OFIELD:  cpu time    0.0000: real time    0.0000

 VOLUME and BASIS-vectors are now :
 -----------------------------------------------------------------------------
  energy-cutoff  :      500.00
  volume of cell :     4913.00
      direct lattice vectors                 reciprocal lattice vectors
    17.000000000  0.000000000  0.000000000     0.058823529  0.000000000  0.000000000
     0.000000000 17.000000000  0.000000000     0.000000000  0.058823529  0.000000000
     0.000000000  0.000000000 17.000000000     0.000000000  0.000000000  0.058823529

  length of vectors
    17.000000000 17.000000000 17.000000000     0.058823529  0.058823529  0.058823529


 FORCES acting on ions
    electron-ion (+dipol)            ewald-force                    non-local-force                 convergence-correction
 -----------------------------------------------------------------------------------------------
   -.195E+03 -.279E+03 0.330E+03   0.194E+03 0.278E+03 -.328E+03   0.117E+01 0.169E+01 -.199E+01   -.497E-02 -.124E-01 0.128E-01
   0.356E+03 -.310E+03 -.520E+02   -.354E+03 0.309E+03 0.518E+02   -.177E+01 0.154E+01 0.256E+00   -.519E-01 0.458E-01 0.802E-02
   -.356E+03 0.310E+03 0.520E+02   0.354E+03 -.309E+03 -.518E+02   0.177E+01 -.154E+01 -.256E+00   0.519E-01 -.458E-01 -.802E-02
   0.195E+03 0.279E+03 -.330E+03   -.194E+03 -.278E+03 0.328E+03   -.117E+01 -.169E+01 0.199E+01   0.497E-02 0.124E-01 -.128E-01
 -----------------------------------------------------------------------------------------------
   0.296E-01 0.290E-01 0.402E-01   0.000E+00 0.568E-13 -.568E-13   0.000E+00 0.000E+00 0.000E+00   -.250E-05 -.185E-05 -.312E-05
 
 
 POSITION                                       TOTAL-FORCE (eV/Angst)
 -----------------------------------------------------------------------------------
      0.53747      0.76876     16.09154        -0.005272     -0.002803      0.004602
     15.20184      1.56430      0.26210        -0.023533      0.020556      0.002808
      1.79812     15.43567     16.73785         0.023533     -0.020556     -0.002808
     16.46251     16.23121      0.90843         0.005272      0.002803     -0.004602
 -----------------------------------------------------------------------------------
    total drift:                                0.029641      0.029036      0.040242


--------------------------------------------------------------------------------------------------------



  FREE ENERGIE OF THE ION-ELECTRON SYSTEM (eV)
  ---------------------------------------------------
  free  energy   TOTEN  =        -5.44960094 eV

  energy  without entropy=       -5.44960094  energy(sigma->0) =       -5.44960094
 
 d Force =-0.4887204E-04[-0.917E-03, 0.819E-03]  d Energy =-0.1070201E-04-0.382E-04
 d Force =-0.7683519E+01[-0.772E+01,-0.765E+01]  d Ewald  =-0.7683564E+01 0.453E-04


--------------------------------------------------------------------------------------------------------


    POTLOK:  cpu time    6.7510: real time    6.7786


--------------------------------------------------------------------------------------------------------




--------------------------------------------------------------------------------------------------------


    WAVPRE:  cpu time    0.2410: real time    0.2502
    FEWALD:  cpu time    0.0000: real time    0.0002

 real space projection operators:
  total allocation   :       2345.25 KBytes
  max/ min on nodes  :        592.50        576.25

    ORTHCH:  cpu time    0.5049: real time    0.5063
     LOOP+:  cpu time  155.7933: real time  156.5963


--------------------------------------- Iteration      8(   1)  ---------------------------------------


    POTLOK:  cpu time    3.4285: real time    3.4412
    SETDIJ:  cpu time    3.3055: real time    3.3107
     EDDAV:  cpu time    4.6353: real time    4.6548
       DOS:  cpu time    0.0010: real time    0.0006
    CHARGE:  cpu time    2.5746: real time    2.5817
    MIXING:  cpu time    0.0700: real time    0.0709
    --------------------------------------------
      LOOP:  cpu time   14.0149: real time   14.0599

 eigenvalue-minimisations  :   112
 total energy-change (2. order) : 0.5322940E-03  (-0.1123383E+00)
 number of electron      44.0000001 magnetization       0.0000754
 augmentation part       21.1066033 magnetization       0.0000755

  free energy =  -0.544906908496E+01  energy without entropy=  -0.544906908496E+01


--------------------------------------------------------------------------------------------------------




--------------------------------------- Iteration      8(   2)  ---------------------------------------


    POTLOK:  cpu time    3.4115: real time    3.4271
    SETDIJ:  cpu time    3.3045: real time    3.3142
     EDDAV:  cpu time    5.4142: real time    5.4398
       DOS:  cpu time    0.0000: real time    0.0005
    CHARGE:  cpu time    2.5806: real time    2.5969
    MIXING:  cpu time    0.0940: real time    0.0942
    --------------------------------------------
      LOOP:  cpu time   14.8048: real time   14.8727

 eigenvalue-minimisations  :   144
 total energy-change (2. order) :-0.7668240E-03  (-0.7780202E-03)
 number of electron      44.0000001 magnetization       0.0000710
 augmentation part       21.1061870 magnetization       0.0000710

 eigenvalues of (default mixing * dielectric matrix)
  average eigenvalue GAMMA=   0.5952
  0.5952

  free energy =  -0.544983590896E+01  energy without entropy=  -0.544983590896E+01


--------------------------------------------------------------------------------------------------------




--------------------------------------- Iteration      8(   3)  ---------------------------------------


    POTLOK:  cpu time    3.4025: real time    3.4178
    SETDIJ:  cpu time    3.3075: real time    3.3213
     EDDAV:  cpu time    5.3862: real time    5.4483
       DOS:  cpu time    0.0000: real time    0.0005
    CHARGE:  cpu time    2.5776: real time    2.6004
    MIXING:  cpu time    0.1020: real time    0.1015
    --------------------------------------------
      LOOP:  cpu time   14.7758: real time   14.8898

 eigenvalue-minimisations  :   144
 total energy-change (2. order) :-0.1262577E-04  (-0.1038825E-04)
 number of electron      44.0000001 magnetization       0.0000455
 augmentation part       21.1062507 magnetization       0.0000458

 eigenvalues of (default mixing * dielectric matrix)
  average eigenvalue GAMMA=   2.2336
  1.1185  3.3487

  free energy =  -0.544984853473E+01  energy without entropy=  -0.544984853473E+01


--------------------------------------------------------------------------------------------------------




--------------------------------------- Iteration      8(   4)  ---------------------------------------


    POTLOK:  cpu time    3.4105: real time    3.4195
    SETDIJ:  cpu time    3.2885: real time    3.2966
     EDDAV:  cpu time    3.5325: real time    3.5444
       DOS:  cpu time    0.0010: real time    0.0004
    CHARGE:  cpu time    2.5636: real time    2.5759
    MIXING:  cpu time    0.1020: real time    0.1027
    --------------------------------------------
      LOOP:  cpu time   12.8980: real time   12.9393

 eigenvalue-minimisations  :    80
 total energy-change (2. order) : 0.6959742E-05  (-0.3296295E-06)
 number of electron      44.0000001 magnetization      -0.0000347
 augmentation part       21.1061204 magnetization      -0.0000344

 eigenvalues of (default mixing * dielectric matrix)
  average eigenvalue GAMMA=   5.3980
 14.3300  1.1181  0.7459

  free energy =  -0.544984157499E+01  energy without entropy=  -0.544984157499E+01


--------------------------------------------------------------------------------------------------------




--------------------------------------- Iteration      8(   5)  ---------------------------------------


    POTLOK:  cpu time    3.4215: real time    3.4287
    SETDIJ:  cpu time    3.3135: real time    3.3224
     EDDAV:  cpu time    5.4992: real time    5.5206
       DOS:  cpu time    0.0000: real time    0.0003
    CHARGE:  cpu time    2.5906: real time    2.6026
    MIXING:  cpu time    0.1030: real time    0.1177
    --------------------------------------------
      LOOP:  cpu time   14.9277: real time   14.9921

 eigenvalue-minimisations  :   144
 total energy-change (2. order) : 0.1109785E-04  (-0.4068536E-05)
 number of electron      44.0000001 magnetization      -0.0000182
 augmentation part       21.1056423 magnetization      -0.0000181

 eigenvalues of (default mixing * dielectric matrix)
  average eigenvalue GAMMA=   5.9661
 16.9257  4.9787  0.9800  0.9800

  free energy =  -0.544983047714E+01  energy without entropy=  -0.544983047714E+01


--------------------------------------------------------------------------------------------------------




--------------------------------------- Iteration      8(   6)  ---------------------------------------


    POTLOK:  cpu time    3.3965: real time    3.4264
    SETDIJ:  cpu time    3.3095: real time    3.3168
     EDDAV:  cpu time    4.9003: real time    4.9175
       DOS:  cpu time    0.0000: real time    0.0002
    --------------------------------------------
      LOOP:  cpu time   11.6062: real time   11.6609

 eigenvalue-minimisations  :   128
 total energy-change (2. order) : 0.2818970E-06  (-0.7355816E-06)
 number of electron      44.0000001 magnetization      -0.0000182
 augmentation part       21.1056423 magnetization      -0.0000181

  free energy =  -0.544983019525E+01  energy without entropy=  -0.544983019525E+01


--------------------------------------------------------------------------------------------------------




 average (electrostatic) potential at core
  the test charge radii are     1.1249
  (the norm of the test charge is              1.0000)
       1 -97.7790       2 -97.1406       3 -97.1407       4 -97.7790
 
 
 
 E-fermi :  -4.2266     XC(G=0):  -0.4886     alpha+bet : -0.1892


 spin component 1

 k-point     1 :       0.0000    0.0000    0.0000
  band No.  band energies     occupation 
      1      -8.8366      1.00000
      2      -8.7951      1.00000
      3      -8.2798      1.00000
      4      -8.2447      1.00000
      5      -8.1729      1.00000
      6      -7.9842      1.00000
      7      -7.6831      1.00000
      8      -7.6631      1.00000
      9      -7.2705      1.00000
     10      -7.2513      1.00000
     11      -7.1567      1.00000
     12      -6.9928      1.00000
     13      -6.9771      1.00000
     14      -6.9639      1.00000
     15      -6.8584      1.00000
     16      -6.8367      1.00000
     17      -6.7933      1.00000
     18      -6.7482      1.00000
     19      -6.6808      1.00000
     20      -6.4590      1.00000
     21      -6.2028      1.00000
     22      -4.2642      1.00000
     23      -3.4130      0.00000
     24      -2.2417      0.00000
     25      -1.6611      0.00000
     26      -0.9294      0.00000
     27      -0.8772      0.00000
     28      -0.3766      0.00000

 spin component 2

 k-point     1 :       0.0000    0.0000    0.0000
  band No.  band energies     occupation 
      1      -8.8366      1.00000
      2      -8.7951      1.00000
      3      -8.2798      1.00000
      4      -8.2447      1.00000
      5      -8.1729      1.00000
      6      -7.9842      1.00000
      7      -7.6831      1.00000
      8      -7.6631      1.00000
      9      -7.2705      1.00000
     10      -7.2513      1.00000
     11      -7.1567      1.00000
     12      -6.9928      1.00000
     13      -6.9771      1.00000
     14      -6.9639      1.00000
     15      -6.8584      1.00000
     16      -6.8367      1.00000
     17      -6.7933      1.00000
     18      -6.7482      1.00000
     19      -6.6809      1.00000
     20      -6.4591      1.00000
     21      -6.2028      1.00000
     22      -4.2642      1.00000
     23      -3.4130      0.00000
     24      -2.2417      0.00000
     25      -1.6611      0.00000
     26      -0.9294      0.00000
     27      -0.8772      0.00000
     28      -0.3766      0.00000


--------------------------------------------------------------------------------------------------------


 soft charge-density along one line, spin component           1
         0         1         2         3         4         5         6         7         8         9
 total charge-density along one line
 
 soft charge-density along one line, spin component           2
         0         1         2         3         4         5         6         7         8         9
 total charge-density along one line
 
 pseudopotential strength for first ion, spin component:           1
-10.976   0.011   0.011   0.014   0.001 -10.872   0.010   0.010
  0.011 -10.989   0.009  -0.015  -0.014   0.010 -10.884   0.009
  0.011   0.009 -10.987   0.005  -0.003   0.010   0.009 -10.883
  0.014  -0.015   0.005 -10.980   0.008   0.013  -0.014   0.005
  0.001  -0.014  -0.003   0.008 -10.970   0.001  -0.014  -0.003
-10.872   0.010   0.010   0.013   0.001 -10.744   0.010   0.010
  0.010 -10.884   0.009  -0.014  -0.014   0.010 -10.756   0.008
  0.010   0.009 -10.883   0.005  -0.003   0.010   0.008 -10.755
  0.013  -0.014   0.005 -10.876   0.007   0.013  -0.014   0.004
  0.001  -0.014  -0.003   0.007 -10.866   0.001  -0.013  -0.003
 -0.001  -0.010  -0.001  -0.009  -0.001  -0.001  -0.010  -0.001
  0.008   0.005   0.005   0.007  -0.000   0.008   0.005   0.005
  0.012  -0.020  -0.010   0.001  -0.017   0.011  -0.019  -0.010
  0.001   0.016  -0.024   0.011  -0.000   0.001   0.016  -0.023
  0.017   0.001  -0.007  -0.020   0.012   0.016   0.001  -0.007
 -0.008   0.013   0.006   0.000   0.010  -0.007   0.012   0.006
  0.000  -0.011   0.015  -0.007  -0.000   0.000  -0.010   0.014
 -0.011   0.000   0.004   0.012  -0.007  -0.010   0.000   0.004
 -0.023   0.000  -0.000  -0.001  -0.033  -0.022   0.000  -0.000
  0.031  -0.017  -0.000  -0.025   0.000   0.029  -0.016  -0.000
  0.006   0.039  -0.028  -0.001  -0.009   0.006   0.037  -0.027
  0.001   0.021   0.042   0.014  -0.000   0.001   0.020   0.040
  0.009  -0.001  -0.020   0.040   0.006   0.009  -0.001  -0.019
  0.000   0.026   0.000  -0.019   0.031   0.000   0.025   0.000
  0.032   0.001   0.001   0.001  -0.023   0.031   0.001   0.001
  0.038  -0.001   0.001   0.002   0.056   0.036  -0.001   0.001
 -0.054   0.029   0.000   0.043  -0.000  -0.051   0.028   0.000
 -0.009  -0.066   0.048   0.001   0.016  -0.009  -0.063   0.046
 -0.002  -0.035  -0.071  -0.024   0.001  -0.002  -0.033  -0.067
 -0.015   0.001   0.034  -0.067  -0.011  -0.014   0.001   0.033
 -0.000  -0.045  -0.000   0.033  -0.054  -0.000  -0.043  -0.000
 -0.056  -0.002  -0.002  -0.001   0.039  -0.053  -0.002  -0.002
 pseudopotential strength for first ion, spin component:           2
-10.976   0.011   0.011   0.014   0.001 -10.872   0.010   0.010
  0.011 -10.989   0.009  -0.015  -0.014   0.010 -10.884   0.009
  0.011   0.009 -10.987   0.005  -0.003   0.010   0.009 -10.883
  0.014  -0.015   0.005 -10.980   0.008   0.013  -0.014   0.005
  0.001  -0.014  -0.003   0.008 -10.970   0.001  -0.014  -0.003
-10.872   0.010   0.010   0.013   0.001 -10.744   0.010   0.010
  0.010 -10.884   0.009  -0.014  -0.014   0.010 -10.756   0.008
  0.010   0.009 -10.883   0.005  -0.003   0.010   0.008 -10.755
  0.013  -0.014   0.005 -10.876   0.007   0.013  -0.014   0.004
  0.001  -0.014  -0.003   0.007 -10.866   0.001  -0.013  -0.003
 -0.001  -0.010  -0.001  -0.009  -0.001  -0.001  -0.010  -0.001
  0.008   0.005   0.005   0.007  -0.000   0.008   0.005   0.005
  0.012  -0.020  -0.010   0.001  -0.017   0.011  -0.019  -0.010
  0.001   0.016  -0.024   0.011  -0.000   0.001   0.016  -0.023
  0.017   0.001  -0.007  -0.020   0.012   0.016   0.001  -0.007
 -0.008   0.013   0.006   0.000   0.010  -0.007   0.012   0.006
  0.000  -0.011   0.015  -0.007  -0.000   0.000  -0.010   0.014
 -0.011   0.000   0.004   0.012  -0.007  -0.010   0.000   0.004
 -0.023   0.000  -0.000  -0.001  -0.033  -0.022   0.000  -0.000
  0.031  -0.017  -0.000  -0.025   0.000   0.029  -0.016  -0.000
  0.006   0.039  -0.028  -0.001  -0.009   0.006   0.037  -0.027
  0.001   0.021   0.042   0.014  -0.000   0.001   0.020   0.040
  0.009  -0.001  -0.020   0.040   0.006   0.009  -0.001  -0.019
  0.000   0.026   0.000  -0.019   0.031   0.000   0.025   0.000
  0.032   0.001   0.001   0.001  -0.023   0.031   0.001   0.001
  0.038  -0.001   0.001   0.002   0.056   0.036  -0.001   0.001
 -0.054   0.029   0.000   0.043  -0.000  -0.051   0.028   0.000
 -0.009  -0.066   0.048   0.001   0.016  -0.009  -0.063   0.046
 -0.002  -0.035  -0.071  -0.024   0.001  -0.002  -0.033  -0.067
 -0.015   0.001   0.034  -0.067  -0.011  -0.014   0.001   0.033
 -0.000  -0.045  -0.000   0.033  -0.054  -0.000  -0.043  -0.000
 -0.056  -0.002  -0.002  -0.001   0.039  -0.053  -0.002  -0.002
 total augmentation occupancy for first ion, spin component:           1
  2.596  -0.008   0.081  -0.089   0.067  -0.637   0.081  -0.139   0.131  -0.049   0.215  -0.001  -0.009  -0.005   0.076  -0.002
 -0.008   2.766   0.011  -0.027   0.220   0.082  -0.755   0.033  -0.001  -0.268   0.442   0.006  -0.181   0.097   0.045  -0.002
  0.081   0.011   2.509  -0.064   0.052  -0.139   0.033  -0.478   0.085  -0.048   0.132  -0.000  -0.049  -0.053   0.014   0.000
 -0.089  -0.027  -0.064   2.826  -0.254   0.132  -0.001   0.086  -0.780   0.280   0.448   0.005   0.057   0.108  -0.209  -0.000
  0.067   0.220   0.052  -0.254   2.838  -0.049  -0.268  -0.048   0.281  -0.781   0.040   0.001  -0.182  -0.012   0.176  -0.001
 -0.637   0.082  -0.139   0.132  -0.049   0.650  -0.146   0.186  -0.171   0.034  -0.185  -0.002   0.006   0.008  -0.073  -0.000
  0.081  -0.755   0.033  -0.001  -0.268  -0.146   0.728  -0.072   0.029   0.312  -0.395  -0.007   0.182  -0.104  -0.034   0.006
 -0.139   0.033  -0.478   0.086  -0.048   0.186  -0.072   0.432  -0.105   0.045  -0.113  -0.001   0.045   0.051  -0.014   0.001
  0.131  -0.001   0.085  -0.780   0.281  -0.171   0.029  -0.105   0.722  -0.305  -0.399  -0.007  -0.045  -0.112   0.203   0.000
 -0.049  -0.268  -0.048   0.280  -0.781   0.034   0.312   0.045  -0.305   0.710  -0.037  -0.001   0.173   0.009  -0.164   0.005
  0.215   0.442   0.132   0.448   0.040  -0.185  -0.395  -0.113  -0.399  -0.037   1.001   0.013  -0.126   0.149  -0.088  -0.005
 -0.001   0.006  -0.000   0.005   0.001  -0.002  -0.007  -0.001  -0.007  -0.001   0.013   0.000  -0.002   0.002  -0.001  -0.000
 -0.009  -0.181  -0.049   0.057  -0.182   0.006   0.182   0.045  -0.045   0.173  -0.126  -0.002   0.090  -0.013  -0.053   0.003
 -0.005   0.097  -0.053   0.108  -0.012   0.008  -0.104   0.051  -0.112   0.009   0.149   0.002  -0.013   0.042  -0.027  -0.001
  0.076   0.045   0.014  -0.209   0.176  -0.073  -0.034  -0.014   0.203  -0.164  -0.088  -0.001  -0.053  -0.027   0.099  -0.001
 -0.002  -0.002   0.000  -0.000  -0.001  -0.000   0.006   0.001   0.000   0.005  -0.005  -0.000   0.003  -0.001  -0.001   0.000
 -0.000   0.001   0.002   0.002   0.000   0.000  -0.005   0.002  -0.004  -0.000   0.006   0.000  -0.001   0.002  -0.001  -0.000
 -0.001  -0.000   0.001  -0.002   0.002  -0.002   0.000  -0.000   0.006  -0.004  -0.004  -0.000  -0.001  -0.001   0.002  -0.000
  0.012  -0.001   0.004   0.004   0.011  -0.012   0.002  -0.006  -0.004  -0.009   0.008   0.000   0.001   0.001  -0.004   0.000
 -0.031   0.017  -0.004   0.018   0.002   0.036  -0.020   0.007  -0.018  -0.003   0.004   0.000  -0.005   0.001  -0.004  -0.000
  0.009  -0.024   0.021  -0.009   0.007  -0.013   0.024  -0.022   0.011  -0.006  -0.008  -0.000  -0.001  -0.006   0.004   0.000
 -0.001  -0.015  -0.017  -0.013   0.000   0.002   0.015   0.016   0.013  -0.000  -0.020  -0.000   0.004  -0.004   0.004   0.000
 -0.000  -0.009   0.014  -0.022  -0.005  -0.002   0.010  -0.015   0.021   0.005  -0.013  -0.000   0.004  -0.005  -0.001   0.000
  0.000  -0.027  -0.001   0.024  -0.036  -0.002   0.029  -0.000  -0.024   0.038  -0.001  -0.000   0.008  -0.000  -0.008   0.000
 -0.024  -0.001  -0.009   0.003   0.006   0.027  -0.001   0.012  -0.004  -0.005  -0.012  -0.000   0.004  -0.000  -0.003   0.000
  0.001  -0.000   0.001   0.001  -0.000  -0.004   0.001  -0.002  -0.001  -0.003   0.002   0.000   0.000   0.000  -0.001  -0.000
 -0.006   0.004  -0.002   0.003   0.001   0.011  -0.006   0.002  -0.006  -0.001   0.001   0.000  -0.001   0.000  -0.001  -0.000
  0.004  -0.003   0.003  -0.003   0.001  -0.004   0.007  -0.007   0.004  -0.002  -0.002  -0.000  -0.000  -0.002   0.001   0.000
 -0.000  -0.002  -0.001  -0.002  -0.000   0.000   0.004   0.005   0.004  -0.000  -0.006  -0.000   0.001  -0.001   0.001   0.000
  0.001  -0.003   0.002  -0.002  -0.001  -0.001   0.003  -0.005   0.006   0.001  -0.004  -0.000   0.001  -0.002  -0.000   0.000
  0.000  -0.006  -0.000   0.005  -0.008  -0.001   0.009  -0.000  -0.007   0.012  -0.000  -0.000   0.003  -0.000  -0.002   0.000
 -0.004   0.000  -0.003   0.001  -0.001   0.008  -0.001   0.004  -0.001  -0.001  -0.004  -0.000   0.001  -0.000  -0.001   0.000
 total augmentation occupancy for first ion, spin component:           2
  0.000   0.000  -0.000  -0.000   0.000  -0.000  -0.000   0.000   0.000  -0.000  -0.000   0.000   0.000  -0.000   0.000   0.000
  0.000  -0.000  -0.000  -0.000   0.000  -0.000   0.000   0.000   0.000  -0.000  -0.000   0.000  -0.000  -0.000   0.000   0.000
 -0.000  -0.000   0.000  -0.000  -0.000   0.000   0.000  -0.000   0.000   0.000  -0.000  -0.000   0.000  -0.000   0.000   0.000
 -0.000  -0.000  -0.000   0.000   0.000   0.000   0.000   0.000  -0.000  -0.000   0.000  -0.000   0.000   0.000  -0.000   0.000
  0.000   0.000  -0.000   0.000   0.000  -0.000  -0.000   0.000  -0.000  -0.000   0.000  -0.000  -0.000   0.000   0.000   0.000
 -0.000  -0.000   0.000   0.000  -0.000  -0.000  -0.000  -0.000  -0.000   0.000   0.000   0.000  -0.000   0.000  -0.000  -0.000
 -0.000   0.000   0.000   0.000  -0.000  -0.000  -0.000  -0.000  -0.000   0.000   0.000   0.000   0.000   0.000  -0.000  -0.000
  0.000   0.000  -0.000   0.000   0.000  -0.000  -0.000  -0.000  -0.000   0.000   0.000   0.000  -0.000   0.000  -0.000  -0.000
  0.000   0.000   0.000  -0.000  -0.000  -0.000  -0.000  -0.000   0.000  -0.000  -0.000   0.000  -0.000  -0.000   0.000  -0.000
 -0.000  -0.000   0.000  -0.000  -0.000   0.000   0.000   0.000  -0.000   0.000  -0.000   0.000   0.000  -0.000  -0.000   0.000
 -0.000  -0.000  -0.000   0.000   0.000   0.000   0.000   0.000  -0.000  -0.000  -0.000  -0.000  -0.000   0.000   0.000   0.000
  0.000   0.000  -0.000  -0.000  -0.000   0.000   0.000   0.000   0.000   0.000  -0.000  -0.000   0.000  -0.000   0.000   0.000
  0.000  -0.000   0.000   0.000  -0.000  -0.000   0.000  -0.000  -0.000   0.000  -0.000   0.000   0.000   0.000  -0.000  -0.000
 -0.000  -0.000  -0.000   0.000   0.000   0.000   0.000   0.000  -0.000  -0.000   0.000  -0.000   0.000   0.000  -0.000   0.000
  0.000   0.000   0.000  -0.000   0.000  -0.000  -0.000  -0.000   0.000  -0.000   0.000   0.000  -0.000  -0.000   0.000  -0.000
  0.000   0.000   0.000   0.000   0.000  -0.000  -0.000  -0.000  -0.000   0.000   0.000   0.000  -0.000   0.000  -0.000  -0.000
 -0.000  -0.000  -0.000  -0.000   0.000   0.000   0.000   0.000   0.000   0.000  -0.000  -0.000   0.000  -0.000   0.000   0.000
  0.000   0.000   0.000   0.000  -0.000  -0.000  -0.000  -0.000  -0.000   0.000   0.000   0.000  -0.000   0.000  -0.000  -0.000
  0.000   0.000   0.000  -0.000   0.000   0.000  -0.000   0.000   0.000  -0.000  -0.000  -0.000  -0.000  -0.000   0.000   0.000
 -0.000  -0.000   0.000   0.000   0.000   0.000   0.000  -0.000   0.000  -0.000  -0.000  -0.000  -0.000  -0.000   0.000   0.000
  0.000   0.000   0.000   0.000   0.000   0.000  -0.000   0.000  -0.000  -0.000   0.000  -0.000  -0.000   0.000  -0.000   0.000
  0.000  -0.000   0.000   0.000   0.000   0.000   0.000   0.000   0.000  -0.000  -0.000   0.000  -0.000  -0.000   0.000   0.000
 -0.000   0.000   0.000  -0.000   0.000  -0.000  -0.000  -0.000  -0.000  -0.000   0.000   0.000  -0.000   0.000  -0.000  -0.000
 -0.000   0.000   0.000   0.000  -0.000  -0.000   0.000  -0.000  -0.000   0.000   0.000   0.000   0.000   0.000  -0.000  -0.000
 -0.000  -0.000   0.000   0.000   0.000   0.000   0.000   0.000   0.000   0.000  -0.000  -0.000   0.000   0.000  -0.000   0.000
  0.000   0.000   0.000  -0.000   0.000   0.000  -0.000   0.000   0.000  -0.000  -0.000  -0.000  -0.000  -0.000   0.000   0.000
 -0.000  -0.000   0.000   0.000   0.000   0.000   0.000   0.000   0.000   0.000  -0.000  -0.000   0.000  -0.000   0.000   0.000
  0.000   0.000   0.000   0.000  -0.000   0.000  -0.000   0.000  -0.000  -0.000   0.000  -0.000  -0.000   0.000  -0.000   0.000
  0.000  -0.000   0.000   0.000   0.000   0.000   0.000   0.000   0.000  -0.000  -0.000  -0.000   0.000  -0.000   0.000   0.000
 -0.000   0.000  -0.000  -0.000   0.000  -0.000  -0.000  -0.000  -0.000  -0.000   0.000   0.000  -0.000   0.000  -0.000  -0.000
 -0.000   0.000  -0.000   0.000  -0.000  -0.000   0.000   0.000  -0.000   0.000   0.000   0.000   0.000   0.000  -0.000  -0.000
 -0.000  -0.000   0.000   0.000   0.000   0.000   0.000   0.000   0.000   0.000  -0.000  -0.000   0.000  -0.000   0.000   0.000


------------------------ aborting loop because EDIFF is reached ----------------------------------------


 


 total charge     
 
# of ion       s       p       d       f       tot
--------------------------------------------------
    1        0.424   0.169   9.448   0.012  10.053
    2        0.599   0.058   9.401   0.006  10.065
    3        0.599   0.058   9.401   0.006  10.065
    4        0.424   0.169   9.448   0.012  10.053
--------------------------------------------------
tot          2.048   0.453  37.698   0.037  40.235

 


 magnetization (x)
 
# of ion       s       p       d       f       tot
--------------------------------------------------
    1       -0.000   0.000   0.000   0.000   0.000
    2        0.000   0.000   0.000  -0.000   0.000
    3        0.000   0.000   0.000  -0.000   0.000
    4       -0.000   0.000   0.000   0.000   0.000
--------------------------------------------------
tot         -0.000   0.000   0.000  -0.000   0.000

 
    CHARGE:  cpu time    2.5846: real time    2.5945
    FORLOC:  cpu time    0.0370: real time    0.0366
    FORNL :  cpu time   12.7881: real time   12.8362
    FORCOR:  cpu time    6.4470: real time    6.4771
    FORHAR:  cpu time    0.3869: real time    0.3930
    MIXING:  cpu time    0.1150: real time    0.1147
    OFIELD:  cpu time    0.0000: real time    0.0000

 VOLUME and BASIS-vectors are now :
 -----------------------------------------------------------------------------
  energy-cutoff  :      500.00
  volume of cell :     4913.00
      direct lattice vectors                 reciprocal lattice vectors
    17.000000000  0.000000000  0.000000000     0.058823529  0.000000000  0.000000000
     0.000000000 17.000000000  0.000000000     0.000000000  0.058823529  0.000000000
     0.000000000  0.000000000 17.000000000     0.000000000  0.000000000  0.058823529

  length of vectors
    17.000000000 17.000000000 17.000000000     0.058823529  0.058823529  0.058823529


 FORCES acting on ions
    electron-ion (+dipol)            ewald-force                    non-local-force                 convergence-correction
 -----------------------------------------------------------------------------------------------
   -.195E+03 -.279E+03 0.330E+03   0.193E+03 0.277E+03 -.328E+03   0.118E+01 0.169E+01 -.200E+01   -.672E-02 -.708E-02 0.101E-01
   0.355E+03 -.309E+03 -.519E+02   -.353E+03 0.308E+03 0.516E+02   -.176E+01 0.153E+01 0.256E+00   -.485E-01 0.465E-01 0.458E-02
   -.355E+03 0.309E+03 0.519E+02   0.353E+03 -.308E+03 -.516E+02   0.176E+01 -.153E+01 -.256E+00   0.485E-01 -.465E-01 -.457E-02
   0.195E+03 0.279E+03 -.330E+03   -.193E+03 -.277E+03 0.328E+03   -.118E+01 -.169E+01 0.200E+01   0.672E-02 0.709E-02 -.101E-01
 -----------------------------------------------------------------------------------------------
   0.296E-01 0.290E-01 0.402E-01   -.284E-13 0.568E-13 0.000E+00   0.000E+00 -.222E-15 0.000E+00   0.801E-05 0.884E-05 0.125E-04
 
 
 POSITION                                       TOTAL-FORCE (eV/Angst)
 -----------------------------------------------------------------------------------
      0.53624      0.76722     16.09351        -0.000149      0.004237     -0.003934
     15.19666      1.56910      0.26272        -0.002090     -0.000718      0.000914
      1.80330     15.43087     16.73723         0.002090      0.000718     -0.000914
     16.46374     16.23275      0.90646         0.000149     -0.004237      0.003934
 -----------------------------------------------------------------------------------
    total drift:                                0.029621      0.029022      0.040221


--------------------------------------------------------------------------------------------------------



  FREE ENERGIE OF THE ION-ELECTRON SYSTEM (eV)
  ---------------------------------------------------
  free  energy   TOTEN  =        -5.44983020 eV

  energy  without entropy=       -5.44983020  energy(sigma->0) =       -5.44983020
 
 d Force = 0.2360062E-03[-0.123E-04, 0.484E-03]  d Energy = 0.2292568E-03 0.675E-05
 d Force = 0.4066034E+01[ 0.406E+01, 0.407E+01]  d Ewald  = 0.4066041E+01-0.667E-05


--------------------------------------------------------------------------------------------------------


    POTLOK:  cpu time    6.7040: real time    6.7307


--------------------------------------------------------------------------------------------------------




--------------------------------------------------------------------------------------------------------


  
 reached required accuracy - stopping structural energy minimisation
     LOOP+:  cpu time  112.1020: real time  112.6213
    4ORBIT:  cpu time    0.0000: real time    0.0000
 


 total charge     
 
# of ion       s       p       d       f       tot
--------------------------------------------------
    1        0.424   0.169   9.448   0.012  10.053
    2        0.599   0.058   9.401   0.006  10.065
    3        0.599   0.058   9.401   0.006  10.065
    4        0.424   0.169   9.448   0.012  10.053
--------------------------------------------------
tot          2.048   0.453  37.698   0.037  40.235

 


 magnetization (x)
 
# of ion       s       p       d       f       tot
--------------------------------------------------
    1       -0.000   0.000   0.000   0.000   0.000
    2        0.000   0.000   0.000  -0.000   0.000
    3        0.000   0.000   0.000  -0.000   0.000
    4       -0.000   0.000   0.000   0.000   0.000
--------------------------------------------------
tot         -0.000   0.000   0.000  -0.000   0.000

 

 total amount of memory used by VASP MPI-rank0   253986. kBytes
=======================================================================

   base      :      30000. kBytes
   nonlr-proj:        725. kBytes
   fftplans  :     134259. kBytes
   grid      :      81985. kBytes
   one-center:         49. kBytes
   wavefun   :       6968. kBytes
 
  
  
 General timing and accounting informations for this job:
 ========================================================
  
                  Total CPU time used (sec):     1355.732
                            User time (sec):     1342.549
                          System time (sec):       13.183
                         Elapsed time (sec):     1362.175
  
                   Maximum memory used (kb):      783076.
                   Average memory used (kb):           0.
  
                          Minor page faults:       489206
                          Major page faults:            0
                 Voluntary context switches:          826
