Ag                                      
   1.00000000000000     
    17.0000000000000000    0.0000000000000000    0.0000000000000000
     0.0000000000000000   17.0000000000000000    0.0000000000000000
     0.0000000000000000    0.0000000000000000   17.0000000000000000
   Ag
     4
Direct
  0.0315438065775477  0.0451306762141586  0.9466771442406290
  0.8939213691413643  0.0923001310345846  0.0154539590219736
  0.1060762779174621  0.9076981042595299  0.9845430998015579
  0.9684550169518691  0.9548675590799560  0.0533210910534927
 
  0.00000000E+00  0.00000000E+00  0.00000000E+00
  0.00000000E+00  0.00000000E+00  0.00000000E+00
  0.00000000E+00  0.00000000E+00  0.00000000E+00
  0.00000000E+00  0.00000000E+00  0.00000000E+00
