PROCAR new format
# of k-points:    1         # of bands:   28         # of ions:    4

 k-point     1 :    0.00000000 0.00000000 0.00000000     weight = 1.00000000

band     1 # energy   -8.83663224 # occ.  1.00000000
 
ion      s      p      d      f    tot
    1  0.034  0.013  0.389  0.001  0.436
    2  0.003  0.002  0.042  0.000  0.047
    3  0.003  0.002  0.042  0.000  0.047
    4  0.034  0.013  0.389  0.001  0.436
tot    0.075  0.029  0.861  0.002  0.966
 
band     2 # energy   -8.79510665 # occ.  1.00000000
 
ion      s      p      d      f    tot
    1  0.000  0.005  0.359  0.001  0.365
    2  0.011  0.006  0.095  0.000  0.111
    3  0.011  0.006  0.095  0.000  0.111
    4  0.000  0.005  0.359  0.001  0.365
tot    0.022  0.021  0.908  0.002  0.952
 
band     3 # energy   -8.27976581 # occ.  1.00000000
 
ion      s      p      d      f    tot
    1  0.000  0.002  0.425  0.000  0.427
    2  0.000  0.000  0.037  0.000  0.038
    3  0.000  0.000  0.037  0.000  0.038
    4  0.000  0.002  0.425  0.000  0.427
tot    0.000  0.004  0.924  0.001  0.930
 
band     4 # energy   -8.24468810 # occ.  1.00000000
 
ion      s      p      d      f    tot
    1  0.010  0.000  0.267  0.000  0.278
    2  0.000  0.003  0.193  0.000  0.197
    3  0.000  0.003  0.193  0.000  0.197
    4  0.010  0.000  0.267  0.000  0.278
tot    0.020  0.007  0.920  0.001  0.948
 
band     5 # energy   -8.17288724 # occ.  1.00000000
 
ion      s      p      d      f    tot
    1  0.011  0.001  0.346  0.000  0.358
    2  0.020  0.005  0.087  0.000  0.111
    3  0.020  0.005  0.087  0.000  0.111
    4  0.011  0.001  0.346  0.000  0.358
tot    0.062  0.011  0.864  0.001  0.938
 
band     6 # energy   -7.98416467 # occ.  1.00000000
 
ion      s      p      d      f    tot
    1  0.000  0.000  0.360  0.000  0.360
    2  0.000  0.001  0.102  0.000  0.104
    3  0.000  0.001  0.102  0.000  0.104
    4  0.000  0.000  0.360  0.000  0.360
tot    0.000  0.002  0.925  0.001  0.928
 
band     7 # energy   -7.68307317 # occ.  1.00000000
 
ion      s      p      d      f    tot
    1  0.000  0.000  0.383  0.000  0.383
    2  0.000  0.000  0.088  0.000  0.088
    3  0.000  0.000  0.088  0.000  0.088
    4  0.000  0.000  0.382  0.000  0.382
tot    0.000  0.000  0.940  0.000  0.941
 
band     8 # energy   -7.66309980 # occ.  1.00000000
 
ion      s      p      d      f    tot
    1  0.000  0.001  0.267  0.001  0.269
    2  0.000  0.000  0.215  0.000  0.215
    3  0.000  0.000  0.215  0.000  0.215
    4  0.000  0.001  0.267  0.001  0.269
tot    0.000  0.004  0.963  0.002  0.968
 
band     9 # energy   -7.27049012 # occ.  1.00000000
 
ion      s      p      d      f    tot
    1  0.000  0.001  0.467  0.000  0.468
    2  0.000  0.000  0.013  0.000  0.013
    3  0.000  0.000  0.013  0.000  0.013
    4  0.000  0.001  0.467  0.000  0.468
tot    0.000  0.002  0.960  0.001  0.962
 
band    10 # energy   -7.25134173 # occ.  1.00000000
 
ion      s      p      d      f    tot
    1  0.007  0.002  0.445  0.000  0.455
    2  0.000  0.000  0.018  0.000  0.019
    3  0.000  0.000  0.018  0.000  0.019
    4  0.007  0.002  0.445  0.000  0.455
tot    0.015  0.004  0.927  0.001  0.946
 
band    11 # energy   -7.15670050 # occ.  1.00000000
 
ion      s      p      d      f    tot
    1  0.018  0.004  0.112  0.000  0.134
    2  0.003  0.000  0.324  0.000  0.327
    3  0.003  0.000  0.324  0.000  0.327
    4  0.018  0.004  0.111  0.000  0.134
tot    0.042  0.009  0.872  0.001  0.923
 
band    12 # energy   -6.99280327 # occ.  1.00000000
 
ion      s      p      d      f    tot
    1  0.000  0.002  0.000  0.000  0.002
    2  0.001  0.000  0.470  0.000  0.471
    3  0.001  0.000  0.470  0.000  0.471
    4  0.000  0.002  0.000  0.000  0.002
tot    0.001  0.003  0.941  0.000  0.946
 
band    13 # energy   -6.97712348 # occ.  1.00000000
 
ion      s      p      d      f    tot
    1  0.000  0.001  0.013  0.000  0.014
    2  0.000  0.000  0.458  0.000  0.458
    3  0.000  0.000  0.458  0.000  0.458
    4  0.000  0.001  0.013  0.000  0.014
tot    0.000  0.002  0.941  0.000  0.943
 
band    14 # energy   -6.96392997 # occ.  1.00000000
 
ion      s      p      d      f    tot
    1  0.000  0.001  0.043  0.000  0.044
    2  0.000  0.000  0.430  0.000  0.430
    3  0.000  0.000  0.431  0.000  0.431
    4  0.000  0.001  0.043  0.000  0.044
tot    0.000  0.003  0.947  0.000  0.950
 
band    15 # energy   -6.85844210 # occ.  1.00000000
 
ion      s      p      d      f    tot
    1  0.000  0.008  0.212  0.000  0.220
    2  0.000  0.000  0.253  0.000  0.253
    3  0.000  0.000  0.253  0.000  0.253
    4  0.000  0.008  0.212  0.000  0.220
tot    0.000  0.016  0.930  0.001  0.947
 
band    16 # energy   -6.83673002 # occ.  1.00000000
 
ion      s      p      d      f    tot
    1  0.013  0.000  0.088  0.000  0.102
    2  0.000  0.000  0.369  0.000  0.369
    3  0.000  0.000  0.368  0.000  0.368
    4  0.013  0.000  0.088  0.000  0.102
tot    0.027  0.001  0.912  0.000  0.940
 
band    17 # energy   -6.79330857 # occ.  1.00000000
 
ion      s      p      d      f    tot
    1  0.000  0.000  0.095  0.000  0.095
    2  0.000  0.000  0.386  0.000  0.386
    3  0.000  0.000  0.386  0.000  0.386
    4  0.000  0.000  0.095  0.000  0.095
tot    0.000  0.000  0.962  0.000  0.962
 
band    18 # energy   -6.74824287 # occ.  1.00000000
 
ion      s      p      d      f    tot
    1  0.000  0.000  0.109  0.000  0.109
    2  0.000  0.000  0.372  0.000  0.373
    3  0.000  0.000  0.372  0.000  0.372
    4  0.000  0.000  0.108  0.000  0.109
tot    0.000  0.001  0.961  0.001  0.963
 
band    19 # energy   -6.68084984 # occ.  1.00000000
 
ion      s      p      d      f    tot
    1  0.000  0.000  0.090  0.000  0.090
    2  0.004  0.002  0.381  0.000  0.387
    3  0.004  0.002  0.381  0.000  0.386
    4  0.000  0.000  0.090  0.000  0.090
tot    0.007  0.004  0.942  0.000  0.954
 
band    20 # energy   -6.45904845 # occ.  1.00000000
 
ion      s      p      d      f    tot
    1  0.002  0.001  0.227  0.001  0.231
    2  0.000  0.002  0.247  0.000  0.249
    3  0.000  0.002  0.247  0.000  0.249
    4  0.002  0.001  0.227  0.001  0.231
tot    0.005  0.006  0.947  0.002  0.959
 
band    21 # energy   -6.20276809 # occ.  1.00000000
 
ion      s      p      d      f    tot
    1  0.115  0.004  0.011  0.000  0.130
    2  0.069  0.008  0.118  0.000  0.195
    3  0.069  0.008  0.118  0.000  0.195
    4  0.115  0.004  0.011  0.000  0.130
tot    0.368  0.022  0.259  0.000  0.649
 
band    22 # energy   -4.26420969 # occ.  1.00000000
 
ion      s      p      d      f    tot
    1  0.000  0.039  0.019  0.000  0.058
    2  0.191  0.000  0.002  0.000  0.193
    3  0.191  0.000  0.002  0.000  0.193
    4  0.000  0.039  0.019  0.000  0.058
tot    0.381  0.077  0.043  0.000  0.501
 
band    23 # energy   -3.41303501 # occ.  0.00000000
 
ion      s      p      d      f    tot
    1  0.151  0.024  0.005  0.000  0.180
    2  0.000  0.018  0.017  0.000  0.036
    3  0.000  0.018  0.017  0.000  0.036
    4  0.151  0.024  0.005  0.000  0.180
tot    0.303  0.084  0.045  0.000  0.433
 
band    24 # energy   -2.24171786 # occ.  0.00000000
 
ion      s      p      d      f    tot
    1  0.051  0.000  0.010  0.000  0.061
    2  0.101  0.039  0.002  0.000  0.142
    3  0.101  0.039  0.002  0.000  0.142
    4  0.051  0.000  0.010  0.000  0.061
tot    0.303  0.078  0.024  0.000  0.406
 
band    25 # energy   -1.66105991 # occ.  0.00000000
 
ion      s      p      d      f    tot
    1  0.000  0.061  0.003  0.000  0.065
    2  0.000  0.034  0.005  0.000  0.040
    3  0.000  0.034  0.005  0.000  0.040
    4  0.000  0.061  0.003  0.000  0.065
tot    0.000  0.191  0.017  0.001  0.209
 
band    26 # energy   -0.92943543 # occ.  0.00000000
 
ion      s      p      d      f    tot
    1  0.000  0.041  0.004  0.000  0.046
    2  0.000  0.070  0.002  0.000  0.073
    3  0.000  0.070  0.002  0.000  0.073
    4  0.000  0.041  0.004  0.000  0.046
tot    0.000  0.223  0.014  0.001  0.238
 
band    27 # energy   -0.87719215 # occ.  0.00000000
 
ion      s      p      d      f    tot
    1  0.000  0.099  0.001  0.000  0.099
    2  0.009  0.011  0.007  0.000  0.027
    3  0.009  0.011  0.007  0.000  0.027
    4  0.000  0.099  0.001  0.000  0.099
tot    0.019  0.218  0.015  0.001  0.253
 
band    28 # energy   -0.37656014 # occ.  0.00000000
 
ion      s      p      d      f    tot
    1  0.000  0.052  0.005  0.000  0.057
    2  0.000  0.069  0.001  0.000  0.070
    3  0.000  0.069  0.001  0.000  0.070
    4  0.000  0.052  0.005  0.000  0.057
tot    0.000  0.242  0.012  0.001  0.254
 
# of k-points:    1         # of bands:   28         # of ions:    4

 k-point     1 :    0.00000000 0.00000000 0.00000000     weight = 1.00000000

band     1 # energy   -8.83663428 # occ.  1.00000000
 
ion      s      p      d      f    tot
    1  0.034  0.013  0.389  0.001  0.436
    2  0.003  0.002  0.042  0.000  0.047
    3  0.003  0.002  0.042  0.000  0.047
    4  0.034  0.013  0.389  0.001  0.436
tot    0.075  0.029  0.861  0.002  0.966
 
band     2 # energy   -8.79510859 # occ.  1.00000000
 
ion      s      p      d      f    tot
    1  0.000  0.005  0.359  0.001  0.365
    2  0.011  0.006  0.095  0.000  0.111
    3  0.011  0.006  0.095  0.000  0.111
    4  0.000  0.005  0.359  0.001  0.365
tot    0.022  0.021  0.908  0.002  0.952
 
band     3 # energy   -8.27976773 # occ.  1.00000000
 
ion      s      p      d      f    tot
    1  0.000  0.002  0.425  0.000  0.427
    2  0.000  0.000  0.037  0.000  0.038
    3  0.000  0.000  0.037  0.000  0.038
    4  0.000  0.002  0.425  0.000  0.427
tot    0.000  0.004  0.924  0.001  0.930
 
band     4 # energy   -8.24469013 # occ.  1.00000000
 
ion      s      p      d      f    tot
    1  0.010  0.000  0.267  0.000  0.278
    2  0.000  0.003  0.193  0.000  0.197
    3  0.000  0.003  0.193  0.000  0.197
    4  0.010  0.000  0.267  0.000  0.278
tot    0.020  0.007  0.920  0.001  0.948
 
band     5 # energy   -8.17288925 # occ.  1.00000000
 
ion      s      p      d      f    tot
    1  0.011  0.001  0.346  0.000  0.358
    2  0.020  0.005  0.087  0.000  0.111
    3  0.020  0.005  0.087  0.000  0.111
    4  0.011  0.001  0.346  0.000  0.358
tot    0.062  0.011  0.864  0.001  0.938
 
band     6 # energy   -7.98416645 # occ.  1.00000000
 
ion      s      p      d      f    tot
    1  0.000  0.000  0.360  0.000  0.360
    2  0.000  0.001  0.102  0.000  0.104
    3  0.000  0.001  0.102  0.000  0.104
    4  0.000  0.000  0.360  0.000  0.360
tot    0.000  0.002  0.925  0.001  0.928
 
band     7 # energy   -7.68307503 # occ.  1.00000000
 
ion      s      p      d      f    tot
    1  0.000  0.000  0.383  0.000  0.383
    2  0.000  0.000  0.088  0.000  0.088
    3  0.000  0.000  0.088  0.000  0.088
    4  0.000  0.000  0.382  0.000  0.382
tot    0.000  0.000  0.940  0.000  0.941
 
band     8 # energy   -7.66310182 # occ.  1.00000000
 
ion      s      p      d      f    tot
    1  0.000  0.001  0.267  0.001  0.269
    2  0.000  0.000  0.215  0.000  0.215
    3  0.000  0.000  0.215  0.000  0.215
    4  0.000  0.001  0.267  0.001  0.269
tot    0.000  0.004  0.963  0.002  0.968
 
band     9 # energy   -7.27049207 # occ.  1.00000000
 
ion      s      p      d      f    tot
    1  0.000  0.001  0.467  0.000  0.468
    2  0.000  0.000  0.013  0.000  0.013
    3  0.000  0.000  0.013  0.000  0.013
    4  0.000  0.001  0.467  0.000  0.468
tot    0.000  0.002  0.960  0.001  0.962
 
band    10 # energy   -7.25134378 # occ.  1.00000000
 
ion      s      p      d      f    tot
    1  0.007  0.002  0.445  0.000  0.455
    2  0.000  0.000  0.018  0.000  0.019
    3  0.000  0.000  0.018  0.000  0.019
    4  0.007  0.002  0.445  0.000  0.455
tot    0.015  0.004  0.927  0.001  0.946
 
band    11 # energy   -7.15670251 # occ.  1.00000000
 
ion      s      p      d      f    tot
    1  0.018  0.004  0.112  0.000  0.134
    2  0.003  0.000  0.324  0.000  0.327
    3  0.003  0.000  0.324  0.000  0.327
    4  0.018  0.004  0.111  0.000  0.134
tot    0.042  0.009  0.872  0.001  0.923
 
band    12 # energy   -6.99280529 # occ.  1.00000000
 
ion      s      p      d      f    tot
    1  0.000  0.002  0.000  0.000  0.002
    2  0.001  0.000  0.470  0.000  0.471
    3  0.001  0.000  0.470  0.000  0.471
    4  0.000  0.002  0.000  0.000  0.002
tot    0.001  0.003  0.941  0.000  0.946
 
band    13 # energy   -6.97712554 # occ.  1.00000000
 
ion      s      p      d      f    tot
    1  0.000  0.001  0.013  0.000  0.014
    2  0.000  0.000  0.458  0.000  0.458
    3  0.000  0.000  0.458  0.000  0.458
    4  0.000  0.001  0.013  0.000  0.014
tot    0.000  0.002  0.941  0.000  0.943
 
band    14 # energy   -6.96393196 # occ.  1.00000000
 
ion      s      p      d      f    tot
    1  0.000  0.001  0.043  0.000  0.044
    2  0.000  0.000  0.430  0.000  0.430
    3  0.000  0.000  0.431  0.000  0.431
    4  0.000  0.001  0.043  0.000  0.044
tot    0.000  0.003  0.947  0.000  0.950
 
band    15 # energy   -6.85844415 # occ.  1.00000000
 
ion      s      p      d      f    tot
    1  0.000  0.008  0.212  0.000  0.220
    2  0.000  0.000  0.253  0.000  0.253
    3  0.000  0.000  0.253  0.000  0.253
    4  0.000  0.008  0.212  0.000  0.220
tot    0.000  0.016  0.930  0.001  0.947
 
band    16 # energy   -6.83673206 # occ.  1.00000000
 
ion      s      p      d      f    tot
    1  0.013  0.000  0.088  0.000  0.102
    2  0.000  0.000  0.369  0.000  0.369
    3  0.000  0.000  0.368  0.000  0.368
    4  0.013  0.000  0.088  0.000  0.102
tot    0.027  0.001  0.912  0.000  0.940
 
band    17 # energy   -6.79331060 # occ.  1.00000000
 
ion      s      p      d      f    tot
    1  0.000  0.000  0.095  0.000  0.095
    2  0.000  0.000  0.386  0.000  0.386
    3  0.000  0.000  0.386  0.000  0.386
    4  0.000  0.000  0.095  0.000  0.095
tot    0.000  0.000  0.962  0.000  0.962
 
band    18 # energy   -6.74824490 # occ.  1.00000000
 
ion      s      p      d      f    tot
    1  0.000  0.000  0.109  0.000  0.109
    2  0.000  0.000  0.372  0.000  0.373
    3  0.000  0.000  0.372  0.000  0.372
    4  0.000  0.000  0.108  0.000  0.109
tot    0.000  0.001  0.961  0.001  0.963
 
band    19 # energy   -6.68085191 # occ.  1.00000000
 
ion      s      p      d      f    tot
    1  0.000  0.000  0.090  0.000  0.090
    2  0.004  0.002  0.381  0.000  0.387
    3  0.004  0.002  0.381  0.000  0.386
    4  0.000  0.000  0.090  0.000  0.090
tot    0.007  0.004  0.942  0.000  0.954
 
band    20 # energy   -6.45905052 # occ.  1.00000000
 
ion      s      p      d      f    tot
    1  0.002  0.001  0.227  0.001  0.231
    2  0.000  0.002  0.247  0.000  0.249
    3  0.000  0.002  0.247  0.000  0.249
    4  0.002  0.001  0.227  0.001  0.231
tot    0.005  0.006  0.947  0.002  0.959
 
band    21 # energy   -6.20277004 # occ.  1.00000000
 
ion      s      p      d      f    tot
    1  0.115  0.004  0.011  0.000  0.130
    2  0.069  0.008  0.118  0.000  0.195
    3  0.069  0.008  0.118  0.000  0.195
    4  0.115  0.004  0.011  0.000  0.130
tot    0.368  0.022  0.259  0.000  0.649
 
band    22 # energy   -4.26421186 # occ.  1.00000000
 
ion      s      p      d      f    tot
    1  0.000  0.039  0.019  0.000  0.058
    2  0.191  0.000  0.002  0.000  0.193
    3  0.191  0.000  0.002  0.000  0.193
    4  0.000  0.039  0.019  0.000  0.058
tot    0.381  0.077  0.043  0.000  0.501
 
band    23 # energy   -3.41303719 # occ.  0.00000000
 
ion      s      p      d      f    tot
    1  0.151  0.024  0.005  0.000  0.180
    2  0.000  0.018  0.017  0.000  0.036
    3  0.000  0.018  0.017  0.000  0.036
    4  0.151  0.024  0.005  0.000  0.180
tot    0.303  0.084  0.045  0.000  0.433
 
band    24 # energy   -2.24172071 # occ.  0.00000000
 
ion      s      p      d      f    tot
    1  0.051  0.000  0.010  0.000  0.061
    2  0.101  0.039  0.002  0.000  0.142
    3  0.101  0.039  0.002  0.000  0.142
    4  0.051  0.000  0.010  0.000  0.061
tot    0.303  0.078  0.024  0.000  0.406
 
band    25 # energy   -1.66106203 # occ.  0.00000000
 
ion      s      p      d      f    tot
    1  0.000  0.061  0.003  0.000  0.065
    2  0.000  0.034  0.005  0.000  0.040
    3  0.000  0.034  0.005  0.000  0.040
    4  0.000  0.061  0.003  0.000  0.065
tot    0.000  0.191  0.017  0.001  0.209
 
band    26 # energy   -0.92943773 # occ.  0.00000000
 
ion      s      p      d      f    tot
    1  0.000  0.041  0.004  0.000  0.046
    2  0.000  0.070  0.002  0.000  0.073
    3  0.000  0.070  0.002  0.000  0.073
    4  0.000  0.041  0.004  0.000  0.046
tot    0.000  0.223  0.014  0.001  0.238
 
band    27 # energy   -0.87719446 # occ.  0.00000000
 
ion      s      p      d      f    tot
    1  0.000  0.099  0.001  0.000  0.099
    2  0.009  0.011  0.007  0.000  0.027
    3  0.009  0.011  0.007  0.000  0.027
    4  0.000  0.099  0.001  0.000  0.099
tot    0.019  0.218  0.015  0.001  0.253
 
band    28 # energy   -0.37656268 # occ.  0.00000000
 
ion      s      p      d      f    tot
    1  0.000  0.052  0.005  0.000  0.057
    2  0.000  0.069  0.001  0.000  0.070
    3  0.000  0.069  0.001  0.000  0.070
    4  0.000  0.052  0.005  0.000  0.057
tot    0.000  0.242  0.012  0.001  0.254
 
