Ag                                      
           1
    17.000000    0.000000    0.000000
     0.000000   17.000000    0.000000
     0.000000    0.000000   17.000000
   Ag
   4
Direct configuration=     1
   0.03248941  0.04649882  0.94505000
   0.89200294  0.09403412  0.01571882
   0.10799471  0.90596412  0.98427824
   0.96750941  0.95349941  0.05494824
Direct configuration=     2
   0.03188547  0.04564343  0.94607797
   0.89262518  0.09348103  0.01562553
   0.10737247  0.90651721  0.98437153
   0.96811336  0.95435481  0.05392027
Direct configuration=     3
   0.03138880  0.04493997  0.94692335
   0.89313689  0.09302618  0.01554881
   0.10686075  0.90697206  0.98444825
   0.96861003  0.95505826  0.05307489
Direct configuration=     4
   0.03136408  0.04490497  0.94696542
   0.89316236  0.09300354  0.01554500
   0.10683529  0.90699469  0.98445206
   0.96863474  0.95509327  0.05303282
Direct configuration=     5
   0.03141105  0.04496396  0.94689008
   0.89336072  0.09281971  0.01552120
   0.10663692  0.90717853  0.98447586
   0.96858777  0.95503428  0.05310816
Direct configuration=     6
   0.03147935  0.04504973  0.94678053
   0.89364917  0.09255239  0.01548661
   0.10634848  0.90744584  0.98451045
   0.96851947  0.95494851  0.05321771
Direct configuration=     7
   0.03161595  0.04522128  0.94656143
   0.89422605  0.09201777  0.01541742
   0.10577160  0.90798047  0.98457964
   0.96838287  0.95477695  0.05343681
Direct configuration=     8
   0.03154381  0.04513068  0.94667714
   0.89392137  0.09230013  0.01545396
   0.10607628  0.90769810  0.98454310
   0.96845502  0.95486756  0.05332109
