CuRh                                    
   1.00000000000000     
    17.0000000000000000    0.0000000000000000    0.0000000000000000
     0.0000000000000000   17.0000000000000000    0.0000000000000000
     0.0000000000000000    0.0000000000000000   17.0000000000000000
   Cu
     2
Direct
 -0.0000000000000000  0.0000000000000000  0.9348187536131717
  0.0000000000000000 -0.0000000000000000  0.0651812463868283
 
  0.00000000E+00  0.00000000E+00  0.00000000E+00
  0.00000000E+00  0.00000000E+00  0.00000000E+00
