   2   2   1   0
  0.2456500E+04  0.1700000E-08  0.1700000E-08  0.1700000E-08  0.5000000E-15
  1.000000000000000E-004
  CAR 
 CuRh                                    
     -0.67057576     -9.37767987  301     -4.65243974      1.00000000
     -9.378  0.0000E+00  0.0000E+00  0.0000E+00  0.0000E+00
     -9.349  0.0000E+00  0.0000E+00  0.0000E+00  0.0000E+00
     -9.320  0.0000E+00  0.0000E+00  0.0000E+00  0.0000E+00
     -9.291  0.0000E+00  0.0000E+00  0.0000E+00  0.0000E+00
     -9.262  0.0000E+00  0.0000E+00  0.0000E+00  0.0000E+00
     -9.233  0.0000E+00  0.0000E+00  0.0000E+00  0.0000E+00
     -9.204  0.0000E+00  0.0000E+00  0.0000E+00  0.0000E+00
     -9.175  0.0000E+00  0.0000E+00  0.0000E+00  0.0000E+00
     -9.145  0.0000E+00  0.0000E+00  0.0000E+00  0.0000E+00
     -9.116  0.0000E+00  0.0000E+00  0.0000E+00  0.0000E+00
     -9.087  0.0000E+00  0.0000E+00  0.0000E+00  0.0000E+00
     -9.058  0.0000E+00  0.0000E+00  0.0000E+00  0.0000E+00
     -9.029  0.0000E+00  0.0000E+00  0.0000E+00  0.0000E+00
     -9.000  0.1508E-07  0.0000E+00  0.4378E-09  0.0000E+00
     -8.971  0.1720E+00  0.0000E+00  0.4993E-02  0.0000E+00
     -8.942  0.2442E-03  0.0000E+00  0.5000E-02  0.0000E+00
     -8.913  0.0000E+00  0.0000E+00  0.5000E-02  0.0000E+00
     -8.884  0.0000E+00  0.0000E+00  0.5000E-02  0.0000E+00
     -8.855  0.0000E+00  0.0000E+00  0.5000E-02  0.0000E+00
     -8.826  0.0000E+00  0.0000E+00  0.5000E-02  0.0000E+00
     -8.797  0.0000E+00  0.0000E+00  0.5000E-02  0.0000E+00
     -8.768  0.0000E+00  0.0000E+00  0.5000E-02  0.0000E+00
     -8.739  0.0000E+00  0.0000E+00  0.5000E-02  0.0000E+00
     -8.710  0.0000E+00  0.0000E+00  0.5000E-02  0.0000E+00
     -8.681  0.0000E+00  0.0000E+00  0.5000E-02  0.0000E+00
     -8.652  0.0000E+00  0.0000E+00  0.5000E-02  0.0000E+00
     -8.623  0.0000E+00  0.0000E+00  0.5000E-02  0.0000E+00
     -8.594  0.0000E+00  0.0000E+00  0.5000E-02  0.0000E+00
     -8.565  0.0000E+00  0.0000E+00  0.5000E-02  0.0000E+00
     -8.536  0.0000E+00  0.0000E+00  0.5000E-02  0.0000E+00
     -8.507  0.0000E+00  0.0000E+00  0.5000E-02  0.0000E+00
     -8.478  0.0000E+00  0.0000E+00  0.5000E-02  0.0000E+00
     -8.449  0.0000E+00  0.0000E+00  0.5000E-02  0.0000E+00
     -8.420  0.0000E+00  0.0000E+00  0.5000E-02  0.0000E+00
     -8.391  0.0000E+00  0.0000E+00  0.5000E-02  0.0000E+00
     -8.362  0.0000E+00  0.0000E+00  0.5000E-02  0.0000E+00
     -8.333  0.0000E+00  0.0000E+00  0.5000E-02  0.0000E+00
     -8.304  0.0000E+00  0.0000E+00  0.5000E-02  0.0000E+00
     -8.275  0.3634E-15  0.0000E+00  0.5000E-02  0.0000E+00
     -8.246  0.2091E+00  0.0000E+00  0.1107E-01  0.0000E+00
     -8.217  0.1355E+00  0.0000E+00  0.1500E-01  0.0000E+00
     -8.188  0.0000E+00  0.0000E+00  0.1500E-01  0.0000E+00
     -8.159  0.0000E+00  0.0000E+00  0.1500E-01  0.0000E+00
     -8.130  0.0000E+00  0.0000E+00  0.1500E-01  0.0000E+00
     -8.101  0.0000E+00  0.0000E+00  0.1500E-01  0.0000E+00
     -8.072  0.0000E+00  0.0000E+00  0.1500E-01  0.0000E+00
     -8.043  0.0000E+00  0.0000E+00  0.1500E-01  0.0000E+00
     -8.014  0.0000E+00  0.0000E+00  0.1500E-01  0.0000E+00
     -7.985  0.0000E+00  0.0000E+00  0.1500E-01  0.0000E+00
     -7.956  0.0000E+00  0.0000E+00  0.1500E-01  0.0000E+00
     -7.926  0.0000E+00  0.0000E+00  0.1500E-01  0.0000E+00
     -7.897  0.0000E+00  0.0000E+00  0.1500E-01  0.0000E+00
     -7.868  0.0000E+00  0.0000E+00  0.1500E-01  0.0000E+00
     -7.839  0.0000E+00  0.2610E-02  0.1500E-01  0.7575E-04
     -7.810  0.0000E+00  0.1697E+00  0.1500E-01  0.5000E-02
     -7.781  0.0000E+00  0.0000E+00  0.1500E-01  0.5000E-02
     -7.752  0.0000E+00  0.0000E+00  0.1500E-01  0.5000E-02
     -7.723  0.0000E+00  0.0000E+00  0.1500E-01  0.5000E-02
     -7.694  0.0000E+00  0.0000E+00  0.1500E-01  0.5000E-02
     -7.665  0.0000E+00  0.0000E+00  0.1500E-01  0.5000E-02
     -7.636  0.0000E+00  0.0000E+00  0.1500E-01  0.5000E-02
     -7.607  0.0000E+00  0.0000E+00  0.1500E-01  0.5000E-02
     -7.578  0.0000E+00  0.0000E+00  0.1500E-01  0.5000E-02
     -7.549  0.0000E+00  0.0000E+00  0.1500E-01  0.5000E-02
     -7.520  0.0000E+00  0.0000E+00  0.1500E-01  0.5000E-02
     -7.491  0.0000E+00  0.0000E+00  0.1500E-01  0.5000E-02
     -7.462  0.0000E+00  0.0000E+00  0.1500E-01  0.5000E-02
     -7.433  0.0000E+00  0.0000E+00  0.1500E-01  0.5000E-02
     -7.404  0.0000E+00  0.0000E+00  0.1500E-01  0.5000E-02
     -7.375  0.0000E+00  0.0000E+00  0.1500E-01  0.5000E-02
     -7.346  0.0000E+00  0.0000E+00  0.1500E-01  0.5000E-02
     -7.317  0.0000E+00  0.0000E+00  0.1500E-01  0.5000E-02
     -7.288  0.0000E+00  0.0000E+00  0.1500E-01  0.5000E-02
     -7.259  0.0000E+00  0.0000E+00  0.1500E-01  0.5000E-02
     -7.230  0.0000E+00  0.0000E+00  0.1500E-01  0.5000E-02
     -7.201  0.0000E+00  0.0000E+00  0.1500E-01  0.5000E-02
     -7.172  0.0000E+00  0.0000E+00  0.1500E-01  0.5000E-02
     -7.143  0.0000E+00  0.0000E+00  0.1500E-01  0.5000E-02
     -7.114  0.0000E+00  0.0000E+00  0.1500E-01  0.5000E-02
     -7.085  0.0000E+00  0.0000E+00  0.1500E-01  0.5000E-02
     -7.056  0.0000E+00  0.0000E+00  0.1500E-01  0.5000E-02
     -7.027  0.0000E+00  0.4577E-11  0.1500E-01  0.5000E-02
     -6.998  0.0000E+00  0.3235E+00  0.1500E-01  0.1439E-01
     -6.969  0.0000E+00  0.2109E-01  0.1500E-01  0.1500E-01
     -6.940  0.0000E+00  0.0000E+00  0.1500E-01  0.1500E-01
     -6.911  0.0000E+00  0.0000E+00  0.1500E-01  0.1500E-01
     -6.882  0.0000E+00  0.0000E+00  0.1500E-01  0.1500E-01
     -6.853  0.0000E+00  0.0000E+00  0.1500E-01  0.1500E-01
     -6.824  0.0000E+00  0.0000E+00  0.1500E-01  0.1500E-01
     -6.795  0.0000E+00  0.0000E+00  0.1500E-01  0.1500E-01
     -6.766  0.0000E+00  0.0000E+00  0.1500E-01  0.1500E-01
     -6.737  0.0000E+00  0.0000E+00  0.1500E-01  0.1500E-01
     -6.708  0.0000E+00  0.0000E+00  0.1500E-01  0.1500E-01
     -6.678  0.0000E+00  0.0000E+00  0.1500E-01  0.1500E-01
     -6.649  0.0000E+00  0.0000E+00  0.1500E-01  0.1500E-01
     -6.620  0.0000E+00  0.0000E+00  0.1500E-01  0.1500E-01
     -6.591  0.0000E+00  0.0000E+00  0.1500E-01  0.1500E-01
     -6.562  0.2647E-12  0.0000E+00  0.1500E-01  0.1500E-01
     -6.533  0.2838E+00  0.0000E+00  0.2324E-01  0.1500E-01
     -6.504  0.6076E-01  0.0000E+00  0.2500E-01  0.1500E-01
     -6.475  0.0000E+00  0.0000E+00  0.2500E-01  0.1500E-01
     -6.446  0.0000E+00  0.0000E+00  0.2500E-01  0.1500E-01
     -6.417  0.0000E+00  0.0000E+00  0.2500E-01  0.1500E-01
     -6.388  0.0000E+00  0.0000E+00  0.2500E-01  0.1500E-01
     -6.359  0.0000E+00  0.0000E+00  0.2500E-01  0.1500E-01
     -6.330  0.0000E+00  0.0000E+00  0.2500E-01  0.1500E-01
     -6.301  0.0000E+00  0.0000E+00  0.2500E-01  0.1500E-01
     -6.272  0.0000E+00  0.0000E+00  0.2500E-01  0.1500E-01
     -6.243  0.0000E+00  0.0000E+00  0.2500E-01  0.1500E-01
     -6.214  0.0000E+00  0.0000E+00  0.2500E-01  0.1500E-01
     -6.185  0.0000E+00  0.0000E+00  0.2500E-01  0.1500E-01
     -6.156  0.0000E+00  0.0000E+00  0.2500E-01  0.1500E-01
     -6.127  0.0000E+00  0.0000E+00  0.2500E-01  0.1500E-01
     -6.098  0.0000E+00  0.0000E+00  0.2500E-01  0.1500E-01
     -6.069  0.0000E+00  0.0000E+00  0.2500E-01  0.1500E-01
     -6.040  0.0000E+00  0.0000E+00  0.2500E-01  0.1500E-01
     -6.011  0.0000E+00  0.0000E+00  0.2500E-01  0.1500E-01
     -5.982  0.0000E+00  0.0000E+00  0.2500E-01  0.1500E-01
     -5.953  0.0000E+00  0.0000E+00  0.2500E-01  0.1500E-01
     -5.924  0.0000E+00  0.0000E+00  0.2500E-01  0.1500E-01
     -5.895  0.9563E-17  0.0000E+00  0.2500E-01  0.1500E-01
     -5.866  0.1220E+00  0.0000E+00  0.2854E-01  0.1500E-01
     -5.837  0.2226E+00  0.0000E+00  0.3500E-01  0.1500E-01
     -5.808  0.0000E+00  0.0000E+00  0.3500E-01  0.1500E-01
     -5.779  0.0000E+00  0.0000E+00  0.3500E-01  0.1500E-01
     -5.750  0.0000E+00  0.0000E+00  0.3500E-01  0.1500E-01
     -5.721  0.0000E+00  0.0000E+00  0.3500E-01  0.1500E-01
     -5.692  0.0000E+00  0.0000E+00  0.3500E-01  0.1500E-01
     -5.663  0.0000E+00  0.0000E+00  0.3500E-01  0.1500E-01
     -5.634  0.0000E+00  0.0000E+00  0.3500E-01  0.1500E-01
     -5.605  0.2244E-02  0.0000E+00  0.3507E-01  0.1500E-01
     -5.576  0.3423E+00  0.0000E+00  0.4500E-01  0.1500E-01
     -5.547  0.0000E+00  0.0000E+00  0.4500E-01  0.1500E-01
     -5.518  0.0000E+00  0.0000E+00  0.4500E-01  0.1500E-01
     -5.489  0.0000E+00  0.0000E+00  0.4500E-01  0.1500E-01
     -5.459  0.0000E+00  0.0000E+00  0.4500E-01  0.1500E-01
     -5.430  0.0000E+00  0.1447E-06  0.4500E-01  0.1500E-01
     -5.401  0.0000E+00  0.3444E+00  0.4500E-01  0.2499E-01
     -5.372  0.0000E+00  0.0000E+00  0.4500E-01  0.2500E-01
     -5.343  0.6414E-01  0.0000E+00  0.4686E-01  0.2500E-01
     -5.314  0.1081E+00  0.0000E+00  0.5000E-01  0.2500E-01
     -5.285  0.6694E-16  0.0000E+00  0.5000E-01  0.2500E-01
     -5.256  0.9664E-01  0.0000E+00  0.5280E-01  0.2500E-01
     -5.227  0.7564E-01  0.0000E+00  0.5500E-01  0.2500E-01
     -5.198  0.0000E+00  0.0000E+00  0.5500E-01  0.2500E-01
     -5.169  0.0000E+00  0.0000E+00  0.5500E-01  0.2500E-01
     -5.140  0.0000E+00  0.0000E+00  0.5500E-01  0.2500E-01
     -5.111  0.0000E+00  0.0000E+00  0.5500E-01  0.2500E-01
     -5.082  0.0000E+00  0.0000E+00  0.5500E-01  0.2500E-01
     -5.053  0.0000E+00  0.0000E+00  0.5500E-01  0.2500E-01
     -5.024  0.0000E+00  0.0000E+00  0.5500E-01  0.2500E-01
     -4.995  0.0000E+00  0.0000E+00  0.5500E-01  0.2500E-01
     -4.966  0.0000E+00  0.0000E+00  0.5500E-01  0.2500E-01
     -4.937  0.0000E+00  0.0000E+00  0.5500E-01  0.2500E-01
     -4.908  0.0000E+00  0.0000E+00  0.5500E-01  0.2500E-01
     -4.879  0.0000E+00  0.0000E+00  0.5500E-01  0.2500E-01
     -4.850  0.0000E+00  0.0000E+00  0.5500E-01  0.2500E-01
     -4.821  0.0000E+00  0.2209E-14  0.5500E-01  0.2500E-01
     -4.792  0.0000E+00  0.1245E+00  0.5500E-01  0.2861E-01
     -4.763  0.0000E+00  0.4779E-01  0.5500E-01  0.3000E-01
     -4.734  0.0000E+00  0.0000E+00  0.5500E-01  0.3000E-01
     -4.705  0.0000E+00  0.0000E+00  0.5500E-01  0.3000E-01
     -4.676  0.0000E+00  0.6258E-11  0.5500E-01  0.3000E-01
     -4.647  0.0000E+00  0.3252E+00  0.5500E-01  0.3944E-01
     -4.618  0.0000E+00  0.1930E-01  0.5500E-01  0.4000E-01
     -4.589  0.0000E+00  0.0000E+00  0.5500E-01  0.4000E-01
     -4.560  0.0000E+00  0.0000E+00  0.5500E-01  0.4000E-01
     -4.531  0.0000E+00  0.0000E+00  0.5500E-01  0.4000E-01
     -4.502  0.0000E+00  0.0000E+00  0.5500E-01  0.4000E-01
     -4.473  0.0000E+00  0.0000E+00  0.5500E-01  0.4000E-01
     -4.444  0.0000E+00  0.0000E+00  0.5500E-01  0.4000E-01
     -4.415  0.0000E+00  0.0000E+00  0.5500E-01  0.4000E-01
     -4.386  0.0000E+00  0.0000E+00  0.5500E-01  0.4000E-01
     -4.357  0.0000E+00  0.0000E+00  0.5500E-01  0.4000E-01
     -4.328  0.0000E+00  0.0000E+00  0.5500E-01  0.4000E-01
     -4.299  0.0000E+00  0.0000E+00  0.5500E-01  0.4000E-01
     -4.270  0.0000E+00  0.0000E+00  0.5500E-01  0.4000E-01
     -4.240  0.0000E+00  0.0000E+00  0.5500E-01  0.4000E-01
     -4.211  0.0000E+00  0.0000E+00  0.5500E-01  0.4000E-01
     -4.182  0.0000E+00  0.0000E+00  0.5500E-01  0.4000E-01
     -4.153  0.0000E+00  0.0000E+00  0.5500E-01  0.4000E-01
     -4.124  0.0000E+00  0.0000E+00  0.5500E-01  0.4000E-01
     -4.095  0.0000E+00  0.0000E+00  0.5500E-01  0.4000E-01
     -4.066  0.0000E+00  0.1017E-01  0.5500E-01  0.4030E-01
     -4.037  0.0000E+00  0.3344E+00  0.5500E-01  0.5000E-01
     -4.008  0.0000E+00  0.0000E+00  0.5500E-01  0.5000E-01
     -3.979  0.0000E+00  0.7801E-02  0.5500E-01  0.5023E-01
     -3.950  0.0000E+00  0.1645E+00  0.5500E-01  0.5500E-01
     -3.921  0.0000E+00  0.0000E+00  0.5500E-01  0.5500E-01
     -3.892  0.0000E+00  0.0000E+00  0.5500E-01  0.5500E-01
     -3.863  0.0000E+00  0.0000E+00  0.5500E-01  0.5500E-01
     -3.834  0.0000E+00  0.0000E+00  0.5500E-01  0.5500E-01
     -3.805  0.0000E+00  0.0000E+00  0.5500E-01  0.5500E-01
     -3.776  0.0000E+00  0.0000E+00  0.5500E-01  0.5500E-01
     -3.747  0.0000E+00  0.0000E+00  0.5500E-01  0.5500E-01
     -3.718  0.0000E+00  0.0000E+00  0.5500E-01  0.5500E-01
     -3.689  0.0000E+00  0.0000E+00  0.5500E-01  0.5500E-01
     -3.660  0.0000E+00  0.0000E+00  0.5500E-01  0.5500E-01
     -3.631  0.0000E+00  0.0000E+00  0.5500E-01  0.5500E-01
     -3.602  0.0000E+00  0.0000E+00  0.5500E-01  0.5500E-01
     -3.573  0.0000E+00  0.0000E+00  0.5500E-01  0.5500E-01
     -3.544  0.0000E+00  0.0000E+00  0.5500E-01  0.5500E-01
     -3.515  0.0000E+00  0.0000E+00  0.5500E-01  0.5500E-01
     -3.486  0.0000E+00  0.0000E+00  0.5500E-01  0.5500E-01
     -3.457  0.0000E+00  0.0000E+00  0.5500E-01  0.5500E-01
     -3.428  0.0000E+00  0.0000E+00  0.5500E-01  0.5500E-01
     -3.399  0.0000E+00  0.0000E+00  0.5500E-01  0.5500E-01
     -3.370  0.0000E+00  0.0000E+00  0.5500E-01  0.5500E-01
     -3.341  0.0000E+00  0.0000E+00  0.5500E-01  0.5500E-01
     -3.312  0.0000E+00  0.0000E+00  0.5500E-01  0.5500E-01
     -3.283  0.0000E+00  0.0000E+00  0.5500E-01  0.5500E-01
     -3.254  0.0000E+00  0.0000E+00  0.5500E-01  0.5500E-01
     -3.225  0.0000E+00  0.0000E+00  0.5500E-01  0.5500E-01
     -3.196  0.0000E+00  0.0000E+00  0.5500E-01  0.5500E-01
     -3.167  0.0000E+00  0.0000E+00  0.5500E-01  0.5500E-01
     -3.138  0.2555E-02  0.0000E+00  0.5507E-01  0.5500E-01
     -3.109  0.1697E+00  0.0000E+00  0.6000E-01  0.5500E-01
     -3.080  0.0000E+00  0.0000E+00  0.6000E-01  0.5500E-01
     -3.051  0.0000E+00  0.0000E+00  0.6000E-01  0.5500E-01
     -3.021  0.0000E+00  0.0000E+00  0.6000E-01  0.5500E-01
     -2.992  0.0000E+00  0.0000E+00  0.6000E-01  0.5500E-01
     -2.963  0.0000E+00  0.0000E+00  0.6000E-01  0.5500E-01
     -2.934  0.0000E+00  0.0000E+00  0.6000E-01  0.5500E-01
     -2.905  0.0000E+00  0.0000E+00  0.6000E-01  0.5500E-01
     -2.876  0.0000E+00  0.0000E+00  0.6000E-01  0.5500E-01
     -2.847  0.0000E+00  0.0000E+00  0.6000E-01  0.5500E-01
     -2.818  0.0000E+00  0.0000E+00  0.6000E-01  0.5500E-01
     -2.789  0.0000E+00  0.0000E+00  0.6000E-01  0.5500E-01
     -2.760  0.0000E+00  0.0000E+00  0.6000E-01  0.5500E-01
     -2.731  0.0000E+00  0.0000E+00  0.6000E-01  0.5500E-01
     -2.702  0.0000E+00  0.0000E+00  0.6000E-01  0.5500E-01
     -2.673  0.0000E+00  0.0000E+00  0.6000E-01  0.5500E-01
     -2.644  0.0000E+00  0.0000E+00  0.6000E-01  0.5500E-01
     -2.615  0.0000E+00  0.0000E+00  0.6000E-01  0.5500E-01
     -2.586  0.0000E+00  0.0000E+00  0.6000E-01  0.5500E-01
     -2.557  0.0000E+00  0.0000E+00  0.6000E-01  0.5500E-01
     -2.528  0.0000E+00  0.0000E+00  0.6000E-01  0.5500E-01
     -2.499  0.0000E+00  0.0000E+00  0.6000E-01  0.5500E-01
     -2.470  0.0000E+00  0.0000E+00  0.6000E-01  0.5500E-01
     -2.441  0.0000E+00  0.4603E-01  0.6000E-01  0.5634E-01
     -2.412  0.0000E+00  0.1262E+00  0.6000E-01  0.6000E-01
     -2.383  0.0000E+00  0.0000E+00  0.6000E-01  0.6000E-01
     -2.354  0.0000E+00  0.0000E+00  0.6000E-01  0.6000E-01
     -2.325  0.0000E+00  0.0000E+00  0.6000E-01  0.6000E-01
     -2.296  0.0000E+00  0.0000E+00  0.6000E-01  0.6000E-01
     -2.267  0.0000E+00  0.0000E+00  0.6000E-01  0.6000E-01
     -2.238  0.0000E+00  0.0000E+00  0.6000E-01  0.6000E-01
     -2.209  0.0000E+00  0.0000E+00  0.6000E-01  0.6000E-01
     -2.180  0.0000E+00  0.0000E+00  0.6000E-01  0.6000E-01
     -2.151  0.0000E+00  0.0000E+00  0.6000E-01  0.6000E-01
     -2.122  0.0000E+00  0.0000E+00  0.6000E-01  0.6000E-01
     -2.093  0.0000E+00  0.0000E+00  0.6000E-01  0.6000E-01
     -2.064  0.0000E+00  0.0000E+00  0.6000E-01  0.6000E-01
     -2.035  0.0000E+00  0.0000E+00  0.6000E-01  0.6000E-01
     -2.006  0.0000E+00  0.0000E+00  0.6000E-01  0.6000E-01
     -1.977  0.0000E+00  0.0000E+00  0.6000E-01  0.6000E-01
     -1.948  0.0000E+00  0.0000E+00  0.6000E-01  0.6000E-01
     -1.919  0.0000E+00  0.0000E+00  0.6000E-01  0.6000E-01
     -1.890  0.0000E+00  0.0000E+00  0.6000E-01  0.6000E-01
     -1.861  0.0000E+00  0.0000E+00  0.6000E-01  0.6000E-01
     -1.832  0.0000E+00  0.0000E+00  0.6000E-01  0.6000E-01
     -1.802  0.0000E+00  0.0000E+00  0.6000E-01  0.6000E-01
     -1.773  0.0000E+00  0.0000E+00  0.6000E-01  0.6000E-01
     -1.744  0.0000E+00  0.0000E+00  0.6000E-01  0.6000E-01
     -1.715  0.0000E+00  0.0000E+00  0.6000E-01  0.6000E-01
     -1.686  0.0000E+00  0.0000E+00  0.6000E-01  0.6000E-01
     -1.657  0.0000E+00  0.0000E+00  0.6000E-01  0.6000E-01
     -1.628  0.0000E+00  0.0000E+00  0.6000E-01  0.6000E-01
     -1.599  0.0000E+00  0.0000E+00  0.6000E-01  0.6000E-01
     -1.570  0.0000E+00  0.0000E+00  0.6000E-01  0.6000E-01
     -1.541  0.0000E+00  0.0000E+00  0.6000E-01  0.6000E-01
     -1.512  0.0000E+00  0.0000E+00  0.6000E-01  0.6000E-01
     -1.483  0.0000E+00  0.0000E+00  0.6000E-01  0.6000E-01
     -1.454  0.0000E+00  0.0000E+00  0.6000E-01  0.6000E-01
     -1.425  0.0000E+00  0.0000E+00  0.6000E-01  0.6000E-01
     -1.396  0.0000E+00  0.0000E+00  0.6000E-01  0.6000E-01
     -1.367  0.0000E+00  0.0000E+00  0.6000E-01  0.6000E-01
     -1.338  0.0000E+00  0.0000E+00  0.6000E-01  0.6000E-01
     -1.309  0.0000E+00  0.0000E+00  0.6000E-01  0.6000E-01
     -1.280  0.3062E-02  0.0000E+00  0.6009E-01  0.6000E-01
     -1.251  0.3415E+00  0.0000E+00  0.7000E-01  0.6000E-01
     -1.222  0.0000E+00  0.0000E+00  0.7000E-01  0.6000E-01
     -1.193  0.0000E+00  0.0000E+00  0.7000E-01  0.6000E-01
     -1.164  0.0000E+00  0.0000E+00  0.7000E-01  0.6000E-01
     -1.135  0.0000E+00  0.0000E+00  0.7000E-01  0.6000E-01
     -1.106  0.0000E+00  0.0000E+00  0.7000E-01  0.6000E-01
     -1.077  0.0000E+00  0.4883E-03  0.7000E-01  0.6001E-01
     -1.048  0.0000E+00  0.3441E+00  0.7000E-01  0.7000E-01
     -1.019  0.0000E+00  0.0000E+00  0.7000E-01  0.7000E-01
     -0.990  0.0000E+00  0.0000E+00  0.7000E-01  0.7000E-01
     -0.961  0.0000E+00  0.0000E+00  0.7000E-01  0.7000E-01
     -0.932  0.0000E+00  0.0000E+00  0.7000E-01  0.7000E-01
     -0.903  0.0000E+00  0.0000E+00  0.7000E-01  0.7000E-01
     -0.874  0.0000E+00  0.0000E+00  0.7000E-01  0.7000E-01
     -0.845  0.0000E+00  0.0000E+00  0.7000E-01  0.7000E-01
     -0.816  0.0000E+00  0.0000E+00  0.7000E-01  0.7000E-01
     -0.787  0.0000E+00  0.0000E+00  0.7000E-01  0.7000E-01
     -0.758  0.0000E+00  0.0000E+00  0.7000E-01  0.7000E-01
     -0.729  0.0000E+00  0.0000E+00  0.7000E-01  0.7000E-01
     -0.700  0.0000E+00  0.0000E+00  0.7000E-01  0.7000E-01
     -0.671  0.0000E+00  0.0000E+00  0.7000E-01  0.7000E-01
     -0.67057576     -9.37767987  301     -4.65243974      1.00000000
     -9.378  0.0000E+00  0.0000E+00  0.0000E+00  0.0000E+00  0.0000E+00  0.0000E+00  0.0000E+00  0.0000E+00
     -9.349  0.0000E+00  0.0000E+00  0.0000E+00  0.0000E+00  0.0000E+00  0.0000E+00  0.0000E+00  0.0000E+00
     -9.320  0.0000E+00  0.0000E+00  0.0000E+00  0.0000E+00  0.0000E+00  0.0000E+00  0.0000E+00  0.0000E+00
     -9.291  0.0000E+00  0.0000E+00  0.0000E+00  0.0000E+00  0.0000E+00  0.0000E+00  0.0000E+00  0.0000E+00
     -9.262  0.0000E+00  0.0000E+00  0.0000E+00  0.0000E+00  0.0000E+00  0.0000E+00  0.0000E+00  0.0000E+00
     -9.233  0.0000E+00  0.0000E+00  0.0000E+00  0.0000E+00  0.0000E+00  0.0000E+00  0.0000E+00  0.0000E+00
     -9.204  0.0000E+00  0.0000E+00  0.0000E+00  0.0000E+00  0.0000E+00  0.0000E+00  0.0000E+00  0.0000E+00
     -9.175  0.0000E+00  0.0000E+00  0.0000E+00  0.0000E+00  0.0000E+00  0.0000E+00  0.0000E+00  0.0000E+00
     -9.145  0.0000E+00  0.0000E+00  0.0000E+00  0.0000E+00  0.0000E+00  0.0000E+00  0.0000E+00  0.0000E+00
     -9.116  0.0000E+00  0.0000E+00  0.0000E+00  0.0000E+00  0.0000E+00  0.0000E+00  0.0000E+00  0.0000E+00
     -9.087  0.0000E+00  0.0000E+00  0.0000E+00  0.0000E+00  0.0000E+00  0.0000E+00  0.0000E+00  0.0000E+00
     -9.058  0.0000E+00  0.0000E+00  0.0000E+00  0.0000E+00  0.0000E+00  0.0000E+00  0.0000E+00  0.0000E+00
     -9.029  0.0000E+00  0.0000E+00  0.0000E+00  0.0000E+00  0.0000E+00  0.0000E+00  0.0000E+00  0.0000E+00
     -9.000  0.1102E-06  0.0000E+00  0.6058E-07  0.0000E+00  0.1594E-05  0.0000E+00  0.1780E-07  0.0000E+00
     -8.971  0.1257E+01  0.0000E+00  0.6909E+00  0.0000E+00  0.1817E+02  0.0000E+00  0.2030E+00  0.0000E+00
     -8.942  0.1784E-02  0.0000E+00  0.9806E-03  0.0000E+00  0.2579E-01  0.0000E+00  0.2881E-03  0.0000E+00
     -8.913  0.0000E+00  0.0000E+00  0.0000E+00  0.0000E+00  0.0000E+00  0.0000E+00  0.0000E+00  0.0000E+00
     -8.884  0.0000E+00  0.0000E+00  0.0000E+00  0.0000E+00  0.0000E+00  0.0000E+00  0.0000E+00  0.0000E+00
     -8.855  0.0000E+00  0.0000E+00  0.0000E+00  0.0000E+00  0.0000E+00  0.0000E+00  0.0000E+00  0.0000E+00
     -8.826  0.0000E+00  0.0000E+00  0.0000E+00  0.0000E+00  0.0000E+00  0.0000E+00  0.0000E+00  0.0000E+00
     -8.797  0.0000E+00  0.0000E+00  0.0000E+00  0.0000E+00  0.0000E+00  0.0000E+00  0.0000E+00  0.0000E+00
     -8.768  0.0000E+00  0.0000E+00  0.0000E+00  0.0000E+00  0.0000E+00  0.0000E+00  0.0000E+00  0.0000E+00
     -8.739  0.0000E+00  0.0000E+00  0.0000E+00  0.0000E+00  0.0000E+00  0.0000E+00  0.0000E+00  0.0000E+00
     -8.710  0.0000E+00  0.0000E+00  0.0000E+00  0.0000E+00  0.0000E+00  0.0000E+00  0.0000E+00  0.0000E+00
     -8.681  0.0000E+00  0.0000E+00  0.0000E+00  0.0000E+00  0.0000E+00  0.0000E+00  0.0000E+00  0.0000E+00
     -8.652  0.0000E+00  0.0000E+00  0.0000E+00  0.0000E+00  0.0000E+00  0.0000E+00  0.0000E+00  0.0000E+00
     -8.623  0.0000E+00  0.0000E+00  0.0000E+00  0.0000E+00  0.0000E+00  0.0000E+00  0.0000E+00  0.0000E+00
     -8.594  0.0000E+00  0.0000E+00  0.0000E+00  0.0000E+00  0.0000E+00  0.0000E+00  0.0000E+00  0.0000E+00
     -8.565  0.0000E+00  0.0000E+00  0.0000E+00  0.0000E+00  0.0000E+00  0.0000E+00  0.0000E+00  0.0000E+00
     -8.536  0.0000E+00  0.0000E+00  0.0000E+00  0.0000E+00  0.0000E+00  0.0000E+00  0.0000E+00  0.0000E+00
     -8.507  0.0000E+00  0.0000E+00  0.0000E+00  0.0000E+00  0.0000E+00  0.0000E+00  0.0000E+00  0.0000E+00
     -8.478  0.0000E+00  0.0000E+00  0.0000E+00  0.0000E+00  0.0000E+00  0.0000E+00  0.0000E+00  0.0000E+00
     -8.449  0.0000E+00  0.0000E+00  0.0000E+00  0.0000E+00  0.0000E+00  0.0000E+00  0.0000E+00  0.0000E+00
     -8.420  0.0000E+00  0.0000E+00  0.0000E+00  0.0000E+00  0.0000E+00  0.0000E+00  0.0000E+00  0.0000E+00
     -8.391  0.0000E+00  0.0000E+00  0.0000E+00  0.0000E+00  0.0000E+00  0.0000E+00  0.0000E+00  0.0000E+00
     -8.362  0.0000E+00  0.0000E+00  0.0000E+00  0.0000E+00  0.0000E+00  0.0000E+00  0.0000E+00  0.0000E+00
     -8.333  0.0000E+00  0.0000E+00  0.0000E+00  0.0000E+00  0.0000E+00  0.0000E+00  0.0000E+00  0.0000E+00
     -8.304  0.0000E+00  0.0000E+00  0.0000E+00  0.0000E+00  0.0000E+00  0.0000E+00  0.0000E+00  0.0000E+00
     -8.275  0.2985E-33  0.0000E+00  0.4140E-15  0.0000E+00  0.3555E-13  0.0000E+00  0.2810E-15  0.0000E+00
     -8.246  0.1718E-18  0.0000E+00  0.2382E+00  0.0000E+00  0.2045E+02  0.0000E+00  0.1617E+00  0.0000E+00
     -8.217  0.1113E-18  0.0000E+00  0.1543E+00  0.0000E+00  0.1325E+02  0.0000E+00  0.1047E+00  0.0000E+00
     -8.188  0.0000E+00  0.0000E+00  0.0000E+00  0.0000E+00  0.0000E+00  0.0000E+00  0.0000E+00  0.0000E+00
     -8.159  0.0000E+00  0.0000E+00  0.0000E+00  0.0000E+00  0.0000E+00  0.0000E+00  0.0000E+00  0.0000E+00
     -8.130  0.0000E+00  0.0000E+00  0.0000E+00  0.0000E+00  0.0000E+00  0.0000E+00  0.0000E+00  0.0000E+00
     -8.101  0.0000E+00  0.0000E+00  0.0000E+00  0.0000E+00  0.0000E+00  0.0000E+00  0.0000E+00  0.0000E+00
     -8.072  0.0000E+00  0.0000E+00  0.0000E+00  0.0000E+00  0.0000E+00  0.0000E+00  0.0000E+00  0.0000E+00
     -8.043  0.0000E+00  0.0000E+00  0.0000E+00  0.0000E+00  0.0000E+00  0.0000E+00  0.0000E+00  0.0000E+00
     -8.014  0.0000E+00  0.0000E+00  0.0000E+00  0.0000E+00  0.0000E+00  0.0000E+00  0.0000E+00  0.0000E+00
     -7.985  0.0000E+00  0.0000E+00  0.0000E+00  0.0000E+00  0.0000E+00  0.0000E+00  0.0000E+00  0.0000E+00
     -7.956  0.0000E+00  0.0000E+00  0.0000E+00  0.0000E+00  0.0000E+00  0.0000E+00  0.0000E+00  0.0000E+00
     -7.926  0.0000E+00  0.0000E+00  0.0000E+00  0.0000E+00  0.0000E+00  0.0000E+00  0.0000E+00  0.0000E+00
     -7.897  0.0000E+00  0.0000E+00  0.0000E+00  0.0000E+00  0.0000E+00  0.0000E+00  0.0000E+00  0.0000E+00
     -7.868  0.0000E+00  0.0000E+00  0.0000E+00  0.0000E+00  0.0000E+00  0.0000E+00  0.0000E+00  0.0000E+00
     -7.839  0.0000E+00  0.2744E-01  0.0000E+00  0.1481E-01  0.0000E+00  0.2713E+00  0.0000E+00  0.3686E-02
     -7.810  0.0000E+00  0.1784E+01  0.0000E+00  0.9629E+00  0.0000E+00  0.1764E+02  0.0000E+00  0.2396E+00
     -7.781  0.0000E+00  0.0000E+00  0.0000E+00  0.0000E+00  0.0000E+00  0.0000E+00  0.0000E+00  0.0000E+00
     -7.752  0.0000E+00  0.0000E+00  0.0000E+00  0.0000E+00  0.0000E+00  0.0000E+00  0.0000E+00  0.0000E+00
     -7.723  0.0000E+00  0.0000E+00  0.0000E+00  0.0000E+00  0.0000E+00  0.0000E+00  0.0000E+00  0.0000E+00
     -7.694  0.0000E+00  0.0000E+00  0.0000E+00  0.0000E+00  0.0000E+00  0.0000E+00  0.0000E+00  0.0000E+00
     -7.665  0.0000E+00  0.0000E+00  0.0000E+00  0.0000E+00  0.0000E+00  0.0000E+00  0.0000E+00  0.0000E+00
     -7.636  0.0000E+00  0.0000E+00  0.0000E+00  0.0000E+00  0.0000E+00  0.0000E+00  0.0000E+00  0.0000E+00
     -7.607  0.0000E+00  0.0000E+00  0.0000E+00  0.0000E+00  0.0000E+00  0.0000E+00  0.0000E+00  0.0000E+00
     -7.578  0.0000E+00  0.0000E+00  0.0000E+00  0.0000E+00  0.0000E+00  0.0000E+00  0.0000E+00  0.0000E+00
     -7.549  0.0000E+00  0.0000E+00  0.0000E+00  0.0000E+00  0.0000E+00  0.0000E+00  0.0000E+00  0.0000E+00
     -7.520  0.0000E+00  0.0000E+00  0.0000E+00  0.0000E+00  0.0000E+00  0.0000E+00  0.0000E+00  0.0000E+00
     -7.491  0.0000E+00  0.0000E+00  0.0000E+00  0.0000E+00  0.0000E+00  0.0000E+00  0.0000E+00  0.0000E+00
     -7.462  0.0000E+00  0.0000E+00  0.0000E+00  0.0000E+00  0.0000E+00  0.0000E+00  0.0000E+00  0.0000E+00
     -7.433  0.0000E+00  0.0000E+00  0.0000E+00  0.0000E+00  0.0000E+00  0.0000E+00  0.0000E+00  0.0000E+00
     -7.404  0.0000E+00  0.0000E+00  0.0000E+00  0.0000E+00  0.0000E+00  0.0000E+00  0.0000E+00  0.0000E+00
     -7.375  0.0000E+00  0.0000E+00  0.0000E+00  0.0000E+00  0.0000E+00  0.0000E+00  0.0000E+00  0.0000E+00
     -7.346  0.0000E+00  0.0000E+00  0.0000E+00  0.0000E+00  0.0000E+00  0.0000E+00  0.0000E+00  0.0000E+00
     -7.317  0.0000E+00  0.0000E+00  0.0000E+00  0.0000E+00  0.0000E+00  0.0000E+00  0.0000E+00  0.0000E+00
     -7.288  0.0000E+00  0.0000E+00  0.0000E+00  0.0000E+00  0.0000E+00  0.0000E+00  0.0000E+00  0.0000E+00
     -7.259  0.0000E+00  0.0000E+00  0.0000E+00  0.0000E+00  0.0000E+00  0.0000E+00  0.0000E+00  0.0000E+00
     -7.230  0.0000E+00  0.0000E+00  0.0000E+00  0.0000E+00  0.0000E+00  0.0000E+00  0.0000E+00  0.0000E+00
     -7.201  0.0000E+00  0.0000E+00  0.0000E+00  0.0000E+00  0.0000E+00  0.0000E+00  0.0000E+00  0.0000E+00
     -7.172  0.0000E+00  0.0000E+00  0.0000E+00  0.0000E+00  0.0000E+00  0.0000E+00  0.0000E+00  0.0000E+00
     -7.143  0.0000E+00  0.0000E+00  0.0000E+00  0.0000E+00  0.0000E+00  0.0000E+00  0.0000E+00  0.0000E+00
     -7.114  0.0000E+00  0.0000E+00  0.0000E+00  0.0000E+00  0.0000E+00  0.0000E+00  0.0000E+00  0.0000E+00
     -7.085  0.0000E+00  0.0000E+00  0.0000E+00  0.0000E+00  0.0000E+00  0.0000E+00  0.0000E+00  0.0000E+00
     -7.056  0.0000E+00  0.0000E+00  0.0000E+00  0.0000E+00  0.0000E+00  0.0000E+00  0.0000E+00  0.0000E+00
     -7.027  0.0000E+00  0.1194E-28  0.0000E+00  0.8903E-11  0.0000E+00  0.4426E-09  0.0000E+00  0.4819E-11
     -6.998  0.0000E+00  0.8441E-18  0.0000E+00  0.6292E+00  0.0000E+00  0.3127E+02  0.0000E+00  0.3406E+00
     -6.969  0.0000E+00  0.5503E-19  0.0000E+00  0.4102E-01  0.0000E+00  0.2039E+01  0.0000E+00  0.2220E-01
     -6.940  0.0000E+00  0.0000E+00  0.0000E+00  0.0000E+00  0.0000E+00  0.0000E+00  0.0000E+00  0.0000E+00
     -6.911  0.0000E+00  0.0000E+00  0.0000E+00  0.0000E+00  0.0000E+00  0.0000E+00  0.0000E+00  0.0000E+00
     -6.882  0.0000E+00  0.0000E+00  0.0000E+00  0.0000E+00  0.0000E+00  0.0000E+00  0.0000E+00  0.0000E+00
     -6.853  0.0000E+00  0.0000E+00  0.0000E+00  0.0000E+00  0.0000E+00  0.0000E+00  0.0000E+00  0.0000E+00
     -6.824  0.0000E+00  0.0000E+00  0.0000E+00  0.0000E+00  0.0000E+00  0.0000E+00  0.0000E+00  0.0000E+00
     -6.795  0.0000E+00  0.0000E+00  0.0000E+00  0.0000E+00  0.0000E+00  0.0000E+00  0.0000E+00  0.0000E+00
     -6.766  0.0000E+00  0.0000E+00  0.0000E+00  0.0000E+00  0.0000E+00  0.0000E+00  0.0000E+00  0.0000E+00
     -6.737  0.0000E+00  0.0000E+00  0.0000E+00  0.0000E+00  0.0000E+00  0.0000E+00  0.0000E+00  0.0000E+00
     -6.708  0.0000E+00  0.0000E+00  0.0000E+00  0.0000E+00  0.0000E+00  0.0000E+00  0.0000E+00  0.0000E+00
     -6.678  0.0000E+00  0.0000E+00  0.0000E+00  0.0000E+00  0.0000E+00  0.0000E+00  0.0000E+00  0.0000E+00
     -6.649  0.0000E+00  0.0000E+00  0.0000E+00  0.0000E+00  0.0000E+00  0.0000E+00  0.0000E+00  0.0000E+00
     -6.620  0.0000E+00  0.0000E+00  0.0000E+00  0.0000E+00  0.0000E+00  0.0000E+00  0.0000E+00  0.0000E+00
     -6.591  0.0000E+00  0.0000E+00  0.0000E+00  0.0000E+00  0.0000E+00  0.0000E+00  0.0000E+00  0.0000E+00
     -6.562  0.1394E-32  0.0000E+00  0.8859E-31  0.0000E+00  0.2447E-10  0.0000E+00  0.1650E-13  0.0000E+00
     -6.533  0.3703E-19  0.0000E+00  0.2749E-18  0.0000E+00  0.2623E+02  0.0000E+00  0.1768E-01  0.0000E+00
     -6.504  0.1193E-19  0.0000E+00  0.7914E-19  0.0000E+00  0.5616E+01  0.0000E+00  0.3786E-02  0.0000E+00
     -6.475  0.0000E+00  0.0000E+00  0.0000E+00  0.0000E+00  0.0000E+00  0.0000E+00  0.0000E+00  0.0000E+00
     -6.446  0.0000E+00  0.0000E+00  0.0000E+00  0.0000E+00  0.0000E+00  0.0000E+00  0.0000E+00  0.0000E+00
     -6.417  0.0000E+00  0.0000E+00  0.0000E+00  0.0000E+00  0.0000E+00  0.0000E+00  0.0000E+00  0.0000E+00
     -6.388  0.0000E+00  0.0000E+00  0.0000E+00  0.0000E+00  0.0000E+00  0.0000E+00  0.0000E+00  0.0000E+00
     -6.359  0.0000E+00  0.0000E+00  0.0000E+00  0.0000E+00  0.0000E+00  0.0000E+00  0.0000E+00  0.0000E+00
     -6.330  0.0000E+00  0.0000E+00  0.0000E+00  0.0000E+00  0.0000E+00  0.0000E+00  0.0000E+00  0.0000E+00
     -6.301  0.0000E+00  0.0000E+00  0.0000E+00  0.0000E+00  0.0000E+00  0.0000E+00  0.0000E+00  0.0000E+00
     -6.272  0.0000E+00  0.0000E+00  0.0000E+00  0.0000E+00  0.0000E+00  0.0000E+00  0.0000E+00  0.0000E+00
     -6.243  0.0000E+00  0.0000E+00  0.0000E+00  0.0000E+00  0.0000E+00  0.0000E+00  0.0000E+00  0.0000E+00
     -6.214  0.0000E+00  0.0000E+00  0.0000E+00  0.0000E+00  0.0000E+00  0.0000E+00  0.0000E+00  0.0000E+00
     -6.185  0.0000E+00  0.0000E+00  0.0000E+00  0.0000E+00  0.0000E+00  0.0000E+00  0.0000E+00  0.0000E+00
     -6.156  0.0000E+00  0.0000E+00  0.0000E+00  0.0000E+00  0.0000E+00  0.0000E+00  0.0000E+00  0.0000E+00
     -6.127  0.0000E+00  0.0000E+00  0.0000E+00  0.0000E+00  0.0000E+00  0.0000E+00  0.0000E+00  0.0000E+00
     -6.098  0.0000E+00  0.0000E+00  0.0000E+00  0.0000E+00  0.0000E+00  0.0000E+00  0.0000E+00  0.0000E+00
     -6.069  0.0000E+00  0.0000E+00  0.0000E+00  0.0000E+00  0.0000E+00  0.0000E+00  0.0000E+00  0.0000E+00
     -6.040  0.0000E+00  0.0000E+00  0.0000E+00  0.0000E+00  0.0000E+00  0.0000E+00  0.0000E+00  0.0000E+00
     -6.011  0.0000E+00  0.0000E+00  0.0000E+00  0.0000E+00  0.0000E+00  0.0000E+00  0.0000E+00  0.0000E+00
     -5.982  0.0000E+00  0.0000E+00  0.0000E+00  0.0000E+00  0.0000E+00  0.0000E+00  0.0000E+00  0.0000E+00
     -5.953  0.0000E+00  0.0000E+00  0.0000E+00  0.0000E+00  0.0000E+00  0.0000E+00  0.0000E+00  0.0000E+00
     -5.924  0.0000E+00  0.0000E+00  0.0000E+00  0.0000E+00  0.0000E+00  0.0000E+00  0.0000E+00  0.0000E+00
     -5.895  0.1165E-41  0.0000E+00  0.1016E-34  0.0000E+00  0.9021E-15  0.0000E+00  0.1259E-17  0.0000E+00
     -5.866  0.1158E-18  0.0000E+00  0.3613E-18  0.0000E+00  0.1151E+02  0.0000E+00  0.1607E-01  0.0000E+00
     -5.837  0.3538E-18  0.0000E+00  0.9439E-18  0.0000E+00  0.2099E+02  0.0000E+00  0.2932E-01  0.0000E+00
     -5.808  0.0000E+00  0.0000E+00  0.0000E+00  0.0000E+00  0.0000E+00  0.0000E+00  0.0000E+00  0.0000E+00
     -5.779  0.0000E+00  0.0000E+00  0.0000E+00  0.0000E+00  0.0000E+00  0.0000E+00  0.0000E+00  0.0000E+00
     -5.750  0.0000E+00  0.0000E+00  0.0000E+00  0.0000E+00  0.0000E+00  0.0000E+00  0.0000E+00  0.0000E+00
     -5.721  0.0000E+00  0.0000E+00  0.0000E+00  0.0000E+00  0.0000E+00  0.0000E+00  0.0000E+00  0.0000E+00
     -5.692  0.0000E+00  0.0000E+00  0.0000E+00  0.0000E+00  0.0000E+00  0.0000E+00  0.0000E+00  0.0000E+00
     -5.663  0.0000E+00  0.0000E+00  0.0000E+00  0.0000E+00  0.0000E+00  0.0000E+00  0.0000E+00  0.0000E+00
     -5.634  0.0000E+00  0.0000E+00  0.0000E+00  0.0000E+00  0.0000E+00  0.0000E+00  0.0000E+00  0.0000E+00
     -5.605  0.2939E-20  0.0000E+00  0.4768E-02  0.0000E+00  0.2014E+00  0.0000E+00  0.1865E-02  0.0000E+00
     -5.576  0.4483E-18  0.0000E+00  0.7272E+00  0.0000E+00  0.3071E+02  0.0000E+00  0.2844E+00  0.0000E+00
     -5.547  0.0000E+00  0.0000E+00  0.0000E+00  0.0000E+00  0.0000E+00  0.0000E+00  0.0000E+00  0.0000E+00
     -5.518  0.0000E+00  0.0000E+00  0.0000E+00  0.0000E+00  0.0000E+00  0.0000E+00  0.0000E+00  0.0000E+00
     -5.489  0.0000E+00  0.0000E+00  0.0000E+00  0.0000E+00  0.0000E+00  0.0000E+00  0.0000E+00  0.0000E+00
     -5.459  0.0000E+00  0.0000E+00  0.0000E+00  0.0000E+00  0.0000E+00  0.0000E+00  0.0000E+00  0.0000E+00
     -5.430  0.0000E+00  0.3157E-25  0.0000E+00  0.1951E-24  0.0000E+00  0.1316E-04  0.0000E+00  0.1676E-07
     -5.401  0.0000E+00  0.6993E-19  0.0000E+00  0.4717E-18  0.0000E+00  0.3130E+02  0.0000E+00  0.3987E-01
     -5.372  0.0000E+00  0.0000E+00  0.0000E+00  0.0000E+00  0.0000E+00  0.0000E+00  0.0000E+00  0.0000E+00
     -5.343  0.3897E+00  0.0000E+00  0.2077E+00  0.0000E+00  0.5249E+01  0.0000E+00  0.7955E-01  0.0000E+00
     -5.314  0.6570E+00  0.0000E+00  0.3501E+00  0.0000E+00  0.8849E+01  0.0000E+00  0.1341E+00  0.0000E+00
     -5.285  0.3464E-14  0.0000E+00  0.5495E-16  0.0000E+00  0.2026E-15  0.0000E+00  0.1030E-17  0.0000E+00
     -5.256  0.5001E+01  0.0000E+00  0.7932E-01  0.0000E+00  0.2925E+00  0.0000E+00  0.1487E-02  0.0000E+00
     -5.227  0.3914E+01  0.0000E+00  0.6209E-01  0.0000E+00  0.2289E+00  0.0000E+00  0.1163E-02  0.0000E+00
     -5.198  0.0000E+00  0.0000E+00  0.0000E+00  0.0000E+00  0.0000E+00  0.0000E+00  0.0000E+00  0.0000E+00
     -5.169  0.0000E+00  0.0000E+00  0.0000E+00  0.0000E+00  0.0000E+00  0.0000E+00  0.0000E+00  0.0000E+00
     -5.140  0.0000E+00  0.0000E+00  0.0000E+00  0.0000E+00  0.0000E+00  0.0000E+00  0.0000E+00  0.0000E+00
     -5.111  0.0000E+00  0.0000E+00  0.0000E+00  0.0000E+00  0.0000E+00  0.0000E+00  0.0000E+00  0.0000E+00
     -5.082  0.0000E+00  0.0000E+00  0.0000E+00  0.0000E+00  0.0000E+00  0.0000E+00  0.0000E+00  0.0000E+00
     -5.053  0.0000E+00  0.0000E+00  0.0000E+00  0.0000E+00  0.0000E+00  0.0000E+00  0.0000E+00  0.0000E+00
     -5.024  0.0000E+00  0.0000E+00  0.0000E+00  0.0000E+00  0.0000E+00  0.0000E+00  0.0000E+00  0.0000E+00
     -4.995  0.0000E+00  0.0000E+00  0.0000E+00  0.0000E+00  0.0000E+00  0.0000E+00  0.0000E+00  0.0000E+00
     -4.966  0.0000E+00  0.0000E+00  0.0000E+00  0.0000E+00  0.0000E+00  0.0000E+00  0.0000E+00  0.0000E+00
     -4.937  0.0000E+00  0.0000E+00  0.0000E+00  0.0000E+00  0.0000E+00  0.0000E+00  0.0000E+00  0.0000E+00
     -4.908  0.0000E+00  0.0000E+00  0.0000E+00  0.0000E+00  0.0000E+00  0.0000E+00  0.0000E+00  0.0000E+00
     -4.879  0.0000E+00  0.0000E+00  0.0000E+00  0.0000E+00  0.0000E+00  0.0000E+00  0.0000E+00  0.0000E+00
     -4.850  0.0000E+00  0.0000E+00  0.0000E+00  0.0000E+00  0.0000E+00  0.0000E+00  0.0000E+00  0.0000E+00
     -4.821  0.0000E+00  0.1011E-12  0.0000E+00  0.2663E-14  0.0000E+00  0.1178E-13  0.0000E+00  0.1283E-15
     -4.792  0.0000E+00  0.5697E+01  0.0000E+00  0.1501E+00  0.0000E+00  0.6639E+00  0.0000E+00  0.7230E-02
     -4.763  0.0000E+00  0.2187E+01  0.0000E+00  0.5760E-01  0.0000E+00  0.2548E+00  0.0000E+00  0.2775E-02
     -4.734  0.0000E+00  0.0000E+00  0.0000E+00  0.0000E+00  0.0000E+00  0.0000E+00  0.0000E+00  0.0000E+00
     -4.705  0.0000E+00  0.0000E+00  0.0000E+00  0.0000E+00  0.0000E+00  0.0000E+00  0.0000E+00  0.0000E+00
     -4.676  0.0000E+00  0.4142E-29  0.0000E+00  0.1828E-28  0.0000E+00  0.5856E-09  0.0000E+00  0.6664E-12
     -4.647  0.0000E+00  0.1904E-18  0.0000E+00  0.9251E-18  0.0000E+00  0.3043E+02  0.0000E+00  0.3463E-01
     -4.618  0.0000E+00  0.1082E-19  0.0000E+00  0.5442E-19  0.0000E+00  0.1806E+01  0.0000E+00  0.2055E-02
     -4.589  0.0000E+00  0.0000E+00  0.0000E+00  0.0000E+00  0.0000E+00  0.0000E+00  0.0000E+00  0.0000E+00
     -4.560  0.0000E+00  0.0000E+00  0.0000E+00  0.0000E+00  0.0000E+00  0.0000E+00  0.0000E+00  0.0000E+00
     -4.531  0.0000E+00  0.0000E+00  0.0000E+00  0.0000E+00  0.0000E+00  0.0000E+00  0.0000E+00  0.0000E+00
     -4.502  0.0000E+00  0.0000E+00  0.0000E+00  0.0000E+00  0.0000E+00  0.0000E+00  0.0000E+00  0.0000E+00
     -4.473  0.0000E+00  0.0000E+00  0.0000E+00  0.0000E+00  0.0000E+00  0.0000E+00  0.0000E+00  0.0000E+00
     -4.444  0.0000E+00  0.0000E+00  0.0000E+00  0.0000E+00  0.0000E+00  0.0000E+00  0.0000E+00  0.0000E+00
     -4.415  0.0000E+00  0.0000E+00  0.0000E+00  0.0000E+00  0.0000E+00  0.0000E+00  0.0000E+00  0.0000E+00
     -4.386  0.0000E+00  0.0000E+00  0.0000E+00  0.0000E+00  0.0000E+00  0.0000E+00  0.0000E+00  0.0000E+00
     -4.357  0.0000E+00  0.0000E+00  0.0000E+00  0.0000E+00  0.0000E+00  0.0000E+00  0.0000E+00  0.0000E+00
     -4.328  0.0000E+00  0.0000E+00  0.0000E+00  0.0000E+00  0.0000E+00  0.0000E+00  0.0000E+00  0.0000E+00
     -4.299  0.0000E+00  0.0000E+00  0.0000E+00  0.0000E+00  0.0000E+00  0.0000E+00  0.0000E+00  0.0000E+00
     -4.270  0.0000E+00  0.0000E+00  0.0000E+00  0.0000E+00  0.0000E+00  0.0000E+00  0.0000E+00  0.0000E+00
     -4.240  0.0000E+00  0.0000E+00  0.0000E+00  0.0000E+00  0.0000E+00  0.0000E+00  0.0000E+00  0.0000E+00
     -4.211  0.0000E+00  0.0000E+00  0.0000E+00  0.0000E+00  0.0000E+00  0.0000E+00  0.0000E+00  0.0000E+00
     -4.182  0.0000E+00  0.0000E+00  0.0000E+00  0.0000E+00  0.0000E+00  0.0000E+00  0.0000E+00  0.0000E+00
     -4.153  0.0000E+00  0.0000E+00  0.0000E+00  0.0000E+00  0.0000E+00  0.0000E+00  0.0000E+00  0.0000E+00
     -4.124  0.0000E+00  0.0000E+00  0.0000E+00  0.0000E+00  0.0000E+00  0.0000E+00  0.0000E+00  0.0000E+00
     -4.095  0.0000E+00  0.0000E+00  0.0000E+00  0.0000E+00  0.0000E+00  0.0000E+00  0.0000E+00  0.0000E+00
     -4.066  0.0000E+00  0.4013E-19  0.0000E+00  0.2344E-01  0.0000E+00  0.8951E+00  0.0000E+00  0.7772E-02
     -4.037  0.0000E+00  0.1319E-17  0.0000E+00  0.7704E+00  0.0000E+00  0.2942E+02  0.0000E+00  0.2555E+00
     -4.008  0.0000E+00  0.0000E+00  0.0000E+00  0.0000E+00  0.0000E+00  0.0000E+00  0.0000E+00  0.0000E+00
     -3.979  0.0000E+00  0.6874E-01  0.0000E+00  0.1756E-01  0.0000E+00  0.6034E+00  0.0000E+00  0.8486E-02
     -3.950  0.0000E+00  0.1449E+01  0.0000E+00  0.3701E+00  0.0000E+00  0.1272E+02  0.0000E+00  0.1789E+00
     -3.921  0.0000E+00  0.0000E+00  0.0000E+00  0.0000E+00  0.0000E+00  0.0000E+00  0.0000E+00  0.0000E+00
     -3.892  0.0000E+00  0.0000E+00  0.0000E+00  0.0000E+00  0.0000E+00  0.0000E+00  0.0000E+00  0.0000E+00
     -3.863  0.0000E+00  0.0000E+00  0.0000E+00  0.0000E+00  0.0000E+00  0.0000E+00  0.0000E+00  0.0000E+00
     -3.834  0.0000E+00  0.0000E+00  0.0000E+00  0.0000E+00  0.0000E+00  0.0000E+00  0.0000E+00  0.0000E+00
     -3.805  0.0000E+00  0.0000E+00  0.0000E+00  0.0000E+00  0.0000E+00  0.0000E+00  0.0000E+00  0.0000E+00
     -3.776  0.0000E+00  0.0000E+00  0.0000E+00  0.0000E+00  0.0000E+00  0.0000E+00  0.0000E+00  0.0000E+00
     -3.747  0.0000E+00  0.0000E+00  0.0000E+00  0.0000E+00  0.0000E+00  0.0000E+00  0.0000E+00  0.0000E+00
     -3.718  0.0000E+00  0.0000E+00  0.0000E+00  0.0000E+00  0.0000E+00  0.0000E+00  0.0000E+00  0.0000E+00
     -3.689  0.0000E+00  0.0000E+00  0.0000E+00  0.0000E+00  0.0000E+00  0.0000E+00  0.0000E+00  0.0000E+00
     -3.660  0.0000E+00  0.0000E+00  0.0000E+00  0.0000E+00  0.0000E+00  0.0000E+00  0.0000E+00  0.0000E+00
     -3.631  0.0000E+00  0.0000E+00  0.0000E+00  0.0000E+00  0.0000E+00  0.0000E+00  0.0000E+00  0.0000E+00
     -3.602  0.0000E+00  0.0000E+00  0.0000E+00  0.0000E+00  0.0000E+00  0.0000E+00  0.0000E+00  0.0000E+00
     -3.573  0.0000E+00  0.0000E+00  0.0000E+00  0.0000E+00  0.0000E+00  0.0000E+00  0.0000E+00  0.0000E+00
     -3.544  0.0000E+00  0.0000E+00  0.0000E+00  0.0000E+00  0.0000E+00  0.0000E+00  0.0000E+00  0.0000E+00
     -3.515  0.0000E+00  0.0000E+00  0.0000E+00  0.0000E+00  0.0000E+00  0.0000E+00  0.0000E+00  0.0000E+00
     -3.486  0.0000E+00  0.0000E+00  0.0000E+00  0.0000E+00  0.0000E+00  0.0000E+00  0.0000E+00  0.0000E+00
     -3.457  0.0000E+00  0.0000E+00  0.0000E+00  0.0000E+00  0.0000E+00  0.0000E+00  0.0000E+00  0.0000E+00
     -3.428  0.0000E+00  0.0000E+00  0.0000E+00  0.0000E+00  0.0000E+00  0.0000E+00  0.0000E+00  0.0000E+00
     -3.399  0.0000E+00  0.0000E+00  0.0000E+00  0.0000E+00  0.0000E+00  0.0000E+00  0.0000E+00  0.0000E+00
     -3.370  0.0000E+00  0.0000E+00  0.0000E+00  0.0000E+00  0.0000E+00  0.0000E+00  0.0000E+00  0.0000E+00
     -3.341  0.0000E+00  0.0000E+00  0.0000E+00  0.0000E+00  0.0000E+00  0.0000E+00  0.0000E+00  0.0000E+00
     -3.312  0.0000E+00  0.0000E+00  0.0000E+00  0.0000E+00  0.0000E+00  0.0000E+00  0.0000E+00  0.0000E+00
     -3.283  0.0000E+00  0.0000E+00  0.0000E+00  0.0000E+00  0.0000E+00  0.0000E+00  0.0000E+00  0.0000E+00
     -3.254  0.0000E+00  0.0000E+00  0.0000E+00  0.0000E+00  0.0000E+00  0.0000E+00  0.0000E+00  0.0000E+00
     -3.225  0.0000E+00  0.0000E+00  0.0000E+00  0.0000E+00  0.0000E+00  0.0000E+00  0.0000E+00  0.0000E+00
     -3.196  0.0000E+00  0.0000E+00  0.0000E+00  0.0000E+00  0.0000E+00  0.0000E+00  0.0000E+00  0.0000E+00
     -3.167  0.0000E+00  0.0000E+00  0.0000E+00  0.0000E+00  0.0000E+00  0.0000E+00  0.0000E+00  0.0000E+00
     -3.138  0.6793E-01  0.0000E+00  0.2964E-01  0.0000E+00  0.3442E-02  0.0000E+00  0.1685E-03  0.0000E+00
     -3.109  0.4512E+01  0.0000E+00  0.1969E+01  0.0000E+00  0.2286E+00  0.0000E+00  0.1119E-01  0.0000E+00
     -3.080  0.0000E+00  0.0000E+00  0.0000E+00  0.0000E+00  0.0000E+00  0.0000E+00  0.0000E+00  0.0000E+00
     -3.051  0.0000E+00  0.0000E+00  0.0000E+00  0.0000E+00  0.0000E+00  0.0000E+00  0.0000E+00  0.0000E+00
     -3.021  0.0000E+00  0.0000E+00  0.0000E+00  0.0000E+00  0.0000E+00  0.0000E+00  0.0000E+00  0.0000E+00
     -2.992  0.0000E+00  0.0000E+00  0.0000E+00  0.0000E+00  0.0000E+00  0.0000E+00  0.0000E+00  0.0000E+00
     -2.963  0.0000E+00  0.0000E+00  0.0000E+00  0.0000E+00  0.0000E+00  0.0000E+00  0.0000E+00  0.0000E+00
     -2.934  0.0000E+00  0.0000E+00  0.0000E+00  0.0000E+00  0.0000E+00  0.0000E+00  0.0000E+00  0.0000E+00
     -2.905  0.0000E+00  0.0000E+00  0.0000E+00  0.0000E+00  0.0000E+00  0.0000E+00  0.0000E+00  0.0000E+00
     -2.876  0.0000E+00  0.0000E+00  0.0000E+00  0.0000E+00  0.0000E+00  0.0000E+00  0.0000E+00  0.0000E+00
     -2.847  0.0000E+00  0.0000E+00  0.0000E+00  0.0000E+00  0.0000E+00  0.0000E+00  0.0000E+00  0.0000E+00
     -2.818  0.0000E+00  0.0000E+00  0.0000E+00  0.0000E+00  0.0000E+00  0.0000E+00  0.0000E+00  0.0000E+00
     -2.789  0.0000E+00  0.0000E+00  0.0000E+00  0.0000E+00  0.0000E+00  0.0000E+00  0.0000E+00  0.0000E+00
     -2.760  0.0000E+00  0.0000E+00  0.0000E+00  0.0000E+00  0.0000E+00  0.0000E+00  0.0000E+00  0.0000E+00
     -2.731  0.0000E+00  0.0000E+00  0.0000E+00  0.0000E+00  0.0000E+00  0.0000E+00  0.0000E+00  0.0000E+00
     -2.702  0.0000E+00  0.0000E+00  0.0000E+00  0.0000E+00  0.0000E+00  0.0000E+00  0.0000E+00  0.0000E+00
     -2.673  0.0000E+00  0.0000E+00  0.0000E+00  0.0000E+00  0.0000E+00  0.0000E+00  0.0000E+00  0.0000E+00
     -2.644  0.0000E+00  0.0000E+00  0.0000E+00  0.0000E+00  0.0000E+00  0.0000E+00  0.0000E+00  0.0000E+00
     -2.615  0.0000E+00  0.0000E+00  0.0000E+00  0.0000E+00  0.0000E+00  0.0000E+00  0.0000E+00  0.0000E+00
     -2.586  0.0000E+00  0.0000E+00  0.0000E+00  0.0000E+00  0.0000E+00  0.0000E+00  0.0000E+00  0.0000E+00
     -2.557  0.0000E+00  0.0000E+00  0.0000E+00  0.0000E+00  0.0000E+00  0.0000E+00  0.0000E+00  0.0000E+00
     -2.528  0.0000E+00  0.0000E+00  0.0000E+00  0.0000E+00  0.0000E+00  0.0000E+00  0.0000E+00  0.0000E+00
     -2.499  0.0000E+00  0.0000E+00  0.0000E+00  0.0000E+00  0.0000E+00  0.0000E+00  0.0000E+00  0.0000E+00
     -2.470  0.0000E+00  0.0000E+00  0.0000E+00  0.0000E+00  0.0000E+00  0.0000E+00  0.0000E+00  0.0000E+00
     -2.441  0.0000E+00  0.9411E+00  0.0000E+00  0.5154E+00  0.0000E+00  0.1794E+00  0.0000E+00  0.5727E-02
     -2.412  0.0000E+00  0.2581E+01  0.0000E+00  0.1414E+01  0.0000E+00  0.4921E+00  0.0000E+00  0.1571E-01
     -2.383  0.0000E+00  0.0000E+00  0.0000E+00  0.0000E+00  0.0000E+00  0.0000E+00  0.0000E+00  0.0000E+00
     -2.354  0.0000E+00  0.0000E+00  0.0000E+00  0.0000E+00  0.0000E+00  0.0000E+00  0.0000E+00  0.0000E+00
     -2.325  0.0000E+00  0.0000E+00  0.0000E+00  0.0000E+00  0.0000E+00  0.0000E+00  0.0000E+00  0.0000E+00
     -2.296  0.0000E+00  0.0000E+00  0.0000E+00  0.0000E+00  0.0000E+00  0.0000E+00  0.0000E+00  0.0000E+00
     -2.267  0.0000E+00  0.0000E+00  0.0000E+00  0.0000E+00  0.0000E+00  0.0000E+00  0.0000E+00  0.0000E+00
     -2.238  0.0000E+00  0.0000E+00  0.0000E+00  0.0000E+00  0.0000E+00  0.0000E+00  0.0000E+00  0.0000E+00
     -2.209  0.0000E+00  0.0000E+00  0.0000E+00  0.0000E+00  0.0000E+00  0.0000E+00  0.0000E+00  0.0000E+00
     -2.180  0.0000E+00  0.0000E+00  0.0000E+00  0.0000E+00  0.0000E+00  0.0000E+00  0.0000E+00  0.0000E+00
     -2.151  0.0000E+00  0.0000E+00  0.0000E+00  0.0000E+00  0.0000E+00  0.0000E+00  0.0000E+00  0.0000E+00
     -2.122  0.0000E+00  0.0000E+00  0.0000E+00  0.0000E+00  0.0000E+00  0.0000E+00  0.0000E+00  0.0000E+00
     -2.093  0.0000E+00  0.0000E+00  0.0000E+00  0.0000E+00  0.0000E+00  0.0000E+00  0.0000E+00  0.0000E+00
     -2.064  0.0000E+00  0.0000E+00  0.0000E+00  0.0000E+00  0.0000E+00  0.0000E+00  0.0000E+00  0.0000E+00
     -2.035  0.0000E+00  0.0000E+00  0.0000E+00  0.0000E+00  0.0000E+00  0.0000E+00  0.0000E+00  0.0000E+00
     -2.006  0.0000E+00  0.0000E+00  0.0000E+00  0.0000E+00  0.0000E+00  0.0000E+00  0.0000E+00  0.0000E+00
     -1.977  0.0000E+00  0.0000E+00  0.0000E+00  0.0000E+00  0.0000E+00  0.0000E+00  0.0000E+00  0.0000E+00
     -1.948  0.0000E+00  0.0000E+00  0.0000E+00  0.0000E+00  0.0000E+00  0.0000E+00  0.0000E+00  0.0000E+00
     -1.919  0.0000E+00  0.0000E+00  0.0000E+00  0.0000E+00  0.0000E+00  0.0000E+00  0.0000E+00  0.0000E+00
     -1.890  0.0000E+00  0.0000E+00  0.0000E+00  0.0000E+00  0.0000E+00  0.0000E+00  0.0000E+00  0.0000E+00
     -1.861  0.0000E+00  0.0000E+00  0.0000E+00  0.0000E+00  0.0000E+00  0.0000E+00  0.0000E+00  0.0000E+00
     -1.832  0.0000E+00  0.0000E+00  0.0000E+00  0.0000E+00  0.0000E+00  0.0000E+00  0.0000E+00  0.0000E+00
     -1.802  0.0000E+00  0.0000E+00  0.0000E+00  0.0000E+00  0.0000E+00  0.0000E+00  0.0000E+00  0.0000E+00
     -1.773  0.0000E+00  0.0000E+00  0.0000E+00  0.0000E+00  0.0000E+00  0.0000E+00  0.0000E+00  0.0000E+00
     -1.744  0.0000E+00  0.0000E+00  0.0000E+00  0.0000E+00  0.0000E+00  0.0000E+00  0.0000E+00  0.0000E+00
     -1.715  0.0000E+00  0.0000E+00  0.0000E+00  0.0000E+00  0.0000E+00  0.0000E+00  0.0000E+00  0.0000E+00
     -1.686  0.0000E+00  0.0000E+00  0.0000E+00  0.0000E+00  0.0000E+00  0.0000E+00  0.0000E+00  0.0000E+00
     -1.657  0.0000E+00  0.0000E+00  0.0000E+00  0.0000E+00  0.0000E+00  0.0000E+00  0.0000E+00  0.0000E+00
     -1.628  0.0000E+00  0.0000E+00  0.0000E+00  0.0000E+00  0.0000E+00  0.0000E+00  0.0000E+00  0.0000E+00
     -1.599  0.0000E+00  0.0000E+00  0.0000E+00  0.0000E+00  0.0000E+00  0.0000E+00  0.0000E+00  0.0000E+00
     -1.570  0.0000E+00  0.0000E+00  0.0000E+00  0.0000E+00  0.0000E+00  0.0000E+00  0.0000E+00  0.0000E+00
     -1.541  0.0000E+00  0.0000E+00  0.0000E+00  0.0000E+00  0.0000E+00  0.0000E+00  0.0000E+00  0.0000E+00
     -1.512  0.0000E+00  0.0000E+00  0.0000E+00  0.0000E+00  0.0000E+00  0.0000E+00  0.0000E+00  0.0000E+00
     -1.483  0.0000E+00  0.0000E+00  0.0000E+00  0.0000E+00  0.0000E+00  0.0000E+00  0.0000E+00  0.0000E+00
     -1.454  0.0000E+00  0.0000E+00  0.0000E+00  0.0000E+00  0.0000E+00  0.0000E+00  0.0000E+00  0.0000E+00
     -1.425  0.0000E+00  0.0000E+00  0.0000E+00  0.0000E+00  0.0000E+00  0.0000E+00  0.0000E+00  0.0000E+00
     -1.396  0.0000E+00  0.0000E+00  0.0000E+00  0.0000E+00  0.0000E+00  0.0000E+00  0.0000E+00  0.0000E+00
     -1.367  0.0000E+00  0.0000E+00  0.0000E+00  0.0000E+00  0.0000E+00  0.0000E+00  0.0000E+00  0.0000E+00
     -1.338  0.0000E+00  0.0000E+00  0.0000E+00  0.0000E+00  0.0000E+00  0.0000E+00  0.0000E+00  0.0000E+00
     -1.309  0.0000E+00  0.0000E+00  0.0000E+00  0.0000E+00  0.0000E+00  0.0000E+00  0.0000E+00  0.0000E+00
     -1.280  0.6957E-21  0.0000E+00  0.6086E-01  0.0000E+00  0.1329E-02  0.0000E+00  0.1253E-03  0.0000E+00
     -1.251  0.7757E-19  0.0000E+00  0.6786E+01  0.0000E+00  0.1482E+00  0.0000E+00  0.1397E-01  0.0000E+00
     -1.222  0.0000E+00  0.0000E+00  0.0000E+00  0.0000E+00  0.0000E+00  0.0000E+00  0.0000E+00  0.0000E+00
     -1.193  0.0000E+00  0.0000E+00  0.0000E+00  0.0000E+00  0.0000E+00  0.0000E+00  0.0000E+00  0.0000E+00
     -1.164  0.0000E+00  0.0000E+00  0.0000E+00  0.0000E+00  0.0000E+00  0.0000E+00  0.0000E+00  0.0000E+00
     -1.135  0.0000E+00  0.0000E+00  0.0000E+00  0.0000E+00  0.0000E+00  0.0000E+00  0.0000E+00  0.0000E+00
     -1.106  0.0000E+00  0.0000E+00  0.0000E+00  0.0000E+00  0.0000E+00  0.0000E+00  0.0000E+00  0.0000E+00
     -1.077  0.0000E+00  0.2641E-21  0.0000E+00  0.8141E-02  0.0000E+00  0.4791E-03  0.0000E+00  0.8299E-05
     -1.048  0.0000E+00  0.1861E-18  0.0000E+00  0.5736E+01  0.0000E+00  0.3376E+00  0.0000E+00  0.5847E-02
     -1.019  0.0000E+00  0.0000E+00  0.0000E+00  0.0000E+00  0.0000E+00  0.0000E+00  0.0000E+00  0.0000E+00
     -0.990  0.0000E+00  0.0000E+00  0.0000E+00  0.0000E+00  0.0000E+00  0.0000E+00  0.0000E+00  0.0000E+00
     -0.961  0.0000E+00  0.0000E+00  0.0000E+00  0.0000E+00  0.0000E+00  0.0000E+00  0.0000E+00  0.0000E+00
     -0.932  0.0000E+00  0.0000E+00  0.0000E+00  0.0000E+00  0.0000E+00  0.0000E+00  0.0000E+00  0.0000E+00
     -0.903  0.0000E+00  0.0000E+00  0.0000E+00  0.0000E+00  0.0000E+00  0.0000E+00  0.0000E+00  0.0000E+00
     -0.874  0.0000E+00  0.0000E+00  0.0000E+00  0.0000E+00  0.0000E+00  0.0000E+00  0.0000E+00  0.0000E+00
     -0.845  0.0000E+00  0.0000E+00  0.0000E+00  0.0000E+00  0.0000E+00  0.0000E+00  0.0000E+00  0.0000E+00
     -0.816  0.0000E+00  0.0000E+00  0.0000E+00  0.0000E+00  0.0000E+00  0.0000E+00  0.0000E+00  0.0000E+00
     -0.787  0.0000E+00  0.0000E+00  0.0000E+00  0.0000E+00  0.0000E+00  0.0000E+00  0.0000E+00  0.0000E+00
     -0.758  0.0000E+00  0.0000E+00  0.0000E+00  0.0000E+00  0.0000E+00  0.0000E+00  0.0000E+00  0.0000E+00
     -0.729  0.0000E+00  0.0000E+00  0.0000E+00  0.0000E+00  0.0000E+00  0.0000E+00  0.0000E+00  0.0000E+00
     -0.700  0.0000E+00  0.0000E+00  0.0000E+00  0.0000E+00  0.0000E+00  0.0000E+00  0.0000E+00  0.0000E+00
     -0.671  0.0000E+00  0.0000E+00  0.0000E+00  0.0000E+00  0.0000E+00  0.0000E+00  0.0000E+00  0.0000E+00
     -0.67057576     -9.37767987  301     -4.65243974      1.00000000
     -9.378  0.0000E+00  0.0000E+00  0.0000E+00  0.0000E+00  0.0000E+00  0.0000E+00  0.0000E+00  0.0000E+00
     -9.349  0.0000E+00  0.0000E+00  0.0000E+00  0.0000E+00  0.0000E+00  0.0000E+00  0.0000E+00  0.0000E+00
     -9.320  0.0000E+00  0.0000E+00  0.0000E+00  0.0000E+00  0.0000E+00  0.0000E+00  0.0000E+00  0.0000E+00
     -9.291  0.0000E+00  0.0000E+00  0.0000E+00  0.0000E+00  0.0000E+00  0.0000E+00  0.0000E+00  0.0000E+00
     -9.262  0.0000E+00  0.0000E+00  0.0000E+00  0.0000E+00  0.0000E+00  0.0000E+00  0.0000E+00  0.0000E+00
     -9.233  0.0000E+00  0.0000E+00  0.0000E+00  0.0000E+00  0.0000E+00  0.0000E+00  0.0000E+00  0.0000E+00
     -9.204  0.0000E+00  0.0000E+00  0.0000E+00  0.0000E+00  0.0000E+00  0.0000E+00  0.0000E+00  0.0000E+00
     -9.175  0.0000E+00  0.0000E+00  0.0000E+00  0.0000E+00  0.0000E+00  0.0000E+00  0.0000E+00  0.0000E+00
     -9.145  0.0000E+00  0.0000E+00  0.0000E+00  0.0000E+00  0.0000E+00  0.0000E+00  0.0000E+00  0.0000E+00
     -9.116  0.0000E+00  0.0000E+00  0.0000E+00  0.0000E+00  0.0000E+00  0.0000E+00  0.0000E+00  0.0000E+00
     -9.087  0.0000E+00  0.0000E+00  0.0000E+00  0.0000E+00  0.0000E+00  0.0000E+00  0.0000E+00  0.0000E+00
     -9.058  0.0000E+00  0.0000E+00  0.0000E+00  0.0000E+00  0.0000E+00  0.0000E+00  0.0000E+00  0.0000E+00
     -9.029  0.0000E+00  0.0000E+00  0.0000E+00  0.0000E+00  0.0000E+00  0.0000E+00  0.0000E+00  0.0000E+00
     -9.000  0.1102E-06  0.0000E+00  0.6058E-07  0.0000E+00  0.1594E-05  0.0000E+00  0.1780E-07  0.0000E+00
     -8.971  0.1257E+01  0.0000E+00  0.6909E+00  0.0000E+00  0.1817E+02  0.0000E+00  0.2030E+00  0.0000E+00
     -8.942  0.1784E-02  0.0000E+00  0.9806E-03  0.0000E+00  0.2579E-01  0.0000E+00  0.2881E-03  0.0000E+00
     -8.913  0.0000E+00  0.0000E+00  0.0000E+00  0.0000E+00  0.0000E+00  0.0000E+00  0.0000E+00  0.0000E+00
     -8.884  0.0000E+00  0.0000E+00  0.0000E+00  0.0000E+00  0.0000E+00  0.0000E+00  0.0000E+00  0.0000E+00
     -8.855  0.0000E+00  0.0000E+00  0.0000E+00  0.0000E+00  0.0000E+00  0.0000E+00  0.0000E+00  0.0000E+00
     -8.826  0.0000E+00  0.0000E+00  0.0000E+00  0.0000E+00  0.0000E+00  0.0000E+00  0.0000E+00  0.0000E+00
     -8.797  0.0000E+00  0.0000E+00  0.0000E+00  0.0000E+00  0.0000E+00  0.0000E+00  0.0000E+00  0.0000E+00
     -8.768  0.0000E+00  0.0000E+00  0.0000E+00  0.0000E+00  0.0000E+00  0.0000E+00  0.0000E+00  0.0000E+00
     -8.739  0.0000E+00  0.0000E+00  0.0000E+00  0.0000E+00  0.0000E+00  0.0000E+00  0.0000E+00  0.0000E+00
     -8.710  0.0000E+00  0.0000E+00  0.0000E+00  0.0000E+00  0.0000E+00  0.0000E+00  0.0000E+00  0.0000E+00
     -8.681  0.0000E+00  0.0000E+00  0.0000E+00  0.0000E+00  0.0000E+00  0.0000E+00  0.0000E+00  0.0000E+00
     -8.652  0.0000E+00  0.0000E+00  0.0000E+00  0.0000E+00  0.0000E+00  0.0000E+00  0.0000E+00  0.0000E+00
     -8.623  0.0000E+00  0.0000E+00  0.0000E+00  0.0000E+00  0.0000E+00  0.0000E+00  0.0000E+00  0.0000E+00
     -8.594  0.0000E+00  0.0000E+00  0.0000E+00  0.0000E+00  0.0000E+00  0.0000E+00  0.0000E+00  0.0000E+00
     -8.565  0.0000E+00  0.0000E+00  0.0000E+00  0.0000E+00  0.0000E+00  0.0000E+00  0.0000E+00  0.0000E+00
     -8.536  0.0000E+00  0.0000E+00  0.0000E+00  0.0000E+00  0.0000E+00  0.0000E+00  0.0000E+00  0.0000E+00
     -8.507  0.0000E+00  0.0000E+00  0.0000E+00  0.0000E+00  0.0000E+00  0.0000E+00  0.0000E+00  0.0000E+00
     -8.478  0.0000E+00  0.0000E+00  0.0000E+00  0.0000E+00  0.0000E+00  0.0000E+00  0.0000E+00  0.0000E+00
     -8.449  0.0000E+00  0.0000E+00  0.0000E+00  0.0000E+00  0.0000E+00  0.0000E+00  0.0000E+00  0.0000E+00
     -8.420  0.0000E+00  0.0000E+00  0.0000E+00  0.0000E+00  0.0000E+00  0.0000E+00  0.0000E+00  0.0000E+00
     -8.391  0.0000E+00  0.0000E+00  0.0000E+00  0.0000E+00  0.0000E+00  0.0000E+00  0.0000E+00  0.0000E+00
     -8.362  0.0000E+00  0.0000E+00  0.0000E+00  0.0000E+00  0.0000E+00  0.0000E+00  0.0000E+00  0.0000E+00
     -8.333  0.0000E+00  0.0000E+00  0.0000E+00  0.0000E+00  0.0000E+00  0.0000E+00  0.0000E+00  0.0000E+00
     -8.304  0.0000E+00  0.0000E+00  0.0000E+00  0.0000E+00  0.0000E+00  0.0000E+00  0.0000E+00  0.0000E+00
     -8.275  0.2986E-33  0.0000E+00  0.4140E-15  0.0000E+00  0.3555E-13  0.0000E+00  0.2810E-15  0.0000E+00
     -8.246  0.1718E-18  0.0000E+00  0.2382E+00  0.0000E+00  0.2045E+02  0.0000E+00  0.1617E+00  0.0000E+00
     -8.217  0.1113E-18  0.0000E+00  0.1543E+00  0.0000E+00  0.1325E+02  0.0000E+00  0.1047E+00  0.0000E+00
     -8.188  0.0000E+00  0.0000E+00  0.0000E+00  0.0000E+00  0.0000E+00  0.0000E+00  0.0000E+00  0.0000E+00
     -8.159  0.0000E+00  0.0000E+00  0.0000E+00  0.0000E+00  0.0000E+00  0.0000E+00  0.0000E+00  0.0000E+00
     -8.130  0.0000E+00  0.0000E+00  0.0000E+00  0.0000E+00  0.0000E+00  0.0000E+00  0.0000E+00  0.0000E+00
     -8.101  0.0000E+00  0.0000E+00  0.0000E+00  0.0000E+00  0.0000E+00  0.0000E+00  0.0000E+00  0.0000E+00
     -8.072  0.0000E+00  0.0000E+00  0.0000E+00  0.0000E+00  0.0000E+00  0.0000E+00  0.0000E+00  0.0000E+00
     -8.043  0.0000E+00  0.0000E+00  0.0000E+00  0.0000E+00  0.0000E+00  0.0000E+00  0.0000E+00  0.0000E+00
     -8.014  0.0000E+00  0.0000E+00  0.0000E+00  0.0000E+00  0.0000E+00  0.0000E+00  0.0000E+00  0.0000E+00
     -7.985  0.0000E+00  0.0000E+00  0.0000E+00  0.0000E+00  0.0000E+00  0.0000E+00  0.0000E+00  0.0000E+00
     -7.956  0.0000E+00  0.0000E+00  0.0000E+00  0.0000E+00  0.0000E+00  0.0000E+00  0.0000E+00  0.0000E+00
     -7.926  0.0000E+00  0.0000E+00  0.0000E+00  0.0000E+00  0.0000E+00  0.0000E+00  0.0000E+00  0.0000E+00
     -7.897  0.0000E+00  0.0000E+00  0.0000E+00  0.0000E+00  0.0000E+00  0.0000E+00  0.0000E+00  0.0000E+00
     -7.868  0.0000E+00  0.0000E+00  0.0000E+00  0.0000E+00  0.0000E+00  0.0000E+00  0.0000E+00  0.0000E+00
     -7.839  0.0000E+00  0.2744E-01  0.0000E+00  0.1481E-01  0.0000E+00  0.2713E+00  0.0000E+00  0.3686E-02
     -7.810  0.0000E+00  0.1784E+01  0.0000E+00  0.9629E+00  0.0000E+00  0.1764E+02  0.0000E+00  0.2396E+00
     -7.781  0.0000E+00  0.0000E+00  0.0000E+00  0.0000E+00  0.0000E+00  0.0000E+00  0.0000E+00  0.0000E+00
     -7.752  0.0000E+00  0.0000E+00  0.0000E+00  0.0000E+00  0.0000E+00  0.0000E+00  0.0000E+00  0.0000E+00
     -7.723  0.0000E+00  0.0000E+00  0.0000E+00  0.0000E+00  0.0000E+00  0.0000E+00  0.0000E+00  0.0000E+00
     -7.694  0.0000E+00  0.0000E+00  0.0000E+00  0.0000E+00  0.0000E+00  0.0000E+00  0.0000E+00  0.0000E+00
     -7.665  0.0000E+00  0.0000E+00  0.0000E+00  0.0000E+00  0.0000E+00  0.0000E+00  0.0000E+00  0.0000E+00
     -7.636  0.0000E+00  0.0000E+00  0.0000E+00  0.0000E+00  0.0000E+00  0.0000E+00  0.0000E+00  0.0000E+00
     -7.607  0.0000E+00  0.0000E+00  0.0000E+00  0.0000E+00  0.0000E+00  0.0000E+00  0.0000E+00  0.0000E+00
     -7.578  0.0000E+00  0.0000E+00  0.0000E+00  0.0000E+00  0.0000E+00  0.0000E+00  0.0000E+00  0.0000E+00
     -7.549  0.0000E+00  0.0000E+00  0.0000E+00  0.0000E+00  0.0000E+00  0.0000E+00  0.0000E+00  0.0000E+00
     -7.520  0.0000E+00  0.0000E+00  0.0000E+00  0.0000E+00  0.0000E+00  0.0000E+00  0.0000E+00  0.0000E+00
     -7.491  0.0000E+00  0.0000E+00  0.0000E+00  0.0000E+00  0.0000E+00  0.0000E+00  0.0000E+00  0.0000E+00
     -7.462  0.0000E+00  0.0000E+00  0.0000E+00  0.0000E+00  0.0000E+00  0.0000E+00  0.0000E+00  0.0000E+00
     -7.433  0.0000E+00  0.0000E+00  0.0000E+00  0.0000E+00  0.0000E+00  0.0000E+00  0.0000E+00  0.0000E+00
     -7.404  0.0000E+00  0.0000E+00  0.0000E+00  0.0000E+00  0.0000E+00  0.0000E+00  0.0000E+00  0.0000E+00
     -7.375  0.0000E+00  0.0000E+00  0.0000E+00  0.0000E+00  0.0000E+00  0.0000E+00  0.0000E+00  0.0000E+00
     -7.346  0.0000E+00  0.0000E+00  0.0000E+00  0.0000E+00  0.0000E+00  0.0000E+00  0.0000E+00  0.0000E+00
     -7.317  0.0000E+00  0.0000E+00  0.0000E+00  0.0000E+00  0.0000E+00  0.0000E+00  0.0000E+00  0.0000E+00
     -7.288  0.0000E+00  0.0000E+00  0.0000E+00  0.0000E+00  0.0000E+00  0.0000E+00  0.0000E+00  0.0000E+00
     -7.259  0.0000E+00  0.0000E+00  0.0000E+00  0.0000E+00  0.0000E+00  0.0000E+00  0.0000E+00  0.0000E+00
     -7.230  0.0000E+00  0.0000E+00  0.0000E+00  0.0000E+00  0.0000E+00  0.0000E+00  0.0000E+00  0.0000E+00
     -7.201  0.0000E+00  0.0000E+00  0.0000E+00  0.0000E+00  0.0000E+00  0.0000E+00  0.0000E+00  0.0000E+00
     -7.172  0.0000E+00  0.0000E+00  0.0000E+00  0.0000E+00  0.0000E+00  0.0000E+00  0.0000E+00  0.0000E+00
     -7.143  0.0000E+00  0.0000E+00  0.0000E+00  0.0000E+00  0.0000E+00  0.0000E+00  0.0000E+00  0.0000E+00
     -7.114  0.0000E+00  0.0000E+00  0.0000E+00  0.0000E+00  0.0000E+00  0.0000E+00  0.0000E+00  0.0000E+00
     -7.085  0.0000E+00  0.0000E+00  0.0000E+00  0.0000E+00  0.0000E+00  0.0000E+00  0.0000E+00  0.0000E+00
     -7.056  0.0000E+00  0.0000E+00  0.0000E+00  0.0000E+00  0.0000E+00  0.0000E+00  0.0000E+00  0.0000E+00
     -7.027  0.0000E+00  0.1195E-28  0.0000E+00  0.8903E-11  0.0000E+00  0.4426E-09  0.0000E+00  0.4819E-11
     -6.998  0.0000E+00  0.8442E-18  0.0000E+00  0.6292E+00  0.0000E+00  0.3127E+02  0.0000E+00  0.3406E+00
     -6.969  0.0000E+00  0.5504E-19  0.0000E+00  0.4102E-01  0.0000E+00  0.2039E+01  0.0000E+00  0.2220E-01
     -6.940  0.0000E+00  0.0000E+00  0.0000E+00  0.0000E+00  0.0000E+00  0.0000E+00  0.0000E+00  0.0000E+00
     -6.911  0.0000E+00  0.0000E+00  0.0000E+00  0.0000E+00  0.0000E+00  0.0000E+00  0.0000E+00  0.0000E+00
     -6.882  0.0000E+00  0.0000E+00  0.0000E+00  0.0000E+00  0.0000E+00  0.0000E+00  0.0000E+00  0.0000E+00
     -6.853  0.0000E+00  0.0000E+00  0.0000E+00  0.0000E+00  0.0000E+00  0.0000E+00  0.0000E+00  0.0000E+00
     -6.824  0.0000E+00  0.0000E+00  0.0000E+00  0.0000E+00  0.0000E+00  0.0000E+00  0.0000E+00  0.0000E+00
     -6.795  0.0000E+00  0.0000E+00  0.0000E+00  0.0000E+00  0.0000E+00  0.0000E+00  0.0000E+00  0.0000E+00
     -6.766  0.0000E+00  0.0000E+00  0.0000E+00  0.0000E+00  0.0000E+00  0.0000E+00  0.0000E+00  0.0000E+00
     -6.737  0.0000E+00  0.0000E+00  0.0000E+00  0.0000E+00  0.0000E+00  0.0000E+00  0.0000E+00  0.0000E+00
     -6.708  0.0000E+00  0.0000E+00  0.0000E+00  0.0000E+00  0.0000E+00  0.0000E+00  0.0000E+00  0.0000E+00
     -6.678  0.0000E+00  0.0000E+00  0.0000E+00  0.0000E+00  0.0000E+00  0.0000E+00  0.0000E+00  0.0000E+00
     -6.649  0.0000E+00  0.0000E+00  0.0000E+00  0.0000E+00  0.0000E+00  0.0000E+00  0.0000E+00  0.0000E+00
     -6.620  0.0000E+00  0.0000E+00  0.0000E+00  0.0000E+00  0.0000E+00  0.0000E+00  0.0000E+00  0.0000E+00
     -6.591  0.0000E+00  0.0000E+00  0.0000E+00  0.0000E+00  0.0000E+00  0.0000E+00  0.0000E+00  0.0000E+00
     -6.562  0.1394E-32  0.0000E+00  0.8855E-31  0.0000E+00  0.2447E-10  0.0000E+00  0.1650E-13  0.0000E+00
     -6.533  0.3702E-19  0.0000E+00  0.2749E-18  0.0000E+00  0.2623E+02  0.0000E+00  0.1768E-01  0.0000E+00
     -6.504  0.1193E-19  0.0000E+00  0.7915E-19  0.0000E+00  0.5616E+01  0.0000E+00  0.3786E-02  0.0000E+00
     -6.475  0.0000E+00  0.0000E+00  0.0000E+00  0.0000E+00  0.0000E+00  0.0000E+00  0.0000E+00  0.0000E+00
     -6.446  0.0000E+00  0.0000E+00  0.0000E+00  0.0000E+00  0.0000E+00  0.0000E+00  0.0000E+00  0.0000E+00
     -6.417  0.0000E+00  0.0000E+00  0.0000E+00  0.0000E+00  0.0000E+00  0.0000E+00  0.0000E+00  0.0000E+00
     -6.388  0.0000E+00  0.0000E+00  0.0000E+00  0.0000E+00  0.0000E+00  0.0000E+00  0.0000E+00  0.0000E+00
     -6.359  0.0000E+00  0.0000E+00  0.0000E+00  0.0000E+00  0.0000E+00  0.0000E+00  0.0000E+00  0.0000E+00
     -6.330  0.0000E+00  0.0000E+00  0.0000E+00  0.0000E+00  0.0000E+00  0.0000E+00  0.0000E+00  0.0000E+00
     -6.301  0.0000E+00  0.0000E+00  0.0000E+00  0.0000E+00  0.0000E+00  0.0000E+00  0.0000E+00  0.0000E+00
     -6.272  0.0000E+00  0.0000E+00  0.0000E+00  0.0000E+00  0.0000E+00  0.0000E+00  0.0000E+00  0.0000E+00
     -6.243  0.0000E+00  0.0000E+00  0.0000E+00  0.0000E+00  0.0000E+00  0.0000E+00  0.0000E+00  0.0000E+00
     -6.214  0.0000E+00  0.0000E+00  0.0000E+00  0.0000E+00  0.0000E+00  0.0000E+00  0.0000E+00  0.0000E+00
     -6.185  0.0000E+00  0.0000E+00  0.0000E+00  0.0000E+00  0.0000E+00  0.0000E+00  0.0000E+00  0.0000E+00
     -6.156  0.0000E+00  0.0000E+00  0.0000E+00  0.0000E+00  0.0000E+00  0.0000E+00  0.0000E+00  0.0000E+00
     -6.127  0.0000E+00  0.0000E+00  0.0000E+00  0.0000E+00  0.0000E+00  0.0000E+00  0.0000E+00  0.0000E+00
     -6.098  0.0000E+00  0.0000E+00  0.0000E+00  0.0000E+00  0.0000E+00  0.0000E+00  0.0000E+00  0.0000E+00
     -6.069  0.0000E+00  0.0000E+00  0.0000E+00  0.0000E+00  0.0000E+00  0.0000E+00  0.0000E+00  0.0000E+00
     -6.040  0.0000E+00  0.0000E+00  0.0000E+00  0.0000E+00  0.0000E+00  0.0000E+00  0.0000E+00  0.0000E+00
     -6.011  0.0000E+00  0.0000E+00  0.0000E+00  0.0000E+00  0.0000E+00  0.0000E+00  0.0000E+00  0.0000E+00
     -5.982  0.0000E+00  0.0000E+00  0.0000E+00  0.0000E+00  0.0000E+00  0.0000E+00  0.0000E+00  0.0000E+00
     -5.953  0.0000E+00  0.0000E+00  0.0000E+00  0.0000E+00  0.0000E+00  0.0000E+00  0.0000E+00  0.0000E+00
     -5.924  0.0000E+00  0.0000E+00  0.0000E+00  0.0000E+00  0.0000E+00  0.0000E+00  0.0000E+00  0.0000E+00
     -5.895  0.5875E-42  0.0000E+00  0.1016E-34  0.0000E+00  0.9021E-15  0.0000E+00  0.1259E-17  0.0000E+00
     -5.866  0.1158E-18  0.0000E+00  0.3613E-18  0.0000E+00  0.1151E+02  0.0000E+00  0.1607E-01  0.0000E+00
     -5.837  0.3538E-18  0.0000E+00  0.9439E-18  0.0000E+00  0.2099E+02  0.0000E+00  0.2932E-01  0.0000E+00
     -5.808  0.0000E+00  0.0000E+00  0.0000E+00  0.0000E+00  0.0000E+00  0.0000E+00  0.0000E+00  0.0000E+00
     -5.779  0.0000E+00  0.0000E+00  0.0000E+00  0.0000E+00  0.0000E+00  0.0000E+00  0.0000E+00  0.0000E+00
     -5.750  0.0000E+00  0.0000E+00  0.0000E+00  0.0000E+00  0.0000E+00  0.0000E+00  0.0000E+00  0.0000E+00
     -5.721  0.0000E+00  0.0000E+00  0.0000E+00  0.0000E+00  0.0000E+00  0.0000E+00  0.0000E+00  0.0000E+00
     -5.692  0.0000E+00  0.0000E+00  0.0000E+00  0.0000E+00  0.0000E+00  0.0000E+00  0.0000E+00  0.0000E+00
     -5.663  0.0000E+00  0.0000E+00  0.0000E+00  0.0000E+00  0.0000E+00  0.0000E+00  0.0000E+00  0.0000E+00
     -5.634  0.0000E+00  0.0000E+00  0.0000E+00  0.0000E+00  0.0000E+00  0.0000E+00  0.0000E+00  0.0000E+00
     -5.605  0.2939E-20  0.0000E+00  0.4768E-02  0.0000E+00  0.2014E+00  0.0000E+00  0.1865E-02  0.0000E+00
     -5.576  0.4482E-18  0.0000E+00  0.7272E+00  0.0000E+00  0.3071E+02  0.0000E+00  0.2844E+00  0.0000E+00
     -5.547  0.0000E+00  0.0000E+00  0.0000E+00  0.0000E+00  0.0000E+00  0.0000E+00  0.0000E+00  0.0000E+00
     -5.518  0.0000E+00  0.0000E+00  0.0000E+00  0.0000E+00  0.0000E+00  0.0000E+00  0.0000E+00  0.0000E+00
     -5.489  0.0000E+00  0.0000E+00  0.0000E+00  0.0000E+00  0.0000E+00  0.0000E+00  0.0000E+00  0.0000E+00
     -5.459  0.0000E+00  0.0000E+00  0.0000E+00  0.0000E+00  0.0000E+00  0.0000E+00  0.0000E+00  0.0000E+00
     -5.430  0.0000E+00  0.3157E-25  0.0000E+00  0.1951E-24  0.0000E+00  0.1316E-04  0.0000E+00  0.1676E-07
     -5.401  0.0000E+00  0.6993E-19  0.0000E+00  0.4717E-18  0.0000E+00  0.3130E+02  0.0000E+00  0.3987E-01
     -5.372  0.0000E+00  0.0000E+00  0.0000E+00  0.0000E+00  0.0000E+00  0.0000E+00  0.0000E+00  0.0000E+00
     -5.343  0.3897E+00  0.0000E+00  0.2077E+00  0.0000E+00  0.5249E+01  0.0000E+00  0.7955E-01  0.0000E+00
     -5.314  0.6570E+00  0.0000E+00  0.3501E+00  0.0000E+00  0.8849E+01  0.0000E+00  0.1341E+00  0.0000E+00
     -5.285  0.3464E-14  0.0000E+00  0.5495E-16  0.0000E+00  0.2026E-15  0.0000E+00  0.1030E-17  0.0000E+00
     -5.256  0.5001E+01  0.0000E+00  0.7932E-01  0.0000E+00  0.2925E+00  0.0000E+00  0.1487E-02  0.0000E+00
     -5.227  0.3914E+01  0.0000E+00  0.6209E-01  0.0000E+00  0.2289E+00  0.0000E+00  0.1163E-02  0.0000E+00
     -5.198  0.0000E+00  0.0000E+00  0.0000E+00  0.0000E+00  0.0000E+00  0.0000E+00  0.0000E+00  0.0000E+00
     -5.169  0.0000E+00  0.0000E+00  0.0000E+00  0.0000E+00  0.0000E+00  0.0000E+00  0.0000E+00  0.0000E+00
     -5.140  0.0000E+00  0.0000E+00  0.0000E+00  0.0000E+00  0.0000E+00  0.0000E+00  0.0000E+00  0.0000E+00
     -5.111  0.0000E+00  0.0000E+00  0.0000E+00  0.0000E+00  0.0000E+00  0.0000E+00  0.0000E+00  0.0000E+00
     -5.082  0.0000E+00  0.0000E+00  0.0000E+00  0.0000E+00  0.0000E+00  0.0000E+00  0.0000E+00  0.0000E+00
     -5.053  0.0000E+00  0.0000E+00  0.0000E+00  0.0000E+00  0.0000E+00  0.0000E+00  0.0000E+00  0.0000E+00
     -5.024  0.0000E+00  0.0000E+00  0.0000E+00  0.0000E+00  0.0000E+00  0.0000E+00  0.0000E+00  0.0000E+00
     -4.995  0.0000E+00  0.0000E+00  0.0000E+00  0.0000E+00  0.0000E+00  0.0000E+00  0.0000E+00  0.0000E+00
     -4.966  0.0000E+00  0.0000E+00  0.0000E+00  0.0000E+00  0.0000E+00  0.0000E+00  0.0000E+00  0.0000E+00
     -4.937  0.0000E+00  0.0000E+00  0.0000E+00  0.0000E+00  0.0000E+00  0.0000E+00  0.0000E+00  0.0000E+00
     -4.908  0.0000E+00  0.0000E+00  0.0000E+00  0.0000E+00  0.0000E+00  0.0000E+00  0.0000E+00  0.0000E+00
     -4.879  0.0000E+00  0.0000E+00  0.0000E+00  0.0000E+00  0.0000E+00  0.0000E+00  0.0000E+00  0.0000E+00
     -4.850  0.0000E+00  0.0000E+00  0.0000E+00  0.0000E+00  0.0000E+00  0.0000E+00  0.0000E+00  0.0000E+00
     -4.821  0.0000E+00  0.1011E-12  0.0000E+00  0.2663E-14  0.0000E+00  0.1178E-13  0.0000E+00  0.1283E-15
     -4.792  0.0000E+00  0.5697E+01  0.0000E+00  0.1501E+00  0.0000E+00  0.6639E+00  0.0000E+00  0.7230E-02
     -4.763  0.0000E+00  0.2187E+01  0.0000E+00  0.5760E-01  0.0000E+00  0.2548E+00  0.0000E+00  0.2775E-02
     -4.734  0.0000E+00  0.0000E+00  0.0000E+00  0.0000E+00  0.0000E+00  0.0000E+00  0.0000E+00  0.0000E+00
     -4.705  0.0000E+00  0.0000E+00  0.0000E+00  0.0000E+00  0.0000E+00  0.0000E+00  0.0000E+00  0.0000E+00
     -4.676  0.0000E+00  0.4142E-29  0.0000E+00  0.1828E-28  0.0000E+00  0.5856E-09  0.0000E+00  0.6664E-12
     -4.647  0.0000E+00  0.1904E-18  0.0000E+00  0.9251E-18  0.0000E+00  0.3043E+02  0.0000E+00  0.3463E-01
     -4.618  0.0000E+00  0.1082E-19  0.0000E+00  0.5441E-19  0.0000E+00  0.1806E+01  0.0000E+00  0.2055E-02
     -4.589  0.0000E+00  0.0000E+00  0.0000E+00  0.0000E+00  0.0000E+00  0.0000E+00  0.0000E+00  0.0000E+00
     -4.560  0.0000E+00  0.0000E+00  0.0000E+00  0.0000E+00  0.0000E+00  0.0000E+00  0.0000E+00  0.0000E+00
     -4.531  0.0000E+00  0.0000E+00  0.0000E+00  0.0000E+00  0.0000E+00  0.0000E+00  0.0000E+00  0.0000E+00
     -4.502  0.0000E+00  0.0000E+00  0.0000E+00  0.0000E+00  0.0000E+00  0.0000E+00  0.0000E+00  0.0000E+00
     -4.473  0.0000E+00  0.0000E+00  0.0000E+00  0.0000E+00  0.0000E+00  0.0000E+00  0.0000E+00  0.0000E+00
     -4.444  0.0000E+00  0.0000E+00  0.0000E+00  0.0000E+00  0.0000E+00  0.0000E+00  0.0000E+00  0.0000E+00
     -4.415  0.0000E+00  0.0000E+00  0.0000E+00  0.0000E+00  0.0000E+00  0.0000E+00  0.0000E+00  0.0000E+00
     -4.386  0.0000E+00  0.0000E+00  0.0000E+00  0.0000E+00  0.0000E+00  0.0000E+00  0.0000E+00  0.0000E+00
     -4.357  0.0000E+00  0.0000E+00  0.0000E+00  0.0000E+00  0.0000E+00  0.0000E+00  0.0000E+00  0.0000E+00
     -4.328  0.0000E+00  0.0000E+00  0.0000E+00  0.0000E+00  0.0000E+00  0.0000E+00  0.0000E+00  0.0000E+00
     -4.299  0.0000E+00  0.0000E+00  0.0000E+00  0.0000E+00  0.0000E+00  0.0000E+00  0.0000E+00  0.0000E+00
     -4.270  0.0000E+00  0.0000E+00  0.0000E+00  0.0000E+00  0.0000E+00  0.0000E+00  0.0000E+00  0.0000E+00
     -4.240  0.0000E+00  0.0000E+00  0.0000E+00  0.0000E+00  0.0000E+00  0.0000E+00  0.0000E+00  0.0000E+00
     -4.211  0.0000E+00  0.0000E+00  0.0000E+00  0.0000E+00  0.0000E+00  0.0000E+00  0.0000E+00  0.0000E+00
     -4.182  0.0000E+00  0.0000E+00  0.0000E+00  0.0000E+00  0.0000E+00  0.0000E+00  0.0000E+00  0.0000E+00
     -4.153  0.0000E+00  0.0000E+00  0.0000E+00  0.0000E+00  0.0000E+00  0.0000E+00  0.0000E+00  0.0000E+00
     -4.124  0.0000E+00  0.0000E+00  0.0000E+00  0.0000E+00  0.0000E+00  0.0000E+00  0.0000E+00  0.0000E+00
     -4.095  0.0000E+00  0.0000E+00  0.0000E+00  0.0000E+00  0.0000E+00  0.0000E+00  0.0000E+00  0.0000E+00
     -4.066  0.0000E+00  0.4012E-19  0.0000E+00  0.2344E-01  0.0000E+00  0.8951E+00  0.0000E+00  0.7772E-02
     -4.037  0.0000E+00  0.1319E-17  0.0000E+00  0.7704E+00  0.0000E+00  0.2942E+02  0.0000E+00  0.2555E+00
     -4.008  0.0000E+00  0.0000E+00  0.0000E+00  0.0000E+00  0.0000E+00  0.0000E+00  0.0000E+00  0.0000E+00
     -3.979  0.0000E+00  0.6874E-01  0.0000E+00  0.1756E-01  0.0000E+00  0.6034E+00  0.0000E+00  0.8486E-02
     -3.950  0.0000E+00  0.1449E+01  0.0000E+00  0.3701E+00  0.0000E+00  0.1272E+02  0.0000E+00  0.1789E+00
     -3.921  0.0000E+00  0.0000E+00  0.0000E+00  0.0000E+00  0.0000E+00  0.0000E+00  0.0000E+00  0.0000E+00
     -3.892  0.0000E+00  0.0000E+00  0.0000E+00  0.0000E+00  0.0000E+00  0.0000E+00  0.0000E+00  0.0000E+00
     -3.863  0.0000E+00  0.0000E+00  0.0000E+00  0.0000E+00  0.0000E+00  0.0000E+00  0.0000E+00  0.0000E+00
     -3.834  0.0000E+00  0.0000E+00  0.0000E+00  0.0000E+00  0.0000E+00  0.0000E+00  0.0000E+00  0.0000E+00
     -3.805  0.0000E+00  0.0000E+00  0.0000E+00  0.0000E+00  0.0000E+00  0.0000E+00  0.0000E+00  0.0000E+00
     -3.776  0.0000E+00  0.0000E+00  0.0000E+00  0.0000E+00  0.0000E+00  0.0000E+00  0.0000E+00  0.0000E+00
     -3.747  0.0000E+00  0.0000E+00  0.0000E+00  0.0000E+00  0.0000E+00  0.0000E+00  0.0000E+00  0.0000E+00
     -3.718  0.0000E+00  0.0000E+00  0.0000E+00  0.0000E+00  0.0000E+00  0.0000E+00  0.0000E+00  0.0000E+00
     -3.689  0.0000E+00  0.0000E+00  0.0000E+00  0.0000E+00  0.0000E+00  0.0000E+00  0.0000E+00  0.0000E+00
     -3.660  0.0000E+00  0.0000E+00  0.0000E+00  0.0000E+00  0.0000E+00  0.0000E+00  0.0000E+00  0.0000E+00
     -3.631  0.0000E+00  0.0000E+00  0.0000E+00  0.0000E+00  0.0000E+00  0.0000E+00  0.0000E+00  0.0000E+00
     -3.602  0.0000E+00  0.0000E+00  0.0000E+00  0.0000E+00  0.0000E+00  0.0000E+00  0.0000E+00  0.0000E+00
     -3.573  0.0000E+00  0.0000E+00  0.0000E+00  0.0000E+00  0.0000E+00  0.0000E+00  0.0000E+00  0.0000E+00
     -3.544  0.0000E+00  0.0000E+00  0.0000E+00  0.0000E+00  0.0000E+00  0.0000E+00  0.0000E+00  0.0000E+00
     -3.515  0.0000E+00  0.0000E+00  0.0000E+00  0.0000E+00  0.0000E+00  0.0000E+00  0.0000E+00  0.0000E+00
     -3.486  0.0000E+00  0.0000E+00  0.0000E+00  0.0000E+00  0.0000E+00  0.0000E+00  0.0000E+00  0.0000E+00
     -3.457  0.0000E+00  0.0000E+00  0.0000E+00  0.0000E+00  0.0000E+00  0.0000E+00  0.0000E+00  0.0000E+00
     -3.428  0.0000E+00  0.0000E+00  0.0000E+00  0.0000E+00  0.0000E+00  0.0000E+00  0.0000E+00  0.0000E+00
     -3.399  0.0000E+00  0.0000E+00  0.0000E+00  0.0000E+00  0.0000E+00  0.0000E+00  0.0000E+00  0.0000E+00
     -3.370  0.0000E+00  0.0000E+00  0.0000E+00  0.0000E+00  0.0000E+00  0.0000E+00  0.0000E+00  0.0000E+00
     -3.341  0.0000E+00  0.0000E+00  0.0000E+00  0.0000E+00  0.0000E+00  0.0000E+00  0.0000E+00  0.0000E+00
     -3.312  0.0000E+00  0.0000E+00  0.0000E+00  0.0000E+00  0.0000E+00  0.0000E+00  0.0000E+00  0.0000E+00
     -3.283  0.0000E+00  0.0000E+00  0.0000E+00  0.0000E+00  0.0000E+00  0.0000E+00  0.0000E+00  0.0000E+00
     -3.254  0.0000E+00  0.0000E+00  0.0000E+00  0.0000E+00  0.0000E+00  0.0000E+00  0.0000E+00  0.0000E+00
     -3.225  0.0000E+00  0.0000E+00  0.0000E+00  0.0000E+00  0.0000E+00  0.0000E+00  0.0000E+00  0.0000E+00
     -3.196  0.0000E+00  0.0000E+00  0.0000E+00  0.0000E+00  0.0000E+00  0.0000E+00  0.0000E+00  0.0000E+00
     -3.167  0.0000E+00  0.0000E+00  0.0000E+00  0.0000E+00  0.0000E+00  0.0000E+00  0.0000E+00  0.0000E+00
     -3.138  0.6793E-01  0.0000E+00  0.2964E-01  0.0000E+00  0.3442E-02  0.0000E+00  0.1685E-03  0.0000E+00
     -3.109  0.4512E+01  0.0000E+00  0.1969E+01  0.0000E+00  0.2286E+00  0.0000E+00  0.1119E-01  0.0000E+00
     -3.080  0.0000E+00  0.0000E+00  0.0000E+00  0.0000E+00  0.0000E+00  0.0000E+00  0.0000E+00  0.0000E+00
     -3.051  0.0000E+00  0.0000E+00  0.0000E+00  0.0000E+00  0.0000E+00  0.0000E+00  0.0000E+00  0.0000E+00
     -3.021  0.0000E+00  0.0000E+00  0.0000E+00  0.0000E+00  0.0000E+00  0.0000E+00  0.0000E+00  0.0000E+00
     -2.992  0.0000E+00  0.0000E+00  0.0000E+00  0.0000E+00  0.0000E+00  0.0000E+00  0.0000E+00  0.0000E+00
     -2.963  0.0000E+00  0.0000E+00  0.0000E+00  0.0000E+00  0.0000E+00  0.0000E+00  0.0000E+00  0.0000E+00
     -2.934  0.0000E+00  0.0000E+00  0.0000E+00  0.0000E+00  0.0000E+00  0.0000E+00  0.0000E+00  0.0000E+00
     -2.905  0.0000E+00  0.0000E+00  0.0000E+00  0.0000E+00  0.0000E+00  0.0000E+00  0.0000E+00  0.0000E+00
     -2.876  0.0000E+00  0.0000E+00  0.0000E+00  0.0000E+00  0.0000E+00  0.0000E+00  0.0000E+00  0.0000E+00
     -2.847  0.0000E+00  0.0000E+00  0.0000E+00  0.0000E+00  0.0000E+00  0.0000E+00  0.0000E+00  0.0000E+00
     -2.818  0.0000E+00  0.0000E+00  0.0000E+00  0.0000E+00  0.0000E+00  0.0000E+00  0.0000E+00  0.0000E+00
     -2.789  0.0000E+00  0.0000E+00  0.0000E+00  0.0000E+00  0.0000E+00  0.0000E+00  0.0000E+00  0.0000E+00
     -2.760  0.0000E+00  0.0000E+00  0.0000E+00  0.0000E+00  0.0000E+00  0.0000E+00  0.0000E+00  0.0000E+00
     -2.731  0.0000E+00  0.0000E+00  0.0000E+00  0.0000E+00  0.0000E+00  0.0000E+00  0.0000E+00  0.0000E+00
     -2.702  0.0000E+00  0.0000E+00  0.0000E+00  0.0000E+00  0.0000E+00  0.0000E+00  0.0000E+00  0.0000E+00
     -2.673  0.0000E+00  0.0000E+00  0.0000E+00  0.0000E+00  0.0000E+00  0.0000E+00  0.0000E+00  0.0000E+00
     -2.644  0.0000E+00  0.0000E+00  0.0000E+00  0.0000E+00  0.0000E+00  0.0000E+00  0.0000E+00  0.0000E+00
     -2.615  0.0000E+00  0.0000E+00  0.0000E+00  0.0000E+00  0.0000E+00  0.0000E+00  0.0000E+00  0.0000E+00
     -2.586  0.0000E+00  0.0000E+00  0.0000E+00  0.0000E+00  0.0000E+00  0.0000E+00  0.0000E+00  0.0000E+00
     -2.557  0.0000E+00  0.0000E+00  0.0000E+00  0.0000E+00  0.0000E+00  0.0000E+00  0.0000E+00  0.0000E+00
     -2.528  0.0000E+00  0.0000E+00  0.0000E+00  0.0000E+00  0.0000E+00  0.0000E+00  0.0000E+00  0.0000E+00
     -2.499  0.0000E+00  0.0000E+00  0.0000E+00  0.0000E+00  0.0000E+00  0.0000E+00  0.0000E+00  0.0000E+00
     -2.470  0.0000E+00  0.0000E+00  0.0000E+00  0.0000E+00  0.0000E+00  0.0000E+00  0.0000E+00  0.0000E+00
     -2.441  0.0000E+00  0.9411E+00  0.0000E+00  0.5154E+00  0.0000E+00  0.1794E+00  0.0000E+00  0.5727E-02
     -2.412  0.0000E+00  0.2581E+01  0.0000E+00  0.1414E+01  0.0000E+00  0.4921E+00  0.0000E+00  0.1571E-01
     -2.383  0.0000E+00  0.0000E+00  0.0000E+00  0.0000E+00  0.0000E+00  0.0000E+00  0.0000E+00  0.0000E+00
     -2.354  0.0000E+00  0.0000E+00  0.0000E+00  0.0000E+00  0.0000E+00  0.0000E+00  0.0000E+00  0.0000E+00
     -2.325  0.0000E+00  0.0000E+00  0.0000E+00  0.0000E+00  0.0000E+00  0.0000E+00  0.0000E+00  0.0000E+00
     -2.296  0.0000E+00  0.0000E+00  0.0000E+00  0.0000E+00  0.0000E+00  0.0000E+00  0.0000E+00  0.0000E+00
     -2.267  0.0000E+00  0.0000E+00  0.0000E+00  0.0000E+00  0.0000E+00  0.0000E+00  0.0000E+00  0.0000E+00
     -2.238  0.0000E+00  0.0000E+00  0.0000E+00  0.0000E+00  0.0000E+00  0.0000E+00  0.0000E+00  0.0000E+00
     -2.209  0.0000E+00  0.0000E+00  0.0000E+00  0.0000E+00  0.0000E+00  0.0000E+00  0.0000E+00  0.0000E+00
     -2.180  0.0000E+00  0.0000E+00  0.0000E+00  0.0000E+00  0.0000E+00  0.0000E+00  0.0000E+00  0.0000E+00
     -2.151  0.0000E+00  0.0000E+00  0.0000E+00  0.0000E+00  0.0000E+00  0.0000E+00  0.0000E+00  0.0000E+00
     -2.122  0.0000E+00  0.0000E+00  0.0000E+00  0.0000E+00  0.0000E+00  0.0000E+00  0.0000E+00  0.0000E+00
     -2.093  0.0000E+00  0.0000E+00  0.0000E+00  0.0000E+00  0.0000E+00  0.0000E+00  0.0000E+00  0.0000E+00
     -2.064  0.0000E+00  0.0000E+00  0.0000E+00  0.0000E+00  0.0000E+00  0.0000E+00  0.0000E+00  0.0000E+00
     -2.035  0.0000E+00  0.0000E+00  0.0000E+00  0.0000E+00  0.0000E+00  0.0000E+00  0.0000E+00  0.0000E+00
     -2.006  0.0000E+00  0.0000E+00  0.0000E+00  0.0000E+00  0.0000E+00  0.0000E+00  0.0000E+00  0.0000E+00
     -1.977  0.0000E+00  0.0000E+00  0.0000E+00  0.0000E+00  0.0000E+00  0.0000E+00  0.0000E+00  0.0000E+00
     -1.948  0.0000E+00  0.0000E+00  0.0000E+00  0.0000E+00  0.0000E+00  0.0000E+00  0.0000E+00  0.0000E+00
     -1.919  0.0000E+00  0.0000E+00  0.0000E+00  0.0000E+00  0.0000E+00  0.0000E+00  0.0000E+00  0.0000E+00
     -1.890  0.0000E+00  0.0000E+00  0.0000E+00  0.0000E+00  0.0000E+00  0.0000E+00  0.0000E+00  0.0000E+00
     -1.861  0.0000E+00  0.0000E+00  0.0000E+00  0.0000E+00  0.0000E+00  0.0000E+00  0.0000E+00  0.0000E+00
     -1.832  0.0000E+00  0.0000E+00  0.0000E+00  0.0000E+00  0.0000E+00  0.0000E+00  0.0000E+00  0.0000E+00
     -1.802  0.0000E+00  0.0000E+00  0.0000E+00  0.0000E+00  0.0000E+00  0.0000E+00  0.0000E+00  0.0000E+00
     -1.773  0.0000E+00  0.0000E+00  0.0000E+00  0.0000E+00  0.0000E+00  0.0000E+00  0.0000E+00  0.0000E+00
     -1.744  0.0000E+00  0.0000E+00  0.0000E+00  0.0000E+00  0.0000E+00  0.0000E+00  0.0000E+00  0.0000E+00
     -1.715  0.0000E+00  0.0000E+00  0.0000E+00  0.0000E+00  0.0000E+00  0.0000E+00  0.0000E+00  0.0000E+00
     -1.686  0.0000E+00  0.0000E+00  0.0000E+00  0.0000E+00  0.0000E+00  0.0000E+00  0.0000E+00  0.0000E+00
     -1.657  0.0000E+00  0.0000E+00  0.0000E+00  0.0000E+00  0.0000E+00  0.0000E+00  0.0000E+00  0.0000E+00
     -1.628  0.0000E+00  0.0000E+00  0.0000E+00  0.0000E+00  0.0000E+00  0.0000E+00  0.0000E+00  0.0000E+00
     -1.599  0.0000E+00  0.0000E+00  0.0000E+00  0.0000E+00  0.0000E+00  0.0000E+00  0.0000E+00  0.0000E+00
     -1.570  0.0000E+00  0.0000E+00  0.0000E+00  0.0000E+00  0.0000E+00  0.0000E+00  0.0000E+00  0.0000E+00
     -1.541  0.0000E+00  0.0000E+00  0.0000E+00  0.0000E+00  0.0000E+00  0.0000E+00  0.0000E+00  0.0000E+00
     -1.512  0.0000E+00  0.0000E+00  0.0000E+00  0.0000E+00  0.0000E+00  0.0000E+00  0.0000E+00  0.0000E+00
     -1.483  0.0000E+00  0.0000E+00  0.0000E+00  0.0000E+00  0.0000E+00  0.0000E+00  0.0000E+00  0.0000E+00
     -1.454  0.0000E+00  0.0000E+00  0.0000E+00  0.0000E+00  0.0000E+00  0.0000E+00  0.0000E+00  0.0000E+00
     -1.425  0.0000E+00  0.0000E+00  0.0000E+00  0.0000E+00  0.0000E+00  0.0000E+00  0.0000E+00  0.0000E+00
     -1.396  0.0000E+00  0.0000E+00  0.0000E+00  0.0000E+00  0.0000E+00  0.0000E+00  0.0000E+00  0.0000E+00
     -1.367  0.0000E+00  0.0000E+00  0.0000E+00  0.0000E+00  0.0000E+00  0.0000E+00  0.0000E+00  0.0000E+00
     -1.338  0.0000E+00  0.0000E+00  0.0000E+00  0.0000E+00  0.0000E+00  0.0000E+00  0.0000E+00  0.0000E+00
     -1.309  0.0000E+00  0.0000E+00  0.0000E+00  0.0000E+00  0.0000E+00  0.0000E+00  0.0000E+00  0.0000E+00
     -1.280  0.6980E-21  0.0000E+00  0.6086E-01  0.0000E+00  0.1329E-02  0.0000E+00  0.1253E-03  0.0000E+00
     -1.251  0.7784E-19  0.0000E+00  0.6786E+01  0.0000E+00  0.1482E+00  0.0000E+00  0.1397E-01  0.0000E+00
     -1.222  0.0000E+00  0.0000E+00  0.0000E+00  0.0000E+00  0.0000E+00  0.0000E+00  0.0000E+00  0.0000E+00
     -1.193  0.0000E+00  0.0000E+00  0.0000E+00  0.0000E+00  0.0000E+00  0.0000E+00  0.0000E+00  0.0000E+00
     -1.164  0.0000E+00  0.0000E+00  0.0000E+00  0.0000E+00  0.0000E+00  0.0000E+00  0.0000E+00  0.0000E+00
     -1.135  0.0000E+00  0.0000E+00  0.0000E+00  0.0000E+00  0.0000E+00  0.0000E+00  0.0000E+00  0.0000E+00
     -1.106  0.0000E+00  0.0000E+00  0.0000E+00  0.0000E+00  0.0000E+00  0.0000E+00  0.0000E+00  0.0000E+00
     -1.077  0.0000E+00  0.2636E-21  0.0000E+00  0.8141E-02  0.0000E+00  0.4791E-03  0.0000E+00  0.8299E-05
     -1.048  0.0000E+00  0.1857E-18  0.0000E+00  0.5736E+01  0.0000E+00  0.3376E+00  0.0000E+00  0.5847E-02
     -1.019  0.0000E+00  0.0000E+00  0.0000E+00  0.0000E+00  0.0000E+00  0.0000E+00  0.0000E+00  0.0000E+00
     -0.990  0.0000E+00  0.0000E+00  0.0000E+00  0.0000E+00  0.0000E+00  0.0000E+00  0.0000E+00  0.0000E+00
     -0.961  0.0000E+00  0.0000E+00  0.0000E+00  0.0000E+00  0.0000E+00  0.0000E+00  0.0000E+00  0.0000E+00
     -0.932  0.0000E+00  0.0000E+00  0.0000E+00  0.0000E+00  0.0000E+00  0.0000E+00  0.0000E+00  0.0000E+00
     -0.903  0.0000E+00  0.0000E+00  0.0000E+00  0.0000E+00  0.0000E+00  0.0000E+00  0.0000E+00  0.0000E+00
     -0.874  0.0000E+00  0.0000E+00  0.0000E+00  0.0000E+00  0.0000E+00  0.0000E+00  0.0000E+00  0.0000E+00
     -0.845  0.0000E+00  0.0000E+00  0.0000E+00  0.0000E+00  0.0000E+00  0.0000E+00  0.0000E+00  0.0000E+00
     -0.816  0.0000E+00  0.0000E+00  0.0000E+00  0.0000E+00  0.0000E+00  0.0000E+00  0.0000E+00  0.0000E+00
     -0.787  0.0000E+00  0.0000E+00  0.0000E+00  0.0000E+00  0.0000E+00  0.0000E+00  0.0000E+00  0.0000E+00
     -0.758  0.0000E+00  0.0000E+00  0.0000E+00  0.0000E+00  0.0000E+00  0.0000E+00  0.0000E+00  0.0000E+00
     -0.729  0.0000E+00  0.0000E+00  0.0000E+00  0.0000E+00  0.0000E+00  0.0000E+00  0.0000E+00  0.0000E+00
     -0.700  0.0000E+00  0.0000E+00  0.0000E+00  0.0000E+00  0.0000E+00  0.0000E+00  0.0000E+00  0.0000E+00
     -0.671  0.0000E+00  0.0000E+00  0.0000E+00  0.0000E+00  0.0000E+00  0.0000E+00  0.0000E+00  0.0000E+00
