    2    2  200    2
  0.2456500E+04  0.1700000E-08  0.1700000E-08  0.1700000E-08  0.5000000E-15
  1.000000000000000E-004
  CAR 
 CuRh                                    
     18      1     14
 
  0.0000000E+00  0.0000000E+00  0.0000000E+00  0.1000000E+01
    1       -8.981902     -7.831766
    2       -8.246715     -7.003199
    3       -8.246715     -7.003199
    4       -6.537716     -5.413093
    5       -6.535814     -5.412991
    6       -5.865472     -4.794027
    7       -5.863393     -4.652510
    8       -5.595823     -4.652370
    9       -5.595823     -4.059672
   10       -5.342237     -4.059672
   11       -5.256860     -3.973292
   12       -3.129900     -2.438824
   13       -1.271693     -1.066353
   14       -1.271693     -1.066353
