 vasp.5.3.5 31Mar14 (build Jan 29 2015 13:51:25) gamma-only                     
  
 executed on             LinuxIFC date 2021.07.24  10:50:21
 running on    8 total cores
 distrk:  each k-point on    8 cores,    1 groups
 distr:  one band on NCORES_PER_BAND=   4 cores,    2 groups


--------------------------------------------------------------------------------------------------------


 INCAR:
 POTCAR:    PAW Rh_GW 06Mar2008                   
 POTCAR:    PAW Rh_GW 06Mar2008                   
  local pseudopotential read in
  partial core-charges read in
  partial kinetic energy density read in
  kinetic energy density of atom read in
  atomic valenz-charges read in
  non local Contribution for L=           2  read in
    real space projection operators read in
  non local Contribution for L=           2  read in
    real space projection operators read in
  non local Contribution for L=           0  read in
    real space projection operators read in
  non local Contribution for L=           0  read in
    real space projection operators read in
  non local Contribution for L=           1  read in
    real space projection operators read in
  non local Contribution for L=           1  read in
    real space projection operators read in
  non local Contribution for L=           3  read in
    real space projection operators read in
  non local Contribution for L=           3  read in
    real space projection operators read in
    PAW grid and wavefunctions read in
 
   number of l-projection  operators is LMAX  =           8
   number of lm-projection operators is LMMAX =          32
 

 ----------------------------------------------------------------------------- 
|                                                                             |
|  ADVICE TO THIS USER RUNNING 'VASP/VAMP'   (HEAR YOUR MASTER'S VOICE ...):  |
|                                                                             |
|      You have a (more or less) 'small supercell' and for smaller cells      |
|      it is recommended  to use the reciprocal-space projection scheme!      |
|      The real space optimization is not  efficient for small cells and it   |
|      is also less accurate ...                                              |
|      Therefore set LREAL=.FALSE. in the  INCAR file                         |
|                                                                             |
 ----------------------------------------------------------------------------- 

 Optimization of the real space projectors (new method)

 maximal supplied QI-value         = 13.42
 optimisation between [QCUT,QGAM] = [ 11.40, 22.81] = [ 36.42,145.68] Ry 
 Optimized for a Real-space Cutoff    1.56 Angstroem

   l    n(q)    QCUT    max X(q) W(low)/X(q) W(high)/X(q)  e(spline) 
   2     10    11.404   101.303    0.11E-03    0.18E-03    0.33E-06
   2     10    11.404   103.001    0.11E-03    0.18E-03    0.34E-06
   0     11    11.404    21.541    0.39E-04    0.15E-05    0.31E-06
   0     11    11.404    11.859    0.22E-04    0.11E-05    0.23E-06
   1     10    11.404     7.160    0.16E-03    0.25E-03    0.73E-06
   1     10    11.404     5.057    0.93E-04    0.14E-03    0.42E-06
   3      9    11.404     3.364    0.71E-04    0.12E-03    0.33E-06
   3      9    11.404     2.504    0.29E-04    0.72E-04    0.25E-06
  PAW Rh_GW 06Mar2008                   :
 energy of atom  1       EATOM= -616.4201
 kinetic energy error for atom=    0.0043 (will be added to EATOM!!)
 
 
 POSCAR: CuRh                                    
  positions in cartesian coordinates
  No initial velocities read in
 exchange correlation table for  LEXCH =        8
   RHO(1)=    0.500       N(1)  =     2000
   RHO(2)=  100.500       N(2)  =     4000
 


--------------------------------------------------------------------------------------------------------


 ion  position               nearest neighbor table
   1  0.000  0.000  0.933-   2 2.27
   2  0.000  0.000  0.067-   1 2.27
 
  LATTYP: Found a simple cubic cell.
 ALAT       =    17.0000000000
  
  Lattice vectors:
  
 A1 = (  17.0000000000,   0.0000000000,   0.0000000000)
 A2 = (   0.0000000000,  17.0000000000,   0.0000000000)
 A3 = (   0.0000000000,   0.0000000000,  17.0000000000)


Analysis of symmetry for initial positions (statically):
=====================================================================
 Subroutine PRICEL returns:
 Original cell was already a primitive cell.
 

 Routine SETGRP: Setting up the symmetry group for a 
 simple cubic supercell.


 Subroutine GETGRP returns: Found 16 space group operations
 (whereof 16 operations were pure point group operations)
 out of a pool of 48 trial point group operations.


The static configuration has the point symmetry D_4h.


Analysis of symmetry for dynamics (positions and initial velocities):
=====================================================================
 Subroutine PRICEL returns:
 Original cell was already a primitive cell.
 

 Routine SETGRP: Setting up the symmetry group for a 
 simple cubic supercell.


 Subroutine GETGRP returns: Found 16 space group operations
 (whereof 16 operations were pure point group operations)
 out of a pool of 48 trial point group operations.


The dynamic configuration has the point symmetry D_4h.


Analysis of magnetic symmetry:
=====================================================================
 Subroutine PRICEL returns:
 Original cell was already a primitive cell.
 

 Subroutine MAGSYM returns: Found 16 space group operations
 (whereof 16 operations were pure point group operations)
 out of a pool of 16 trial space group operations
 (whereof 16 operations were pure point group operations)
 and found also     1 'primitive' translations


The magnetic configuration has the point symmetry D_4h.
 
 
 KPOINTS: XXX                          ! Comment l

Automatic generation of k-mesh.
Space group operators:
 irot       det(A)        alpha          n_x          n_y          n_z        tau_x        tau_y        tau_z
    1     1.000000     0.000000     1.000000     0.000000     0.000000     0.000000     0.000000     0.000000
    2    -1.000000     0.000000     1.000000     0.000000     0.000000     0.000000     0.000000     0.000000
    3     1.000000    90.000000     0.000000     0.000000    -1.000000     0.000000     0.000000     0.000000
    4    -1.000000    90.000000     0.000000     0.000000    -1.000000     0.000000     0.000000     0.000000
    5     1.000000   180.000000     0.000000     0.000000     1.000000     0.000000     0.000000     0.000000
    6    -1.000000   180.000000     0.000000     0.000000     1.000000     0.000000     0.000000     0.000000
    7     1.000000    90.000000     0.000000     0.000000     1.000000     0.000000     0.000000     0.000000
    8    -1.000000    90.000000     0.000000     0.000000     1.000000     0.000000     0.000000     0.000000
    9     1.000000   180.000000     1.000000     0.000000     0.000000     0.000000     0.000000     0.000000
   10    -1.000000   180.000000     1.000000     0.000000     0.000000     0.000000     0.000000     0.000000
   11     1.000000   180.000000     0.707107     0.707107     0.000000     0.000000     0.000000     0.000000
   12    -1.000000   180.000000     0.707107     0.707107     0.000000     0.000000     0.000000     0.000000
   13     1.000000   180.000000     0.000000     1.000000     0.000000     0.000000     0.000000     0.000000
   14    -1.000000   180.000000     0.000000     1.000000     0.000000     0.000000     0.000000     0.000000
   15     1.000000   180.000000     0.707107    -0.707107     0.000000     0.000000     0.000000     0.000000
   16    -1.000000   180.000000     0.707107    -0.707107     0.000000     0.000000     0.000000     0.000000
 
 Subroutine IBZKPT returns following result:
 ===========================================
 
 Found      1 irreducible k-points:
 
 Following reciprocal coordinates:
            Coordinates               Weight
  0.000000  0.000000  0.000000      1.000000
 
 Following cartesian coordinates:
            Coordinates               Weight
  0.000000  0.000000  0.000000      1.000000
 


--------------------------------------------------------------------------------------------------------




 Dimension of arrays:
   k-points           NKPTS =      1   k-points in BZ     NKDIM =      1   number of bands    NBANDS=     14
   number of dos      NEDOS =    301   number of ions     NIONS =      2
   non local maximal  LDIM  =      8   non local SUM 2l+1 LMDIM =     32
   total plane-waves  NPLWV = 884736
   max r-space proj   IRMAX =   2936   max aug-charges    IRDMAX=  82070
   dimension x,y,z NGX =    96 NGY =   96 NGZ =   96
   dimension x,y,z NGXF=   192 NGYF=  192 NGZF=  192
   support grid    NGXF=   384 NGYF=  384 NGZF=  384
   ions per type =               2
 NGX,Y,Z   is equivalent  to a cutoff of   9.39,  9.39,  9.39 a.u.
 NGXF,Y,Z  is equivalent  to a cutoff of  18.78, 18.78, 18.78 a.u.


 I would recommend the setting:
   dimension x,y,z NGX =    93 NGY =   93 NGZ =   93
 SYSTEM =  CuRh                                    
 POSCAR =  CuRh                                    

 Startparameter for this run:
   NWRITE =      1    write-flag & timer
   PREC   = normal    normal or accurate (medium, high low for compatibility)
   ISTART =      0    job   : 0-new  1-cont  2-samecut
   ICHARG =      2    charge: 1-file 2-atom 10-const
   ISPIN  =      2    spin polarized calculation?
   LNONCOLLINEAR =      F non collinear calculations
   LSORBIT =      F    spin-orbit coupling
   INIWAV =      1    electr: 0-lowe 1-rand  2-diag
   LASPH  =      T    aspherical Exc in radial PAW
   METAGGA=      F    non-selfconsistent MetaGGA calc.

 Electronic Relaxation 1
   ENCUT  =  500.0 eV  36.75 Ry    6.06 a.u.  30.99 30.99 30.99*2*pi/ulx,y,z
   ENINI  =  500.0     initial cutoff
   ENAUG  =  551.8 eV  augmentation charge cutoff
   NELM   =    120;   NELMIN=  6; NELMDL= -8     # of ELM steps 
   EDIFF  = 0.1E-05   stopping-criterion for ELM
   LREAL  =      T    real-space projection
   NLSPLINE    = F    spline interpolate recip. space projectors
   LCOMPAT=      F    compatible to vasp.4.4
   GGA_COMPAT  = T    GGA compatible to vasp.4.4-vasp.4.6
   LMAXPAW     = -100 max onsite density
   LMAXMIX     =    2 max onsite mixed and CHGCAR
   VOSKOWN=      0    Vosko Wilk Nusair interpolation
   ROPT   =   -0.00050
 Ionic relaxation
   EDIFFG = -.1E-01   stopping-criterion for IOM
   NSW    =    200    number of steps for IOM
   NBLOCK =      1;   KBLOCK =    200    inner block; outer block 
   IBRION =      2    ionic relax: 0-MD 1-quasi-New 2-CG
   NFREE  =      1    steps in history (QN), initial steepest desc. (CG)
   ISIF   =      0    stress and relaxation
   IWAVPR =     11    prediction:  0-non 1-charg 2-wave 3-comb
   ISYM   =      2    0-nonsym 1-usesym 2-fastsym
   LCORR  =      T    Harris-Foulkes like correction to forces

   POTIM  = 0.5000    time-step for ionic-motion
   TEIN   =    0.0    initial temperature
   TEBEG  =    0.0;   TEEND  =   0.0 temperature during run
   SMASS  =  -3.00    Nose mass-parameter (am)
   estimated Nose-frequenzy (Omega)   =  0.10E-29 period in steps =****** mass=  -0.660E-26a.u.
   SCALEE = 1.0000    scale energy and forces
   NPACO  =    256;   APACO  = 16.0  distance and # of slots for P.C.
   PSTRESS=    0.0 pullay stress

  Mass of Ions in am
   POMASS = 102.91
  Ionic Valenz
   ZVAL   =   9.00
  Atomic Wigner-Seitz radii
   RWIGS  =  -1.00
  virtual crystal weights 
   VCA    =   1.00
   NELECT =      18.0000    total number of electrons
   NUPDOWN=      -1.0000    fix difference up-down

 DOS related values:
   EMIN   =  10.00;   EMAX   =-10.00  energy-range for DOS
   EFERMI =   0.00
   ISMEAR =     0;   SIGMA  =   0.01  broadening in eV -4-tet -1-fermi 0-gaus

 Electronic relaxation 2 (details)
   IALGO  =     38    algorithm
   LDIAG  =      T    sub-space diagonalisation (order eigenvalues)
   LSUBROT=      F    optimize rotation matrix (better conditioning)
   TURBO    =      0    0=normal 1=particle mesh
   IRESTART =      0    0=no restart 2=restart with 2 vectors
   NREBOOT  =      0    no. of reboots
   NMIN     =      0    reboot dimension
   EREF     =   0.00    reference energy to select bands
   IMIX   =      4    mixing-type and parameters
     AMIX     =   0.02;   BMIX     =  0.00
     AMIX_MAG =   0.10;   BMIX_MAG =  0.00
     AMIN     =   0.02
     WC   =   100.;   INIMIX=   1;  MIXPRE=   1;  MAXMIX= -45

 Intra band minimization:
   WEIMIN = 0.0010     energy-eigenvalue tresh-hold
   EBREAK =  0.18E-07  absolut break condition
   DEPER  =   0.30     relativ break condition  

   TIME   =   0.40     timestep for ELM

  volume/ion in A,a.u.               =    2456.50     16577.28
  Fermi-wavevector in a.u.,A,eV,Ry     =   0.252377  0.476924  0.866613  0.063694
  Thomas-Fermi vector in A             =   1.071221
 
 Write flags
   LWAVE  =      F    write WAVECAR
   LCHARG =      F    write CHGCAR
   LVTOT  =      F    write LOCPOT, total local potential
   LVHAR  =      F    write LOCPOT, Hartree potential only
   LELF   =      F    write electronic localiz. function (ELF)
   LORBIT =     10    0 simple, 1 ext, 2 COOP (PROOUT)


 Dipole corrections
   LMONO  =      F    monopole corrections only (constant potential shift)
   LDIPOL =      F    correct potential (dipole corrections)
   IDIPOL =      0    1-x, 2-y, 3-z, 4-all directions 
   EPSILON=  1.0000000 bulk dielectric constant

 Exchange correlation treatment:
   GGA     =    --    GGA type
   LEXCH   =     8    internal setting for exchange type
   VOSKOWN=      0    Vosko Wilk Nusair interpolation
   LHFCALC =     F    Hartree Fock is set to
   LHFONE  =     F    Hartree Fock one center treatment
   AEXX    =    0.0000 exact exchange contribution

 Linear response parameters
   LEPSILON=     F    determine dielectric tensor
   LRPA    =     F    only Hartree local field effects (RPA)
   LNABLA  =     F    use nabla operator in PAW spheres
   LVEL    =     F    velocity operator in full k-point grid
   LINTERFAST=   F  fast interpolation
   KINTER  =     0    interpolate to denser k-point grid
   CSHIFT  =0.1000    complex shift for real part using Kramers Kronig
   OMEGAMAX=  -1.0    maximum frequency
   DEG_THRESHOLD= 0.2000000E-02 threshold for treating states as degnerate
   RTIME   =    0.100 relaxation time in fs

 Orbital magnetization related:
   ORBITALMAG=     F  switch on orbital magnetization
   LCHIMAG   =     F  perturbation theory with respect to B field
   DQ        =  0.001000  dq finite difference perturbation B field



--------------------------------------------------------------------------------------------------------


 conjugate gradient relaxation of ions
 charge density and potential will be updated during run
 spin polarized calculation
 Variant of blocked Davidson
 Davidson routine will perform the subspace rotation
 perform sub-space diagonalisation
    after iterative eigenvector-optimisation
 modified Broyden-mixing scheme, WC =      100.0
 initial mixing is a Kerker type mixing with AMIX =  0.0200 and BMIX =      0.0000
 Hartree-type preconditioning will be used
 using additional bands            5
 real space projection scheme for non local part
 use partial core corrections
 calculate Harris-corrections to forces 
   (improved forces if not selfconsistent)
 use gradient corrections 
 use of overlap-Matrix (Vanderbilt PP)
 Gauss-broadening in eV      SIGMA  =   0.01


--------------------------------------------------------------------------------------------------------


  energy-cutoff  :      500.00
  volume of cell :     4913.00
      direct lattice vectors                 reciprocal lattice vectors
    17.000000000  0.000000000  0.000000000     0.058823529  0.000000000  0.000000000
     0.000000000 17.000000000  0.000000000     0.000000000  0.058823529  0.000000000
     0.000000000  0.000000000 17.000000000     0.000000000  0.000000000  0.058823529

  length of vectors
    17.000000000 17.000000000 17.000000000     0.058823529  0.058823529  0.058823529


 
 k-points in units of 2pi/SCALE and weight: XXX                          ! Comment l
   0.00000000  0.00000000  0.00000000       1.000
 
 k-points in reciprocal lattice and weights: XXX                          ! Comment l
   0.00000000  0.00000000  0.00000000       1.000
 
 position of ions in fractional coordinates (direct lattice) 
   0.00000000  0.00000000  0.93311294
   0.00000000  0.00000000  0.06688706
 
 position of ions in cartesian coordinates  (Angst):
   0.00000000  0.00000000 15.86292000
   0.00000000  0.00000000  1.13708000
 


--------------------------------------------------------------------------------------------------------


 use parallel FFT for wavefunctions z direction half grid
 k-point  1 :   0.0000 0.0000 0.0000  plane waves:   62145

 maximum and minimum number of plane-waves per node :     15539    15530

 maximum number of plane-waves:     62145
 maximum index in each direction: 
   IXMAX=   30   IYMAX=   30   IZMAX=   30
   IXMIN=  -30   IYMIN=  -30   IZMIN=    0

 WARNING: aliasing errors must be expected set NGX to 122 to avoid them
 WARNING: aliasing errors must be expected set NGY to 122 to avoid them
 WARNING: aliasing errors must be expected set NGZ to 122 to avoid them
 aliasing errors are usually negligible using standard VASP settings
 and one can safely disregard these warnings

 real space projection operators:
  total allocation   :       1401.00 KBytes
  max/ min on nodes  :        357.00        348.00


 parallel 3D FFT for wavefunctions:
    minimum data exchange during FFTs selected (reduces bandwidth)
 parallel 3D FFT for charge:
    minimum data exchange during FFTs selected (reduces bandwidth)


 total amount of memory used by VASP on root node   424449. kBytes
========================================================================

   base      :      30000. kBytes
   nonlr-proj:        427. kBytes
   fftplans  :     263088. kBytes
   grid      :     127401. kBytes
   one-center:         49. kBytes
   wavefun   :       3484. kBytes
 
     INWAV:  cpu time    0.00: real time    0.00
 Broyden mixing: mesh for mixing (old mesh)
   NGX = 61   NGY = 61   NGZ = 61
  (NGX  =192   NGY  =192   NGZ  =192)
  gives a total of 226981 points

 initial charge density was supplied:
 charge density of overlapping atoms calculated
 number of electron      18.0000000 magnetization       2.0000000
 keeping initial charge density in first step


--------------------------------------------------------------------------------------------------------


 Maximum index for non-local projection operator          696
 Maximum index for augmentation-charges        10035 (set IRDMAX)


--------------------------------------------------------------------------------------------------------


 First call to EWALD:  gamma=   0.104
 Maximum number of real-space cells 3x 3x 3
 Maximum number of reciprocal cells 3x 3x 3

 FEWALD executed in parallel
    FEWALD:  cpu time    0.01: real time    0.01


----------------------------------------- Iteration    1(   1)  ---------------------------------------


    POTLOK:  cpu time    4.68: real time    9.42
    SETDIJ:  cpu time    5.06: real time   10.15
     EDDAV:  cpu time    2.43: real time    4.87
       DOS:  cpu time    0.00: real time    0.00
    --------------------------------------------
      LOOP:  cpu time   12.18: real time   24.45

 eigenvalue-minimisations  :    56
 total energy-change (2. order) : 0.1143686E+03  (-0.2400650E+03)
 number of electron      18.0000000 magnetization       2.0000000
 augmentation part       18.0000000 magnetization       2.0000000

 Free energy of the ion-electron system (eV)
  ---------------------------------------------------
  alpha Z        PSCENC =         0.64027230
  Ewald energy   TEWEN  =       126.18696251
  -Hartree energ DENC   =     -1281.63212630
  -exchange      EXHF   =         0.00000000
  -V(xc)+E(xc)   XCENC  =       -94.95197722
  PAW double counting   =      1257.74681152    -1128.09152451
  entropy T*S    EENTRO =        -0.00000000
  eigenvalues    EBANDS =         1.63852609
  atomic energy  EATOM  =      1232.83166263
  ---------------------------------------------------
  free energy    TOTEN  =       114.36860702 eV

  energy without entropy =      114.36860702  energy(sigma->0) =      114.36860702


--------------------------------------------------------------------------------------------------------




----------------------------------------- Iteration    1(   2)  ---------------------------------------


     EDDAV:  cpu time    3.43: real time    6.87
       DOS:  cpu time    0.00: real time    0.00
    --------------------------------------------
      LOOP:  cpu time    3.43: real time    6.88

 eigenvalue-minimisations  :    92
 total energy-change (2. order) :-0.4413936E+02  (-0.4280878E+02)
 number of electron      18.0000000 magnetization       2.0000000
 augmentation part       18.0000000 magnetization       2.0000000

 Free energy of the ion-electron system (eV)
  ---------------------------------------------------
  alpha Z        PSCENC =         0.64027230
  Ewald energy   TEWEN  =       126.18696251
  -Hartree energ DENC   =     -1281.63212630
  -exchange      EXHF   =         0.00000000
  -V(xc)+E(xc)   XCENC  =       -94.95197722
  PAW double counting   =      1257.74681152    -1128.09152451
  entropy T*S    EENTRO =        -0.00000000
  eigenvalues    EBANDS =       -42.50083341
  atomic energy  EATOM  =      1232.83166263
  ---------------------------------------------------
  free energy    TOTEN  =        70.22924751 eV

  energy without entropy =       70.22924751  energy(sigma->0) =       70.22924751


--------------------------------------------------------------------------------------------------------




----------------------------------------- Iteration    1(   3)  ---------------------------------------


     EDDAV:  cpu time    2.67: real time    5.35
       DOS:  cpu time    0.00: real time    0.00
    --------------------------------------------
      LOOP:  cpu time    2.67: real time    5.35

 eigenvalue-minimisations  :   112
 total energy-change (2. order) :-0.5960841E+02  (-0.5679213E+02)
 number of electron      18.0000000 magnetization       2.0000000
 augmentation part       18.0000000 magnetization       2.0000000

 Free energy of the ion-electron system (eV)
  ---------------------------------------------------
  alpha Z        PSCENC =         0.64027230
  Ewald energy   TEWEN  =       126.18696251
  -Hartree energ DENC   =     -1281.63212630
  -exchange      EXHF   =         0.00000000
  -V(xc)+E(xc)   XCENC  =       -94.95197722
  PAW double counting   =      1257.74681152    -1128.09152451
  entropy T*S    EENTRO =        -0.00000000
  eigenvalues    EBANDS =      -102.10923970
  atomic energy  EATOM  =      1232.83166263
  ---------------------------------------------------
  free energy    TOTEN  =        10.62084123 eV

  energy without entropy =       10.62084123  energy(sigma->0) =       10.62084123


--------------------------------------------------------------------------------------------------------




----------------------------------------- Iteration    1(   4)  ---------------------------------------


     EDDAV:  cpu time    2.60: real time    5.20
       DOS:  cpu time    0.00: real time    0.00
    --------------------------------------------
      LOOP:  cpu time    2.60: real time    5.21

 eigenvalue-minimisations  :    74
 total energy-change (2. order) :-0.1423694E+02  (-0.1338453E+02)
 number of electron      18.0000000 magnetization       2.0000000
 augmentation part       18.0000000 magnetization       2.0000000

 Free energy of the ion-electron system (eV)
  ---------------------------------------------------
  alpha Z        PSCENC =         0.64027230
  Ewald energy   TEWEN  =       126.18696251
  -Hartree energ DENC   =     -1281.63212630
  -exchange      EXHF   =         0.00000000
  -V(xc)+E(xc)   XCENC  =       -94.95197722
  PAW double counting   =      1257.74681152    -1128.09152451
  entropy T*S    EENTRO =        -0.00000000
  eigenvalues    EBANDS =      -116.34617756
  atomic energy  EATOM  =      1232.83166263
  ---------------------------------------------------
  free energy    TOTEN  =        -3.61609664 eV

  energy without entropy =       -3.61609664  energy(sigma->0) =       -3.61609664


--------------------------------------------------------------------------------------------------------




----------------------------------------- Iteration    1(   5)  ---------------------------------------


     EDDAV:  cpu time    3.50: real time    7.03
       DOS:  cpu time    0.00: real time    0.00
    --------------------------------------------
      LOOP:  cpu time    3.51: real time    7.04

 eigenvalue-minimisations  :    88
 total energy-change (2. order) :-0.2386886E+01  (-0.1440137E+01)
 number of electron      18.0000000 magnetization       2.0000000
 augmentation part       18.0000000 magnetization       2.0000000

 Free energy of the ion-electron system (eV)
  ---------------------------------------------------
  alpha Z        PSCENC =         0.64027230
  Ewald energy   TEWEN  =       126.18696251
  -Hartree energ DENC   =     -1281.63212630
  -exchange      EXHF   =         0.00000000
  -V(xc)+E(xc)   XCENC  =       -94.95197722
  PAW double counting   =      1257.74681152    -1128.09152451
  entropy T*S    EENTRO =        -0.00000000
  eigenvalues    EBANDS =      -118.73306352
  atomic energy  EATOM  =      1232.83166263
  ---------------------------------------------------
  free energy    TOTEN  =        -6.00298260 eV

  energy without entropy =       -6.00298260  energy(sigma->0) =       -6.00298260


--------------------------------------------------------------------------------------------------------




----------------------------------------- Iteration    1(   6)  ---------------------------------------


     EDDAV:  cpu time    2.17: real time    4.47
       DOS:  cpu time    0.00: real time    0.00
    --------------------------------------------
      LOOP:  cpu time    2.18: real time    4.49

 eigenvalue-minimisations  :    56
 total energy-change (2. order) :-0.7333363E+00  (-0.4898781E+00)
 number of electron      18.0000000 magnetization       2.0000000
 augmentation part       18.0000000 magnetization       2.0000000

 Free energy of the ion-electron system (eV)
  ---------------------------------------------------
  alpha Z        PSCENC =         0.64027230
  Ewald energy   TEWEN  =       126.18696251
  -Hartree energ DENC   =     -1281.63212630
  -exchange      EXHF   =         0.00000000
  -V(xc)+E(xc)   XCENC  =       -94.95197722
  PAW double counting   =      1257.74681152    -1128.09152451
  entropy T*S    EENTRO =        -0.00000000
  eigenvalues    EBANDS =      -119.46639986
  atomic energy  EATOM  =      1232.83166263
  ---------------------------------------------------
  free energy    TOTEN  =        -6.73631894 eV

  energy without entropy =       -6.73631894  energy(sigma->0) =       -6.73631894


--------------------------------------------------------------------------------------------------------




----------------------------------------- Iteration    1(   7)  ---------------------------------------


     EDDAV:  cpu time    2.60: real time    5.02
       DOS:  cpu time    0.00: real time    0.00
    --------------------------------------------
      LOOP:  cpu time    2.60: real time    5.02

 eigenvalue-minimisations  :    62
 total energy-change (2. order) :-0.3252406E-01  (-0.3250537E-01)
 number of electron      18.0000000 magnetization       2.0000000
 augmentation part       18.0000000 magnetization       2.0000000

 Free energy of the ion-electron system (eV)
  ---------------------------------------------------
  alpha Z        PSCENC =         0.64027230
  Ewald energy   TEWEN  =       126.18696251
  -Hartree energ DENC   =     -1281.63212630
  -exchange      EXHF   =         0.00000000
  -V(xc)+E(xc)   XCENC  =       -94.95197722
  PAW double counting   =      1257.74681152    -1128.09152451
  entropy T*S    EENTRO =        -0.00000000
  eigenvalues    EBANDS =      -119.49892392
  atomic energy  EATOM  =      1232.83166263
  ---------------------------------------------------
  free energy    TOTEN  =        -6.76884300 eV

  energy without entropy =       -6.76884300  energy(sigma->0) =       -6.76884300


--------------------------------------------------------------------------------------------------------




----------------------------------------- Iteration    1(   8)  ---------------------------------------


     EDDAV:  cpu time    2.79: real time    5.36
       DOS:  cpu time    0.00: real time    0.00
    CHARGE:  cpu time    3.43: real time    6.91
    MIXING:  cpu time    0.12: real time    0.25
    --------------------------------------------
      LOOP:  cpu time    6.35: real time   12.53

 eigenvalue-minimisations  :    76
 total energy-change (2. order) :-0.2623530E-02  (-0.2623521E-02)
 number of electron      17.9999999 magnetization       2.0000000
 augmentation part        6.5970610 magnetization       0.9463495

 Broyden mixing:
  rms(total) = 0.77170E+00    rms(broyden)= 0.77165E+00
  rms(prec ) = 0.82466E+00
  weight for this iteration     100.00

 Free energy of the ion-electron system (eV)
  ---------------------------------------------------
  alpha Z        PSCENC =         0.64027230
  Ewald energy   TEWEN  =       126.18696251
  -Hartree energ DENC   =     -1281.63212630
  -exchange      EXHF   =         0.00000000
  -V(xc)+E(xc)   XCENC  =       -94.95197722
  PAW double counting   =      1257.74681152    -1128.09152451
  entropy T*S    EENTRO =        -0.00000000
  eigenvalues    EBANDS =      -119.50154745
  atomic energy  EATOM  =      1232.83166263
  ---------------------------------------------------
  free energy    TOTEN  =        -6.77146653 eV

  energy without entropy =       -6.77146653  energy(sigma->0) =       -6.77146653


--------------------------------------------------------------------------------------------------------




----------------------------------------- Iteration    1(   9)  ---------------------------------------


    POTLOK:  cpu time    5.02: real time   10.31
    SETDIJ:  cpu time    5.58: real time   11.28
     EDDAV:  cpu time    1.80: real time    3.63
       DOS:  cpu time    0.00: real time    0.00
    CHARGE:  cpu time    3.15: real time    6.43
    MIXING:  cpu time    0.12: real time    0.24
    --------------------------------------------
      LOOP:  cpu time   15.67: real time   31.90

 eigenvalue-minimisations  :    56
 total energy-change (2. order) : 0.2992842E-01  (-0.1636548E-02)
 number of electron      17.9999999 magnetization       2.0000000
 augmentation part        6.6012706 magnetization       0.9505356

 Broyden mixing:
  rms(total) = 0.74321E+00    rms(broyden)= 0.74320E+00
  rms(prec ) = 0.79433E+00
  weight for this iteration     100.00

 eigenvalues of (default mixing * dielectric matrix)
  average eigenvalue GAMMA=  12.9327
 12.9327

 Free energy of the ion-electron system (eV)
  ---------------------------------------------------
  alpha Z        PSCENC =         0.64027230
  Ewald energy   TEWEN  =       126.18696251
  -Hartree energ DENC   =     -1281.94849548
  -exchange      EXHF   =         0.00000000
  -V(xc)+E(xc)   XCENC  =       -94.93283385
  PAW double counting   =      1260.85458369    -1131.20182392
  entropy T*S    EENTRO =        -0.00000000
  eigenvalues    EBANDS =      -119.17186599
  atomic energy  EATOM  =      1232.83166263
  ---------------------------------------------------
  free energy    TOTEN  =        -6.74153811 eV

  energy without entropy =       -6.74153811  energy(sigma->0) =       -6.74153811


--------------------------------------------------------------------------------------------------------




----------------------------------------- Iteration    1(  10)  ---------------------------------------


    POTLOK:  cpu time    5.16: real time   10.40
    SETDIJ:  cpu time    5.08: real time   10.43
     EDDAV:  cpu time    2.19: real time    4.33
       DOS:  cpu time    0.00: real time    0.00
    CHARGE:  cpu time    3.84: real time    7.69
    MIXING:  cpu time    0.16: real time    0.32
    --------------------------------------------
      LOOP:  cpu time   16.44: real time   33.19

 eigenvalue-minimisations  :    56
 total energy-change (2. order) : 0.9396878E+00  (-0.2452841E+00)
 number of electron      17.9999999 magnetization       2.0000178
 augmentation part        6.6407177 magnetization       0.9871059

 Broyden mixing:
  rms(total) = 0.42807E+00    rms(broyden)= 0.42807E+00
  rms(prec ) = 0.44278E+00
  weight for this iteration     100.00

 eigenvalues of (default mixing * dielectric matrix)
  average eigenvalue GAMMA=   6.4008
  0.9589 11.8426

 Free energy of the ion-electron system (eV)
  ---------------------------------------------------
  alpha Z        PSCENC =         0.64027230
  Ewald energy   TEWEN  =       126.18696251
  -Hartree energ DENC   =     -1287.69483233
  -exchange      EXHF   =         0.00000000
  -V(xc)+E(xc)   XCENC  =       -94.44608058
  PAW double counting   =      1316.64463814    -1187.63227431
  entropy T*S    EENTRO =        -0.00000247
  eigenvalues    EBANDS =      -112.33219619
  atomic energy  EATOM  =      1232.83166263
  ---------------------------------------------------
  free energy    TOTEN  =        -5.80185030 eV

  energy without entropy =       -5.80184783  energy(sigma->0) =       -5.80184906


--------------------------------------------------------------------------------------------------------




----------------------------------------- Iteration    1(  11)  ---------------------------------------


    POTLOK:  cpu time    4.90: real time    9.96
    SETDIJ:  cpu time    5.25: real time   10.72
     EDDAV:  cpu time    1.65: real time    3.31
       DOS:  cpu time    0.00: real time    0.00
    CHARGE:  cpu time    3.70: real time    7.47
    MIXING:  cpu time    0.13: real time    0.37
    --------------------------------------------
      LOOP:  cpu time   15.64: real time   31.84

 eigenvalue-minimisations  :    56
 total energy-change (2. order) :-0.4898015E-01  (-0.3553642E-02)
 number of electron      17.9999999 magnetization       2.0567822
 augmentation part        6.6509012 magnetization       1.0050294

 Broyden mixing:
  rms(total) = 0.39834E+00    rms(broyden)= 0.39834E+00
  rms(prec ) = 0.41459E+00
  weight for this iteration     100.00

 eigenvalues of (default mixing * dielectric matrix)
  average eigenvalue GAMMA=   8.8988
 17.4346  0.9722  8.2895

 Free energy of the ion-electron system (eV)
  ---------------------------------------------------
  alpha Z        PSCENC =         0.64027230
  Ewald energy   TEWEN  =       126.18696251
  -Hartree energ DENC   =     -1287.35852446
  -exchange      EXHF   =         0.00000000
  -V(xc)+E(xc)   XCENC  =       -94.50583539
  PAW double counting   =      1315.03254857    -1186.00065490
  entropy T*S    EENTRO =        -0.00040773
  eigenvalues    EBANDS =      -112.67685398
  atomic energy  EATOM  =      1232.83166263
  ---------------------------------------------------
  free energy    TOTEN  =        -5.85083045 eV

  energy without entropy =       -5.85042272  energy(sigma->0) =       -5.85062658


--------------------------------------------------------------------------------------------------------




----------------------------------------- Iteration    1(  12)  ---------------------------------------


    POTLOK:  cpu time    5.30: real time   10.72
    SETDIJ:  cpu time    5.19: real time   10.39
     EDDAV:  cpu time    1.66: real time    3.32
       DOS:  cpu time    0.00: real time    0.00
    CHARGE:  cpu time    4.14: real time    8.25
    MIXING:  cpu time    0.20: real time    0.42
    --------------------------------------------
      LOOP:  cpu time   16.49: real time   33.12

 eigenvalue-minimisations  :    56
 total energy-change (2. order) :-0.9429685E-01  (-0.1617262E+00)
 number of electron      18.0000000 magnetization       2.0518901
 augmentation part        6.6600519 magnetization      -0.0920182

 Broyden mixing:
  rms(total) = 0.71049E+00    rms(broyden)= 0.71043E+00
  rms(prec ) = 0.71307E+00
  weight for this iteration     100.00

 eigenvalues of (default mixing * dielectric matrix)
  average eigenvalue GAMMA=   7.4774
 19.9509  8.8007  0.9919  0.1662

 Free energy of the ion-electron system (eV)
  ---------------------------------------------------
  alpha Z        PSCENC =         0.64027230
  Ewald energy   TEWEN  =       126.18696251
  -Hartree energ DENC   =     -1289.08405320
  -exchange      EXHF   =         0.00000000
  -V(xc)+E(xc)   XCENC  =       -94.48032382
  PAW double counting   =      1347.07065635    -1218.40834131
  entropy T*S    EENTRO =        -0.00295493
  eigenvalues    EBANDS =      -110.69900782
  atomic energy  EATOM  =      1232.83166263
  ---------------------------------------------------
  free energy    TOTEN  =        -5.94512729 eV

  energy without entropy =       -5.94217236  energy(sigma->0) =       -5.94364983


--------------------------------------------------------------------------------------------------------




----------------------------------------- Iteration    1(  13)  ---------------------------------------


    POTLOK:  cpu time    5.33: real time   10.74
    SETDIJ:  cpu time    4.82: real time    9.81
     EDDAV:  cpu time    2.15: real time    4.31
       DOS:  cpu time    0.00: real time    0.00
    CHARGE:  cpu time    3.93: real time    7.87
    MIXING:  cpu time    0.38: real time    0.77
    --------------------------------------------
      LOOP:  cpu time   16.62: real time   33.51

 eigenvalue-minimisations  :    64
 total energy-change (2. order) :-0.6111470E-02  (-0.1448789E-02)
 number of electron      18.0000000 magnetization       1.9918728
 augmentation part        6.6542348 magnetization      -0.1459068

 Broyden mixing:
  rms(total) = 0.71655E+00    rms(broyden)= 0.71655E+00
  rms(prec ) = 0.71936E+00
  weight for this iteration     100.00

 eigenvalues of (default mixing * dielectric matrix)
  average eigenvalue GAMMA=   6.1260
 20.1491  8.7767  0.9939  0.4776  0.2330

 Free energy of the ion-electron system (eV)
  ---------------------------------------------------
  alpha Z        PSCENC =         0.64027230
  Ewald energy   TEWEN  =       126.18696251
  -Hartree energ DENC   =     -1289.12392271
  -exchange      EXHF   =         0.00000000
  -V(xc)+E(xc)   XCENC  =       -94.46794190
  PAW double counting   =      1347.64358849    -1219.02200779
  entropy T*S    EENTRO =        -0.00282063
  eigenvalues    EBANDS =      -110.63703167
  atomic energy  EATOM  =      1232.83166263
  ---------------------------------------------------
  free energy    TOTEN  =        -5.95123876 eV

  energy without entropy =       -5.94841813  energy(sigma->0) =       -5.94982845


--------------------------------------------------------------------------------------------------------




----------------------------------------- Iteration    1(  14)  ---------------------------------------


    POTLOK:  cpu time    5.23: real time   10.46
    SETDIJ:  cpu time    4.75: real time    9.52
     EDDAV:  cpu time    2.11: real time    4.22
       DOS:  cpu time    0.00: real time    0.01
    CHARGE:  cpu time    3.81: real time    7.61
    MIXING:  cpu time    0.20: real time    0.41
    --------------------------------------------
      LOOP:  cpu time   16.10: real time   32.25

 eigenvalue-minimisations  :    56
 total energy-change (2. order) : 0.2331853E-01  (-0.2409890E-03)
 number of electron      18.0000000 magnetization       2.0062897
 augmentation part        6.6567266 magnetization      -0.1308120

 Broyden mixing:
  rms(total) = 0.73828E+00    rms(broyden)= 0.73828E+00
  rms(prec ) = 0.74151E+00
  weight for this iteration     100.00

 eigenvalues of (default mixing * dielectric matrix)
  average eigenvalue GAMMA=   5.2049
 20.2165  8.7624  0.9951  0.3730  0.4412  0.4412

 Free energy of the ion-electron system (eV)
  ---------------------------------------------------
  alpha Z        PSCENC =         0.64027230
  Ewald energy   TEWEN  =       126.18696251
  -Hartree energ DENC   =     -1289.14023854
  -exchange      EXHF   =         0.00000000
  -V(xc)+E(xc)   XCENC  =       -94.46498748
  PAW double counting   =      1348.92935407    -1220.32811208
  entropy T*S    EENTRO =        -0.00247213
  eigenvalues    EBANDS =      -110.58036152
  atomic energy  EATOM  =      1232.83166263
  ---------------------------------------------------
  free energy    TOTEN  =        -5.92792023 eV

  energy without entropy =       -5.92544810  energy(sigma->0) =       -5.92668417


--------------------------------------------------------------------------------------------------------




----------------------------------------- Iteration    1(  15)  ---------------------------------------


    POTLOK:  cpu time    5.16: real time   10.45
    SETDIJ:  cpu time    4.88: real time    9.79
     EDDAV:  cpu time    2.36: real time    4.74
       DOS:  cpu time    0.00: real time    0.00
    CHARGE:  cpu time    4.78: real time    9.64
    MIXING:  cpu time    0.28: real time    0.59
    --------------------------------------------
      LOOP:  cpu time   17.45: real time   35.22

 eigenvalue-minimisations  :    56
 total energy-change (2. order) :-0.1043850E-01  (-0.1486432E-02)
 number of electron      18.0000000 magnetization       3.0308875
 augmentation part        6.6567066 magnetization       0.8940760

 Broyden mixing:
  rms(total) = 0.73351E+00    rms(broyden)= 0.73351E+00
  rms(prec ) = 0.73680E+00
  weight for this iteration     100.00

 eigenvalues of (default mixing * dielectric matrix)
  average eigenvalue GAMMA=   4.7617
 17.7338  8.0200  2.7574  2.7574  1.0093  0.7231  0.3306

 Free energy of the ion-electron system (eV)
  ---------------------------------------------------
  alpha Z        PSCENC =         0.64027230
  Ewald energy   TEWEN  =       126.18696251
  -Hartree energ DENC   =     -1289.19755044
  -exchange      EXHF   =         0.00000000
  -V(xc)+E(xc)   XCENC  =       -94.46275643
  PAW double counting   =      1349.43939394    -1220.84310162
  entropy T*S    EENTRO =        -0.00251722
  eigenvalues    EBANDS =      -110.53072439
  atomic energy  EATOM  =      1232.83166263
  ---------------------------------------------------
  free energy    TOTEN  =        -5.93835873 eV

  energy without entropy =       -5.93584151  energy(sigma->0) =       -5.93710012


--------------------------------------------------------------------------------------------------------




----------------------------------------- Iteration    1(  16)  ---------------------------------------


    POTLOK:  cpu time    5.19: real time   10.38
    SETDIJ:  cpu time    4.71: real time    9.45
     EDDAV:  cpu time    2.19: real time    4.40
       DOS:  cpu time    0.00: real time    0.00
    CHARGE:  cpu time    4.04: real time    8.09
    MIXING:  cpu time    0.24: real time    0.48
    --------------------------------------------
      LOOP:  cpu time   16.38: real time   32.81

 eigenvalue-minimisations  :    56
 total energy-change (2. order) :-0.2667259E+00  (-0.8846000E-02)
 number of electron      18.0000000 magnetization       3.0714926
 augmentation part        6.6316925 magnetization       0.9348730

 Broyden mixing:
  rms(total) = 0.47198E+00    rms(broyden)= 0.47198E+00
  rms(prec ) = 0.47539E+00
  weight for this iteration     100.00

 eigenvalues of (default mixing * dielectric matrix)
  average eigenvalue GAMMA=   5.9730
 28.3708 10.2608  2.9209  2.9209  1.0616  1.0616  0.8530  0.3345

 Free energy of the ion-electron system (eV)
  ---------------------------------------------------
  alpha Z        PSCENC =         0.64027230
  Ewald energy   TEWEN  =       126.18696251
  -Hartree energ DENC   =     -1290.61912835
  -exchange      EXHF   =         0.00000000
  -V(xc)+E(xc)   XCENC  =       -94.23152716
  PAW double counting   =      1349.37736669    -1220.70125555
  entropy T*S    EENTRO =        -0.00242318
  eigenvalues    EBANDS =      -109.68701455
  atomic energy  EATOM  =      1232.83166263
  ---------------------------------------------------
  free energy    TOTEN  =        -6.20508466 eV

  energy without entropy =       -6.20266148  energy(sigma->0) =       -6.20387307


--------------------------------------------------------------------------------------------------------




----------------------------------------- Iteration    1(  17)  ---------------------------------------


    POTLOK:  cpu time    4.58: real time    9.10
    SETDIJ:  cpu time    4.77: real time    9.60
     EDDAV:  cpu time    2.65: real time    5.32
       DOS:  cpu time    0.00: real time    0.00
    CHARGE:  cpu time    4.09: real time    8.22
    MIXING:  cpu time    0.28: real time    0.57
    --------------------------------------------
      LOOP:  cpu time   16.37: real time   32.83

 eigenvalue-minimisations  :    56
 total energy-change (2. order) :-0.6981948E-01  (-0.3309265E-02)
 number of electron      18.0000000 magnetization       2.9684948
 augmentation part        6.6390260 magnetization       0.8332870

 Broyden mixing:
  rms(total) = 0.45279E+00    rms(broyden)= 0.45278E+00
  rms(prec ) = 0.45788E+00
  weight for this iteration     100.00

 eigenvalues of (default mixing * dielectric matrix)
  average eigenvalue GAMMA=   6.2250
 31.8166 10.6307  4.1062  4.1062  2.0816  1.1438  0.9880  0.8180  0.3343

 Free energy of the ion-electron system (eV)
  ---------------------------------------------------
  alpha Z        PSCENC =         0.64027230
  Ewald energy   TEWEN  =       126.18696251
  -Hartree energ DENC   =     -1291.16753399
  -exchange      EXHF   =         0.00000000
  -V(xc)+E(xc)   XCENC  =       -94.20606152
  PAW double counting   =      1360.74732086    -1232.19864408
  entropy T*S    EENTRO =        -0.00282076
  eigenvalues    EBANDS =      -109.10606209
  atomic energy  EATOM  =      1232.83166263
  ---------------------------------------------------
  free energy    TOTEN  =        -6.27490415 eV

  energy without entropy =       -6.27208339  energy(sigma->0) =       -6.27349377


--------------------------------------------------------------------------------------------------------




----------------------------------------- Iteration    1(  18)  ---------------------------------------


    POTLOK:  cpu time    4.59: real time    9.32
    SETDIJ:  cpu time    5.18: real time   10.43
     EDDAV:  cpu time    2.99: real time    5.84
       DOS:  cpu time    0.00: real time    0.00
    CHARGE:  cpu time    4.38: real time    8.98
    MIXING:  cpu time    0.22: real time    0.45
    --------------------------------------------
      LOOP:  cpu time   17.36: real time   35.04

 eigenvalue-minimisations  :    64
 total energy-change (2. order) :-0.4047403E-01  (-0.2160901E-02)
 number of electron      18.0000000 magnetization       3.0382720
 augmentation part        6.6520935 magnetization       0.9095143

 Broyden mixing:
  rms(total) = 0.47632E+00    rms(broyden)= 0.47632E+00
  rms(prec ) = 0.48315E+00
  weight for this iteration     100.00

 eigenvalues of (default mixing * dielectric matrix)
  average eigenvalue GAMMA=   6.2777
 33.2101  9.8881  7.5904  3.9944  3.9944  1.1250  0.9703  0.8533  0.8164  0.3343

 Free energy of the ion-electron system (eV)
  ---------------------------------------------------
  alpha Z        PSCENC =         0.64027230
  Ewald energy   TEWEN  =       126.18696251
  -Hartree energ DENC   =     -1290.94055740
  -exchange      EXHF   =         0.00000000
  -V(xc)+E(xc)   XCENC  =       -94.22107625
  PAW double counting   =      1371.37734615    -1242.95355354
  entropy T*S    EENTRO =        -0.00223951
  eigenvalues    EBANDS =      -109.23419506
  atomic energy  EATOM  =      1232.83166263
  ---------------------------------------------------
  free energy    TOTEN  =        -6.31537817 eV

  energy without entropy =       -6.31313866  energy(sigma->0) =       -6.31425842


--------------------------------------------------------------------------------------------------------




----------------------------------------- Iteration    1(  19)  ---------------------------------------


    POTLOK:  cpu time    4.29: real time    8.78
    SETDIJ:  cpu time    5.46: real time   10.72
     EDDAV:  cpu time    2.57: real time    5.15
       DOS:  cpu time    0.00: real time    0.00
    CHARGE:  cpu time    4.06: real time    8.07
    MIXING:  cpu time    0.23: real time    0.46
    --------------------------------------------
      LOOP:  cpu time   16.62: real time   33.18

 eigenvalue-minimisations  :    56
 total energy-change (2. order) : 0.2380122E-01  (-0.7676102E-02)
 number of electron      18.0000000 magnetization       3.0830905
 augmentation part        6.6663605 magnetization       0.9752560

 Broyden mixing:
  rms(total) = 0.35930E+00    rms(broyden)= 0.35930E+00
  rms(prec ) = 0.36306E+00
  weight for this iteration     100.00

 eigenvalues of (default mixing * dielectric matrix)
  average eigenvalue GAMMA=   5.8755
 33.9736  9.6979  6.8000  3.9996  3.9996  1.4149  1.4149  1.1872  0.8226  0.9858
  0.3343

 Free energy of the ion-electron system (eV)
  ---------------------------------------------------
  alpha Z        PSCENC =         0.64027230
  Ewald energy   TEWEN  =       126.18696251
  -Hartree energ DENC   =     -1289.03429720
  -exchange      EXHF   =         0.00000000
  -V(xc)+E(xc)   XCENC  =       -94.18478801
  PAW double counting   =      1380.65080806    -1252.30296875
  entropy T*S    EENTRO =        -0.00264796
  eigenvalues    EBANDS =      -111.07658054
  atomic energy  EATOM  =      1232.83166263
  ---------------------------------------------------
  free energy    TOTEN  =        -6.29157695 eV

  energy without entropy =       -6.28892900  energy(sigma->0) =       -6.29025297


--------------------------------------------------------------------------------------------------------




----------------------------------------- Iteration    1(  20)  ---------------------------------------


    POTLOK:  cpu time    4.82: real time    9.79
    SETDIJ:  cpu time    5.65: real time   11.29
     EDDAV:  cpu time    2.63: real time    5.79
       DOS:  cpu time    0.00: real time    0.00
    CHARGE:  cpu time    3.33: real time    6.68
    MIXING:  cpu time    0.34: real time    0.67
    --------------------------------------------
      LOOP:  cpu time   16.76: real time   34.23

 eigenvalue-minimisations  :    64
 total energy-change (2. order) :-0.4074899E-02  (-0.3700224E-03)
 number of electron      18.0000000 magnetization       3.3504880
 augmentation part        6.6727862 magnetization       1.2477312

 Broyden mixing:
  rms(total) = 0.34612E+00    rms(broyden)= 0.34612E+00
  rms(prec ) = 0.34993E+00
  weight for this iteration     100.00

 eigenvalues of (default mixing * dielectric matrix)
  average eigenvalue GAMMA=   7.0703
 37.0731 12.7751 12.7751 10.5920  3.1624  3.1624  0.3343  1.1169  1.1169  0.8213
  0.9573  0.9573

 Free energy of the ion-electron system (eV)
  ---------------------------------------------------
  alpha Z        PSCENC =         0.64027230
  Ewald energy   TEWEN  =       126.18696251
  -Hartree energ DENC   =     -1288.73212117
  -exchange      EXHF   =         0.00000000
  -V(xc)+E(xc)   XCENC  =       -94.16933672
  PAW double counting   =      1385.15743043    -1256.86260984
  entropy T*S    EENTRO =        -0.00246507
  eigenvalues    EBANDS =      -111.34544692
  atomic energy  EATOM  =      1232.83166263
  ---------------------------------------------------
  free energy    TOTEN  =        -6.29565185 eV

  energy without entropy =       -6.29318678  energy(sigma->0) =       -6.29441932


--------------------------------------------------------------------------------------------------------




----------------------------------------- Iteration    1(  21)  ---------------------------------------


    POTLOK:  cpu time    5.06: real time   10.45
    SETDIJ:  cpu time    5.26: real time   10.56
     EDDAV:  cpu time    2.13: real time    4.26
       DOS:  cpu time    0.00: real time    0.01
    CHARGE:  cpu time    3.49: real time    6.99
    MIXING:  cpu time    0.36: real time    0.72
    --------------------------------------------
      LOOP:  cpu time   16.30: real time   33.00

 eigenvalue-minimisations  :    56
 total energy-change (2. order) :-0.8777583E-02  (-0.5218992E-02)
 number of electron      18.0000000 magnetization       3.5654303
 augmentation part        6.6779177 magnetization       1.4651234

 Broyden mixing:
  rms(total) = 0.30150E+00    rms(broyden)= 0.30144E+00
  rms(prec ) = 0.30516E+00
  weight for this iteration     100.00

 eigenvalues of (default mixing * dielectric matrix)
  average eigenvalue GAMMA=   6.9857
 32.7950 19.0256 12.6806 12.6806  3.2184  3.2184  1.9316  0.3343  0.8214  1.1307
  0.9971  0.9971  0.9836

 Free energy of the ion-electron system (eV)
  ---------------------------------------------------
  alpha Z        PSCENC =         0.64027230
  Ewald energy   TEWEN  =       126.18696251
  -Hartree energ DENC   =     -1287.84642217
  -exchange      EXHF   =         0.00000000
  -V(xc)+E(xc)   XCENC  =       -94.11946570
  PAW double counting   =      1394.10905659    -1265.93080069
  entropy T*S    EENTRO =        -0.00121438
  eigenvalues    EBANDS =      -112.17448052
  atomic energy  EATOM  =      1232.83166263
  ---------------------------------------------------
  free energy    TOTEN  =        -6.30442944 eV

  energy without entropy =       -6.30321505  energy(sigma->0) =       -6.30382224


--------------------------------------------------------------------------------------------------------




----------------------------------------- Iteration    1(  22)  ---------------------------------------


    POTLOK:  cpu time    4.87: real time    9.86
    SETDIJ:  cpu time    5.46: real time   11.09
     EDDAV:  cpu time    1.49: real time    3.01
       DOS:  cpu time    0.00: real time    0.00
    CHARGE:  cpu time    3.33: real time    6.69
    MIXING:  cpu time    0.44: real time    0.89
    --------------------------------------------
      LOOP:  cpu time   15.59: real time   31.54

 eigenvalue-minimisations  :    56
 total energy-change (2. order) : 0.3618126E-03  (-0.1462768E-01)
 number of electron      18.0000000 magnetization       3.6090241
 augmentation part        6.6720303 magnetization       1.5056669

 Broyden mixing:
  rms(total) = 0.28321E+00    rms(broyden)= 0.28310E+00
  rms(prec ) = 0.28672E+00
  weight for this iteration     100.00

 eigenvalues of (default mixing * dielectric matrix)
  average eigenvalue GAMMA=   7.4947
 36.0239 19.0263 19.0263 11.0161  7.1399  3.2611  3.2611  0.3343  0.8218  1.0762
  1.0379  0.9944  0.9944  0.9120

 Free energy of the ion-electron system (eV)
  ---------------------------------------------------
  alpha Z        PSCENC =         0.64027230
  Ewald energy   TEWEN  =       126.18696251
  -Hartree energ DENC   =     -1287.69598057
  -exchange      EXHF   =         0.00000000
  -V(xc)+E(xc)   XCENC  =       -94.07863393
  PAW double counting   =      1392.63242768    -1264.44985794
  entropy T*S    EENTRO =        -0.00032425
  eigenvalues    EBANDS =      -112.37059605
  atomic energy  EATOM  =      1232.83166263
  ---------------------------------------------------
  free energy    TOTEN  =        -6.30406762 eV

  energy without entropy =       -6.30374337  energy(sigma->0) =       -6.30390550


--------------------------------------------------------------------------------------------------------




----------------------------------------- Iteration    1(  23)  ---------------------------------------


    POTLOK:  cpu time    4.97: real time   10.18
    SETDIJ:  cpu time    5.31: real time   10.65
     EDDAV:  cpu time    1.93: real time    3.88
       DOS:  cpu time    0.00: real time    0.00
    CHARGE:  cpu time    3.91: real time    8.10
    MIXING:  cpu time    0.45: real time    0.91
    --------------------------------------------
      LOOP:  cpu time   16.58: real time   33.73

 eigenvalue-minimisations  :    56
 total energy-change (2. order) :-0.5025251E-02  (-0.2529820E-02)
 number of electron      18.0000000 magnetization       3.6603777
 augmentation part        6.6710781 magnetization       1.5554499

 Broyden mixing:
  rms(total) = 0.25505E+00    rms(broyden)= 0.25504E+00
  rms(prec ) = 0.25835E+00
  weight for this iteration     100.00

 eigenvalues of (default mixing * dielectric matrix)
  average eigenvalue GAMMA=   7.0470
 36.0189 19.2214 19.2214 11.0126  7.3733  3.2619  3.2619  0.3343  0.8219  1.0818
  1.0062  1.0062  1.0138  0.9040  0.1654

 Free energy of the ion-electron system (eV)
  ---------------------------------------------------
  alpha Z        PSCENC =         0.64027230
  Ewald energy   TEWEN  =       126.18696251
  -Hartree energ DENC   =     -1287.86507726
  -exchange      EXHF   =         0.00000000
  -V(xc)+E(xc)   XCENC  =       -94.06568103
  PAW double counting   =      1393.42616389    -1265.26476415
  entropy T*S    EENTRO =        -0.00091450
  eigenvalues    EBANDS =      -112.19771726
  atomic energy  EATOM  =      1232.83166263
  ---------------------------------------------------
  free energy    TOTEN  =        -6.30909287 eV

  energy without entropy =       -6.30817837  energy(sigma->0) =       -6.30863562


--------------------------------------------------------------------------------------------------------




----------------------------------------- Iteration    1(  24)  ---------------------------------------


    POTLOK:  cpu time    5.19: real time   10.53
    SETDIJ:  cpu time    4.91: real time   10.14
     EDDAV:  cpu time    1.90: real time    3.80
       DOS:  cpu time    0.00: real time    0.00
    CHARGE:  cpu time    3.90: real time    7.80
    MIXING:  cpu time    0.57: real time    1.14
    --------------------------------------------
      LOOP:  cpu time   16.47: real time   33.41

 eigenvalue-minimisations  :    56
 total energy-change (2. order) :-0.4127483E-02  (-0.1059111E-03)
 number of electron      18.0000000 magnetization       3.8194847
 augmentation part        6.6694228 magnetization       1.7137356

 Broyden mixing:
  rms(total) = 0.26246E+00    rms(broyden)= 0.26246E+00
  rms(prec ) = 0.26627E+00
  weight for this iteration     100.00

 eigenvalues of (default mixing * dielectric matrix)
  average eigenvalue GAMMA=   7.5758
 39.1690 23.4209 23.4209 10.9028  9.1977  3.2619  3.2619  0.3343  1.2513  1.2513
  1.0830  1.0437  0.9788  0.9788  0.8239  0.8331

 Free energy of the ion-electron system (eV)
  ---------------------------------------------------
  alpha Z        PSCENC =         0.64027230
  Ewald energy   TEWEN  =       126.18696251
  -Hartree energ DENC   =     -1287.97828405
  -exchange      EXHF   =         0.00000000
  -V(xc)+E(xc)   XCENC  =       -94.04585862
  PAW double counting   =      1394.96043921    -1266.83373486
  entropy T*S    EENTRO =        -0.00000263
  eigenvalues    EBANDS =      -112.07467684
  atomic energy  EATOM  =      1232.83166263
  ---------------------------------------------------
  free energy    TOTEN  =        -6.31322036 eV

  energy without entropy =       -6.31321773  energy(sigma->0) =       -6.31321904


--------------------------------------------------------------------------------------------------------




----------------------------------------- Iteration    1(  25)  ---------------------------------------


    POTLOK:  cpu time    5.45: real time   10.99
    SETDIJ:  cpu time    4.75: real time    9.81
     EDDAV:  cpu time    2.25: real time    4.51
       DOS:  cpu time    0.00: real time    0.00
    CHARGE:  cpu time    3.87: real time    7.72
    MIXING:  cpu time    0.51: real time    1.04
    --------------------------------------------
      LOOP:  cpu time   16.84: real time   34.08

 eigenvalue-minimisations  :    62
 total energy-change (2. order) :-0.3941774E-02  (-0.3700271E-03)
 number of electron      18.0000000 magnetization       3.9186983
 augmentation part        6.6673719 magnetization       1.8132888

 Broyden mixing:
  rms(total) = 0.22756E+00    rms(broyden)= 0.22756E+00
  rms(prec ) = 0.23137E+00
  weight for this iteration     100.00

 eigenvalues of (default mixing * dielectric matrix)
  average eigenvalue GAMMA=   7.8575
 40.3801 26.0339 26.0339 10.2118  9.8051  6.4136  3.2572  3.2572  0.3343  1.1541
  1.0600  1.0600  0.9975  0.9975  0.8215  0.8796  0.8796

 Free energy of the ion-electron system (eV)
  ---------------------------------------------------
  alpha Z        PSCENC =         0.64027230
  Ewald energy   TEWEN  =       126.18696251
  -Hartree energ DENC   =     -1287.96100545
  -exchange      EXHF   =         0.00000000
  -V(xc)+E(xc)   XCENC  =       -93.98593268
  PAW double counting   =      1399.61176978    -1271.57948012
  entropy T*S    EENTRO =        -0.00000002
  eigenvalues    EBANDS =      -112.06141108
  atomic energy  EATOM  =      1232.83166263
  ---------------------------------------------------
  free energy    TOTEN  =        -6.31716213 eV

  energy without entropy =       -6.31716211  energy(sigma->0) =       -6.31716212


--------------------------------------------------------------------------------------------------------




----------------------------------------- Iteration    1(  26)  ---------------------------------------


    POTLOK:  cpu time    4.99: real time    9.95
    SETDIJ:  cpu time    4.65: real time    9.32
     EDDAV:  cpu time    2.23: real time    4.49
       DOS:  cpu time    0.00: real time    0.01
    CHARGE:  cpu time    4.53: real time    9.16
    MIXING:  cpu time    0.65: real time    1.31
    --------------------------------------------
      LOOP:  cpu time   17.04: real time   34.24

 eigenvalue-minimisations  :    56
 total energy-change (2. order) : 0.1481665E-01  (-0.2213111E-03)
 number of electron      18.0000000 magnetization       3.9340040
 augmentation part        6.6658871 magnetization       1.8304770

 Broyden mixing:
  rms(total) = 0.59775E-01    rms(broyden)= 0.59638E-01
  rms(prec ) = 0.60378E-01
  weight for this iteration     100.00

 eigenvalues of (default mixing * dielectric matrix)
  average eigenvalue GAMMA=   7.6625
 35.4861 35.4861 23.0729 10.6876  8.3596  8.3596  3.2561  3.2561  0.3343  1.8172
  1.0717  1.0717  1.0044  1.0044  0.8216  0.9891  0.9233  0.9233

 Free energy of the ion-electron system (eV)
  ---------------------------------------------------
  alpha Z        PSCENC =         0.64027230
  Ewald energy   TEWEN  =       126.18696251
  -Hartree energ DENC   =     -1287.90917991
  -exchange      EXHF   =         0.00000000
  -V(xc)+E(xc)   XCENC  =       -93.94389081
  PAW double counting   =      1401.78854691    -1273.81268227
  entropy T*S    EENTRO =        -0.00272933
  eigenvalues    EBANDS =      -112.08130750
  atomic energy  EATOM  =      1232.83166263
  ---------------------------------------------------
  free energy    TOTEN  =        -6.30234548 eV

  energy without entropy =       -6.29961615  energy(sigma->0) =       -6.30098081


--------------------------------------------------------------------------------------------------------




----------------------------------------- Iteration    1(  27)  ---------------------------------------


    POTLOK:  cpu time    5.25: real time   10.67
    SETDIJ:  cpu time    4.76: real time    9.49
     EDDAV:  cpu time    2.40: real time    4.81
       DOS:  cpu time    0.00: real time    0.00
    CHARGE:  cpu time    4.22: real time    8.44
    MIXING:  cpu time    0.47: real time    0.95
    --------------------------------------------
      LOOP:  cpu time   17.10: real time   34.37

 eigenvalue-minimisations  :    56
 total energy-change (2. order) :-0.6521082E-02  (-0.5969721E-03)
 number of electron      18.0000000 magnetization       3.9721186
 augmentation part        6.6653667 magnetization       1.8688434

 Broyden mixing:
  rms(total) = 0.38403E-01    rms(broyden)= 0.38371E-01
  rms(prec ) = 0.38793E-01
  weight for this iteration     100.00

 eigenvalues of (default mixing * dielectric matrix)
  average eigenvalue GAMMA=   7.7716
 38.8836 38.8836 21.4885 10.8819  9.3980  9.3980  3.2560  3.2560  3.3614  0.3343
  1.0916  1.0097  1.0097  1.0266  1.0266  0.8217  0.9084  0.9084  0.7162

 Free energy of the ion-electron system (eV)
  ---------------------------------------------------
  alpha Z        PSCENC =         0.64027230
  Ewald energy   TEWEN  =       126.18696251
  -Hartree energ DENC   =     -1287.97210921
  -exchange      EXHF   =         0.00000000
  -V(xc)+E(xc)   XCENC  =       -93.94105529
  PAW double counting   =      1401.90232288    -1273.93914988
  entropy T*S    EENTRO =        -0.00281295
  eigenvalues    EBANDS =      -112.01495954
  atomic energy  EATOM  =      1232.83166263
  ---------------------------------------------------
  free energy    TOTEN  =        -6.30886656 eV

  energy without entropy =       -6.30605361  energy(sigma->0) =       -6.30746008


--------------------------------------------------------------------------------------------------------




----------------------------------------- Iteration    1(  28)  ---------------------------------------


    POTLOK:  cpu time    4.80: real time    9.62
    SETDIJ:  cpu time    4.72: real time    9.55
     EDDAV:  cpu time    2.89: real time    5.78
       DOS:  cpu time    0.00: real time    0.00
    CHARGE:  cpu time    4.60: real time    9.41
    MIXING:  cpu time    0.60: real time    1.22
    --------------------------------------------
      LOOP:  cpu time   17.62: real time   35.60

 eigenvalue-minimisations  :    64
 total energy-change (2. order) :-0.1749254E-02  (-0.7828179E-04)
 number of electron      18.0000000 magnetization       4.0315506
 augmentation part        6.6642587 magnetization       1.9287522

 Broyden mixing:
  rms(total) = 0.21536E-01    rms(broyden)= 0.21526E-01
  rms(prec ) = 0.21918E-01
  weight for this iteration     100.00

 eigenvalues of (default mixing * dielectric matrix)
  average eigenvalue GAMMA=   8.2437
 44.9392 44.9392 20.0373 11.7196 11.7196 10.3980  4.6147  3.2566  3.2566  0.3343
  1.1051  0.8216  0.9308  0.9308  1.0367  1.0367  0.9984  0.9984  0.9000  0.9000

 Free energy of the ion-electron system (eV)
  ---------------------------------------------------
  alpha Z        PSCENC =         0.64027230
  Ewald energy   TEWEN  =       126.18696251
  -Hartree energ DENC   =     -1287.96352522
  -exchange      EXHF   =         0.00000000
  -V(xc)+E(xc)   XCENC  =       -93.92638541
  PAW double counting   =      1402.14869549    -1274.20558657
  entropy T*S    EENTRO =        -0.00282094
  eigenvalues    EBANDS =      -112.01989060
  atomic energy  EATOM  =      1232.83166263
  ---------------------------------------------------
  free energy    TOTEN  =        -6.31061582 eV

  energy without entropy =       -6.30779487  energy(sigma->0) =       -6.30920534


--------------------------------------------------------------------------------------------------------




----------------------------------------- Iteration    1(  29)  ---------------------------------------


    POTLOK:  cpu time    4.77: real time    9.67
    SETDIJ:  cpu time    5.03: real time   10.17
     EDDAV:  cpu time    2.54: real time    5.21
       DOS:  cpu time    0.00: real time    0.00
    CHARGE:  cpu time    4.10: real time    8.25
    MIXING:  cpu time    0.46: real time    0.91
    --------------------------------------------
      LOOP:  cpu time   16.90: real time   34.21

 eigenvalue-minimisations  :    56
 total energy-change (2. order) :-0.1383314E-02  (-0.1000688E-03)
 number of electron      18.0000000 magnetization       4.0283734
 augmentation part        6.6641455 magnetization       1.9275216

 Broyden mixing:
  rms(total) = 0.15062E+00    rms(broyden)= 0.15059E+00
  rms(prec ) = 0.15310E+00
  weight for this iteration     100.00

 eigenvalues of (default mixing * dielectric matrix)
  average eigenvalue GAMMA=   7.9235
 44.7982 44.7982 19.7997 11.5422 11.5422 10.1832  5.7207  3.2566  3.2566  0.3343
  1.1530  1.1530  1.2227  1.0789  1.0789  0.8216  0.9762  0.9762  0.9527  0.8744
  0.8744

 Free energy of the ion-electron system (eV)
  ---------------------------------------------------
  alpha Z        PSCENC =         0.64027230
  Ewald energy   TEWEN  =       126.18696251
  -Hartree energ DENC   =     -1287.84880094
  -exchange      EXHF   =         0.00000000
  -V(xc)+E(xc)   XCENC  =       -93.89921804
  PAW double counting   =      1402.74472668    -1274.83940415
  entropy T*S    EENTRO =        -0.00171909
  eigenvalues    EBANDS =      -112.12648102
  atomic energy  EATOM  =      1232.83166263
  ---------------------------------------------------
  free energy    TOTEN  =        -6.31199913 eV

  energy without entropy =       -6.31028004  energy(sigma->0) =       -6.31113959


--------------------------------------------------------------------------------------------------------




----------------------------------------- Iteration    1(  30)  ---------------------------------------


    POTLOK:  cpu time    4.38: real time    8.80
    SETDIJ:  cpu time    5.29: real time   10.59
     EDDAV:  cpu time    2.44: real time    4.92
       DOS:  cpu time    0.00: real time    0.00
    CHARGE:  cpu time    3.84: real time    7.68
    MIXING:  cpu time    0.48: real time    0.97
    --------------------------------------------
      LOOP:  cpu time   16.43: real time   32.97

 eigenvalue-minimisations  :    56
 total energy-change (2. order) : 0.2996965E-02  (-0.3893795E-03)
 number of electron      18.0000000 magnetization       4.0268086
 augmentation part        6.6643286 magnetization       1.9259731

 Broyden mixing:
  rms(total) = 0.65014E-01    rms(broyden)= 0.65002E-01
  rms(prec ) = 0.66116E-01
  weight for this iteration     100.00

 eigenvalues of (default mixing * dielectric matrix)
  average eigenvalue GAMMA=   8.1162
 49.0638 44.4043 19.0772 14.3407 11.5550  9.8344  9.8344  3.2565  3.2565  2.8336
  0.3343  1.0708  1.0708  1.1196  1.1196  1.0230  1.0230  0.9365  0.9365  0.8215
  0.8542  0.7903

 Free energy of the ion-electron system (eV)
  ---------------------------------------------------
  alpha Z        PSCENC =         0.64027230
  Ewald energy   TEWEN  =       126.18696251
  -Hartree energ DENC   =     -1287.83663195
  -exchange      EXHF   =         0.00000000
  -V(xc)+E(xc)   XCENC  =       -93.89851439
  PAW double counting   =      1402.60998379    -1274.70232774
  entropy T*S    EENTRO =        -0.00261595
  eigenvalues    EBANDS =      -112.13779335
  atomic energy  EATOM  =      1232.83166263
  ---------------------------------------------------
  free energy    TOTEN  =        -6.30900216 eV

  energy without entropy =       -6.30638621  energy(sigma->0) =       -6.30769419


--------------------------------------------------------------------------------------------------------




----------------------------------------- Iteration    1(  31)  ---------------------------------------


    POTLOK:  cpu time    4.86: real time    9.75
    SETDIJ:  cpu time    5.45: real time   10.96
     EDDAV:  cpu time    2.61: real time    5.24
       DOS:  cpu time    0.00: real time    0.00
    CHARGE:  cpu time    3.27: real time    6.56
    MIXING:  cpu time    0.67: real time    1.35
    --------------------------------------------
      LOOP:  cpu time   16.88: real time   33.88

 eigenvalue-minimisations  :    56
 total energy-change (2. order) :-0.1214422E-02  (-0.1195512E-03)
 number of electron      18.0000000 magnetization       4.0334379
 augmentation part        6.6651765 magnetization       1.9329817

 Broyden mixing:
  rms(total) = 0.15317E+00    rms(broyden)= 0.15316E+00
  rms(prec ) = 0.15570E+00
  weight for this iteration     100.00

 eigenvalues of (default mixing * dielectric matrix)
  average eigenvalue GAMMA=   8.3576
 56.2199 43.8359 21.6453 16.6061 11.2884 11.2884 10.1334  3.2565  3.2565  3.0329
  0.3343  1.1207  1.1207  1.0858  1.0858  1.0024  1.0024  0.9347  0.9347  0.8216
  0.8537  0.8537  0.5106

 Free energy of the ion-electron system (eV)
  ---------------------------------------------------
  alpha Z        PSCENC =         0.64027230
  Ewald energy   TEWEN  =       126.18696251
  -Hartree energ DENC   =     -1287.77001148
  -exchange      EXHF   =         0.00000000
  -V(xc)+E(xc)   XCENC  =       -93.90044640
  PAW double counting   =      1402.84698887    -1274.94682566
  entropy T*S    EENTRO =        -0.00168985
  eigenvalues    EBANDS =      -112.19712950
  atomic energy  EATOM  =      1232.83166263
  ---------------------------------------------------
  free energy    TOTEN  =        -6.31021659 eV

  energy without entropy =       -6.30852673  energy(sigma->0) =       -6.30937166


--------------------------------------------------------------------------------------------------------




----------------------------------------- Iteration    1(  32)  ---------------------------------------


    POTLOK:  cpu time    5.11: real time   10.37
    SETDIJ:  cpu time    5.52: real time   10.97
     EDDAV:  cpu time    2.26: real time    4.53
       DOS:  cpu time    0.00: real time    0.00
    CHARGE:  cpu time    4.43: real time    8.91
    MIXING:  cpu time    0.57: real time    1.16
    --------------------------------------------
      LOOP:  cpu time   17.90: real time   35.95

 eigenvalue-minimisations  :    56
 total energy-change (2. order) : 0.3324719E-02  (-0.1295228E-03)
 number of electron      18.0000000 magnetization       4.0343729
 augmentation part        6.6655055 magnetization       1.9342711

 Broyden mixing:
  rms(total) = 0.48429E-01    rms(broyden)= 0.48385E-01
  rms(prec ) = 0.49188E-01
  weight for this iteration     100.00

 eigenvalues of (default mixing * dielectric matrix)
  average eigenvalue GAMMA=   8.2568
 55.3193 45.8327 23.4254 17.4466 11.4186 11.4186 10.2785  3.2565  3.2565  3.3662
  0.3343  1.1693  1.1693  1.1336  0.9817  0.9817  1.0593  1.0593  0.8216  1.0118
  0.9581  0.9208  0.9208  0.6225

 Free energy of the ion-electron system (eV)
  ---------------------------------------------------
  alpha Z        PSCENC =         0.64027230
  Ewald energy   TEWEN  =       126.18696251
  -Hartree energ DENC   =     -1287.71131746
  -exchange      EXHF   =         0.00000000
  -V(xc)+E(xc)   XCENC  =       -93.89629085
  PAW double counting   =      1402.80277482    -1274.91063132
  entropy T*S    EENTRO =        -0.00271348
  eigenvalues    EBANDS =      -112.24761101
  atomic energy  EATOM  =      1232.83166263
  ---------------------------------------------------
  free energy    TOTEN  =        -6.30689187 eV

  energy without entropy =       -6.30417838  energy(sigma->0) =       -6.30553513


--------------------------------------------------------------------------------------------------------




----------------------------------------- Iteration    1(  33)  ---------------------------------------


    POTLOK:  cpu time    5.33: real time   10.98
    SETDIJ:  cpu time    4.99: real time   10.04
     EDDAV:  cpu time    1.71: real time    3.43
       DOS:  cpu time    0.00: real time    0.00
    CHARGE:  cpu time    3.75: real time    7.54
    MIXING:  cpu time    0.79: real time    1.61
    --------------------------------------------
      LOOP:  cpu time   16.57: real time   33.61

 eigenvalue-minimisations  :    56
 total energy-change (2. order) :-0.2403474E-02  (-0.1979679E-03)
 number of electron      18.0000000 magnetization       4.0415306
 augmentation part        6.6666845 magnetization       1.9420370

 Broyden mixing:
  rms(total) = 0.98355E-01    rms(broyden)= 0.98352E-01
  rms(prec ) = 0.99958E-01
  weight for this iteration     100.00

 eigenvalues of (default mixing * dielectric matrix)
  average eigenvalue GAMMA=   8.3388
 52.1099 52.1099 22.2386 20.3945 11.0068 11.0068 10.4598  6.7908  3.2566  3.2566
  3.0799  0.3343  1.1791  1.1791  1.0100  1.0100  1.0560  1.0560  0.9967  0.9445
  0.8216  0.8888  0.8888  0.8671  0.5284

 Free energy of the ion-electron system (eV)
  ---------------------------------------------------
  alpha Z        PSCENC =         0.64027230
  Ewald energy   TEWEN  =       126.18696251
  -Hartree energ DENC   =     -1287.60046665
  -exchange      EXHF   =         0.00000000
  -V(xc)+E(xc)   XCENC  =       -93.89987238
  PAW double counting   =      1402.86296491    -1274.98347617
  entropy T*S    EENTRO =        -0.00239207
  eigenvalues    EBANDS =      -112.34495042
  atomic energy  EATOM  =      1232.83166263
  ---------------------------------------------------
  free energy    TOTEN  =        -6.30929534 eV

  energy without entropy =       -6.30690327  energy(sigma->0) =       -6.30809931


--------------------------------------------------------------------------------------------------------




----------------------------------------- Iteration    1(  34)  ---------------------------------------


    POTLOK:  cpu time    5.49: real time   11.19
    SETDIJ:  cpu time    4.84: real time    9.67
     EDDAV:  cpu time    2.22: real time    4.44
       DOS:  cpu time    0.00: real time    0.00
    CHARGE:  cpu time    4.04: real time    8.08
    MIXING:  cpu time    0.83: real time    1.68
    --------------------------------------------
      LOOP:  cpu time   17.42: real time   35.10

 eigenvalue-minimisations  :    56
 total energy-change (2. order) : 0.1163834E-02  (-0.5602923E-03)
 number of electron      18.0000000 magnetization       4.0393946
 augmentation part        6.6674514 magnetization       1.9404796

 Broyden mixing:
  rms(total) = 0.34302E-01    rms(broyden)= 0.34190E-01
  rms(prec ) = 0.34732E-01
  weight for this iteration     100.00

 eigenvalues of (default mixing * dielectric matrix)
  average eigenvalue GAMMA=   8.2491
 56.3249 48.4697 26.1591 18.8884 11.3955 11.3955 10.3227  8.3115  3.2566  3.2566
  2.9901  0.3343  1.4326  1.1199  1.0376  1.0376  0.9711  0.9711  0.8217  0.9862
  0.9407  0.9407  0.9245  0.8302  0.8302  0.5279

 Free energy of the ion-electron system (eV)
  ---------------------------------------------------
  alpha Z        PSCENC =         0.64027230
  Ewald energy   TEWEN  =       126.18696251
  -Hartree energ DENC   =     -1287.49373865
  -exchange      EXHF   =         0.00000000
  -V(xc)+E(xc)   XCENC  =       -93.89769068
  PAW double counting   =      1402.81878653    -1274.95365436
  entropy T*S    EENTRO =        -0.00278142
  eigenvalues    EBANDS =      -112.43795036
  atomic energy  EATOM  =      1232.83166263
  ---------------------------------------------------
  free energy    TOTEN  =        -6.30813151 eV

  energy without entropy =       -6.30535009  energy(sigma->0) =       -6.30674080


--------------------------------------------------------------------------------------------------------




----------------------------------------- Iteration    1(  35)  ---------------------------------------


    POTLOK:  cpu time    5.05: real time   10.25
    SETDIJ:  cpu time    4.68: real time    9.38
     EDDAV:  cpu time    2.27: real time    4.55
       DOS:  cpu time    0.00: real time    0.00
    CHARGE:  cpu time    4.19: real time    8.40
    MIXING:  cpu time    1.04: real time    2.09
    --------------------------------------------
      LOOP:  cpu time   17.25: real time   34.70

 eigenvalue-minimisations  :    56
 total energy-change (2. order) :-0.2760308E-02  (-0.5243733E-03)
 number of electron      18.0000000 magnetization       4.0395999
 augmentation part        6.6680932 magnetization       1.9409536

 Broyden mixing:
  rms(total) = 0.49896E-01    rms(broyden)= 0.49882E-01
  rms(prec ) = 0.50654E-01
  weight for this iteration     100.00

 eigenvalues of (default mixing * dielectric matrix)
  average eigenvalue GAMMA=   8.0782
 59.1481 46.8072 27.2156 19.2468 11.5851 11.5851 10.4343  8.4848  3.2566  3.2566
  2.9758  0.3343  1.4670  0.3536  1.1382  1.0558  1.0558  0.9824  0.9824  0.9975
  0.8216  0.9488  0.9117  0.9117  0.8015  0.8015  0.5525

 Free energy of the ion-electron system (eV)
  ---------------------------------------------------
  alpha Z        PSCENC =         0.64027230
  Ewald energy   TEWEN  =       126.18696251
  -Hartree energ DENC   =     -1287.44122604
  -exchange      EXHF   =         0.00000000
  -V(xc)+E(xc)   XCENC  =       -93.90165641
  PAW double counting   =      1402.83231838    -1274.97257173
  entropy T*S    EENTRO =        -0.00272809
  eigenvalues    EBANDS =      -112.48392536
  atomic energy  EATOM  =      1232.83166263
  ---------------------------------------------------
  free energy    TOTEN  =        -6.31089181 eV

  energy without entropy =       -6.30816372  energy(sigma->0) =       -6.30952777


--------------------------------------------------------------------------------------------------------




----------------------------------------- Iteration    1(  36)  ---------------------------------------


    POTLOK:  cpu time    5.00: real time   10.11
    SETDIJ:  cpu time    4.75: real time    9.61
     EDDAV:  cpu time    2.28: real time    4.56
       DOS:  cpu time    0.00: real time    0.00
    CHARGE:  cpu time    4.06: real time    8.13
    MIXING:  cpu time    0.94: real time    1.88
    --------------------------------------------
      LOOP:  cpu time   17.03: real time   34.29

 eigenvalue-minimisations  :    56
 total energy-change (2. order) : 0.6089347E-03  (-0.5024825E-03)
 number of electron      18.0000000 magnetization       4.0374888
 augmentation part        6.6681707 magnetization       1.9388728

 Broyden mixing:
  rms(total) = 0.52427E-01    rms(broyden)= 0.52391E-01
  rms(prec ) = 0.53251E-01
  weight for this iteration     100.00

 eigenvalues of (default mixing * dielectric matrix)
  average eigenvalue GAMMA=   7.8602
 59.7629 46.7173 27.5306 19.3227 11.5641 11.5641 10.4488  8.6801  3.2566  3.2566
  2.8161  0.3343  1.6860  1.1360  1.0579  1.0579  0.9671  0.9671  1.0027  0.9483
  0.9145  0.9145  0.8216  0.7134  0.7134  0.7130  0.7130  0.5064

 Free energy of the ion-electron system (eV)
  ---------------------------------------------------
  alpha Z        PSCENC =         0.64027230
  Ewald energy   TEWEN  =       126.18696251
  -Hartree energ DENC   =     -1287.42987108
  -exchange      EXHF   =         0.00000000
  -V(xc)+E(xc)   XCENC  =       -93.90127672
  PAW double counting   =      1402.80651218    -1274.94854356
  entropy T*S    EENTRO =        -0.00271061
  eigenvalues    EBANDS =      -112.49329052
  atomic energy  EATOM  =      1232.83166263
  ---------------------------------------------------
  free energy    TOTEN  =        -6.31028288 eV

  energy without entropy =       -6.30757227  energy(sigma->0) =       -6.30892757


--------------------------------------------------------------------------------------------------------




----------------------------------------- Iteration    1(  37)  ---------------------------------------


    POTLOK:  cpu time    4.59: real time    9.19
    SETDIJ:  cpu time    5.10: real time   10.21
     EDDAV:  cpu time    2.35: real time    4.72
       DOS:  cpu time    0.00: real time    0.00
    CHARGE:  cpu time    4.30: real time    8.62
    MIXING:  cpu time    0.92: real time    1.85
    --------------------------------------------
      LOOP:  cpu time   17.27: real time   34.59

 eigenvalue-minimisations  :    56
 total energy-change (2. order) :-0.4387294E-03  (-0.4368932E-03)
 number of electron      18.0000000 magnetization       4.0356851
 augmentation part        6.6683085 magnetization       1.9371205

 Broyden mixing:
  rms(total) = 0.36631E-01    rms(broyden)= 0.36602E-01
  rms(prec ) = 0.37151E-01
  weight for this iteration     100.00

 eigenvalues of (default mixing * dielectric matrix)
  average eigenvalue GAMMA=   7.5873
 59.8505 46.5858 27.3893 19.3748 11.5548 11.5548 10.4474  8.6440  3.2566  3.2566
  2.8341  0.3343  1.6669  0.1665  1.1356  1.0579  1.0579  0.9673  0.9673  1.0024
  0.9473  0.9149  0.9149  0.8216  0.7099  0.7099  0.7038  0.7038  0.5007

 Free energy of the ion-electron system (eV)
  ---------------------------------------------------
  alpha Z        PSCENC =         0.64027230
  Ewald energy   TEWEN  =       126.18696251
  -Hartree energ DENC   =     -1287.41754985
  -exchange      EXHF   =         0.00000000
  -V(xc)+E(xc)   XCENC  =       -93.90274217
  PAW double counting   =      1402.79567055    -1274.93861905
  entropy T*S    EENTRO =        -0.00277590
  eigenvalues    EBANDS =      -112.50360262
  atomic energy  EATOM  =      1232.83166263
  ---------------------------------------------------
  free energy    TOTEN  =        -6.31072161 eV

  energy without entropy =       -6.30794571  energy(sigma->0) =       -6.30933366


--------------------------------------------------------------------------------------------------------




----------------------------------------- Iteration    1(  38)  ---------------------------------------


    POTLOK:  cpu time    4.70: real time    9.61
    SETDIJ:  cpu time    5.14: real time   10.36
     EDDAV:  cpu time    2.54: real time    5.09
       DOS:  cpu time    0.00: real time    0.00
    CHARGE:  cpu time    4.11: real time    8.28
    MIXING:  cpu time    0.73: real time    1.53
    --------------------------------------------
      LOOP:  cpu time   17.22: real time   34.88

 eigenvalue-minimisations  :    56
 total energy-change (2. order) : 0.2477429E-04  (-0.3962819E-03)
 number of electron      18.0000000 magnetization       4.0333974
 augmentation part        6.6683758 magnetization       1.9348060

 Broyden mixing:
  rms(total) = 0.52038E-01    rms(broyden)= 0.52015E-01
  rms(prec ) = 0.52870E-01
  weight for this iteration     100.00

 eigenvalues of (default mixing * dielectric matrix)
  average eigenvalue GAMMA=   7.4798
 56.4525 47.4465 28.5132 19.4822 12.1853 12.1853 10.5118  9.4899  3.2566  3.2566
  2.8626  2.8626  0.3343  1.2028  1.2028  1.1432  1.0649  1.0649  0.9823  0.9823
  1.0051  0.9653  0.9030  0.9030  0.8216  0.7834  0.7834  0.4341  0.7519  0.5612

 Free energy of the ion-electron system (eV)
  ---------------------------------------------------
  alpha Z        PSCENC =         0.64027230
  Ewald energy   TEWEN  =       126.18696251
  -Hartree energ DENC   =     -1287.41360326
  -exchange      EXHF   =         0.00000000
  -V(xc)+E(xc)   XCENC  =       -93.90355086
  PAW double counting   =      1402.76648595    -1274.90997126
  entropy T*S    EENTRO =        -0.00271086
  eigenvalues    EBANDS =      -112.50624399
  atomic energy  EATOM  =      1232.83166263
  ---------------------------------------------------
  free energy    TOTEN  =        -6.31069683 eV

  energy without entropy =       -6.30798598  energy(sigma->0) =       -6.30934141


--------------------------------------------------------------------------------------------------------




----------------------------------------- Iteration    1(  39)  ---------------------------------------


    POTLOK:  cpu time    4.60: real time    9.33
    SETDIJ:  cpu time    5.50: real time   10.94
     EDDAV:  cpu time    2.50: real time    4.83
       DOS:  cpu time    0.00: real time    0.00
    CHARGE:  cpu time    3.66: real time    7.36
    MIXING:  cpu time    1.05: real time    2.12
    --------------------------------------------
      LOOP:  cpu time   17.31: real time   34.59

 eigenvalue-minimisations  :    56
 total energy-change (2. order) : 0.1213463E-03  (-0.3746382E-03)
 number of electron      18.0000000 magnetization       4.0305674
 augmentation part        6.6684414 magnetization       1.9319923

 Broyden mixing:
  rms(total) = 0.33800E-01    rms(broyden)= 0.33767E-01
  rms(prec ) = 0.34279E-01
  weight for this iteration     100.00

 eigenvalues of (default mixing * dielectric matrix)
  average eigenvalue GAMMA=   7.2907
 56.0980 47.2781 28.6258 19.7068 12.3663 12.3663 10.5282  9.5171  3.2566  3.2566
  2.8733  2.8733  0.3343  1.4266  1.4266  0.9458  0.9458  1.1918  1.0670  1.0670
  0.9841  0.9841  1.0050  0.9672  0.8216  0.8998  0.8998  0.7526  0.4329  0.5563
  0.5563

 Free energy of the ion-electron system (eV)
  ---------------------------------------------------
  alpha Z        PSCENC =         0.64027230
  Ewald energy   TEWEN  =       126.18696251
  -Hartree energ DENC   =     -1287.40776413
  -exchange      EXHF   =         0.00000000
  -V(xc)+E(xc)   XCENC  =       -93.90458214
  PAW double counting   =      1402.76270816    -1274.90642020
  entropy T*S    EENTRO =        -0.00278193
  eigenvalues    EBANDS =      -112.51063269
  atomic energy  EATOM  =      1232.83166263
  ---------------------------------------------------
  free energy    TOTEN  =        -6.31057549 eV

  energy without entropy =       -6.30779356  energy(sigma->0) =       -6.30918452


--------------------------------------------------------------------------------------------------------




----------------------------------------- Iteration    1(  40)  ---------------------------------------


    POTLOK:  cpu time    4.98: real time   10.11
    SETDIJ:  cpu time    5.46: real time   11.05
     EDDAV:  cpu time    2.37: real time    4.72
       DOS:  cpu time    0.00: real time    0.01
    CHARGE:  cpu time    3.15: real time    6.33
    MIXING:  cpu time    1.11: real time    2.26
    --------------------------------------------
      LOOP:  cpu time   17.07: real time   34.50

 eigenvalue-minimisations  :    56
 total energy-change (2. order) :-0.1999095E-03  (-0.3336432E-03)
 number of electron      18.0000000 magnetization       4.0276719
 augmentation part        6.6684981 magnetization       1.9290509

 Broyden mixing:
  rms(total) = 0.44800E-01    rms(broyden)= 0.44780E-01
  rms(prec ) = 0.45516E-01
  weight for this iteration     100.00

 eigenvalues of (default mixing * dielectric matrix)
  average eigenvalue GAMMA=   7.1393
 55.7498 46.6236 28.8486 19.8520 12.4699 12.4699 10.5583  9.5030  3.2566  3.2566
  4.1021  3.0690  2.0932  0.3343  1.2164  1.2164  1.0163  1.0163  1.0719  1.0719
  0.9935  0.9935  0.9996  0.9638  0.9019  0.9019  0.8216  0.7536  0.6796  0.6796
  0.4263  0.5459

 Free energy of the ion-electron system (eV)
  ---------------------------------------------------
  alpha Z        PSCENC =         0.64027230
  Ewald energy   TEWEN  =       126.18696251
  -Hartree energ DENC   =     -1287.40611361
  -exchange      EXHF   =         0.00000000
  -V(xc)+E(xc)   XCENC  =       -93.90590558
  PAW double counting   =      1402.73462920    -1274.87845693
  entropy T*S    EENTRO =        -0.00274011
  eigenvalues    EBANDS =      -112.51108580
  atomic energy  EATOM  =      1232.83166263
  ---------------------------------------------------
  free energy    TOTEN  =        -6.31077540 eV

  energy without entropy =       -6.30803529  energy(sigma->0) =       -6.30940534


--------------------------------------------------------------------------------------------------------




----------------------------------------- Iteration    1(  41)  ---------------------------------------


    POTLOK:  cpu time    5.24: real time   10.65
    SETDIJ:  cpu time    5.33: real time   10.64
     EDDAV:  cpu time    2.14: real time    4.32
       DOS:  cpu time    0.00: real time    0.00
    CHARGE:  cpu time    3.92: real time    7.98
    MIXING:  cpu time    1.13: real time    2.30
    --------------------------------------------
      LOOP:  cpu time   17.77: real time   35.91

 eigenvalue-minimisations  :    56
 total energy-change (2. order) : 0.8605567E-04  (-0.3291029E-03)
 number of electron      18.0000000 magnetization       4.0242120
 augmentation part        6.6685423 magnetization       1.9255858

 Broyden mixing:
  rms(total) = 0.34720E-01    rms(broyden)= 0.34691E-01
  rms(prec ) = 0.35235E-01
  weight for this iteration     100.00

 eigenvalues of (default mixing * dielectric matrix)
  average eigenvalue GAMMA=   7.0386
 53.8020 47.3233 29.0358 20.3086 13.0781 13.0781 10.5911  9.4989  6.0836  3.2566
  3.2566  2.8029  2.8029  0.3343  0.9481  0.9481  0.4278  1.1299  1.1299  1.0299
  1.0299  1.0664  1.0664  0.8316  0.8316  1.0104  0.9531  0.8907  0.8907  0.8217
  0.7979  0.5593  0.6560

 Free energy of the ion-electron system (eV)
  ---------------------------------------------------
  alpha Z        PSCENC =         0.64027230
  Ewald energy   TEWEN  =       126.18696251
  -Hartree energ DENC   =     -1287.40309664
  -exchange      EXHF   =         0.00000000
  -V(xc)+E(xc)   XCENC  =       -93.90710664
  PAW double counting   =      1402.73052443    -1274.87430022
  entropy T*S    EENTRO =        -0.00277619
  eigenvalues    EBANDS =      -112.51283153
  atomic energy  EATOM  =      1232.83166263
  ---------------------------------------------------
  free energy    TOTEN  =        -6.31068934 eV

  energy without entropy =       -6.30791315  energy(sigma->0) =       -6.30930125


--------------------------------------------------------------------------------------------------------




----------------------------------------- Iteration    1(  42)  ---------------------------------------


    POTLOK:  cpu time    5.41: real time   10.58
    SETDIJ:  cpu time    4.81: real time    9.60
     EDDAV:  cpu time    2.05: real time    4.11
       DOS:  cpu time    0.00: real time    0.00
    CHARGE:  cpu time    4.03: real time    7.89
    MIXING:  cpu time    1.65: real time    3.31
    --------------------------------------------
      LOOP:  cpu time   17.96: real time   35.52

 eigenvalue-minimisations  :    56
 total energy-change (2. order) :-0.6115513E-04  (-0.2775764E-03)
 number of electron      18.0000000 magnetization       4.0208329
 augmentation part        6.6685842 magnetization       1.9221469

 Broyden mixing:
  rms(total) = 0.34288E-01    rms(broyden)= 0.34269E-01
  rms(prec ) = 0.34831E-01
  weight for this iteration     100.00

 eigenvalues of (default mixing * dielectric matrix)
  average eigenvalue GAMMA=   7.1207
 52.0905 48.6796 32.4451 20.1428 14.1471 14.1471 10.7828  9.7288  9.7288  3.2566
  3.2566  2.8400  2.8400  0.3343  1.0554  1.0554  1.1464  1.1464  1.0744  1.0744
  1.0080  1.0080  0.9829  0.9451  0.8960  0.8960  0.8216  0.8227  0.8227  0.6382
  0.6382  0.4252  0.5441  0.6825

 Free energy of the ion-electron system (eV)
  ---------------------------------------------------
  alpha Z        PSCENC =         0.64027230
  Ewald energy   TEWEN  =       126.18696251
  -Hartree energ DENC   =     -1287.40339905
  -exchange      EXHF   =         0.00000000
  -V(xc)+E(xc)   XCENC  =       -93.90863065
  PAW double counting   =      1402.70549049    -1274.84909837
  entropy T*S    EENTRO =        -0.00277475
  eigenvalues    EBANDS =      -112.51123561
  atomic energy  EATOM  =      1232.83166263
  ---------------------------------------------------
  free energy    TOTEN  =        -6.31075050 eV

  energy without entropy =       -6.30797575  energy(sigma->0) =       -6.30936312


--------------------------------------------------------------------------------------------------------




----------------------------------------- Iteration    1(  43)  ---------------------------------------


    POTLOK:  cpu time    4.95: real time   10.00
    SETDIJ:  cpu time    4.83: real time    9.67
     EDDAV:  cpu time    2.31: real time    4.60
       DOS:  cpu time    0.00: real time    0.00
    CHARGE:  cpu time    4.25: real time    8.58
    MIXING:  cpu time    1.48: real time    2.97
    --------------------------------------------
      LOOP:  cpu time   17.82: real time   35.83

 eigenvalue-minimisations  :    56
 total energy-change (2. order) :-0.6427157E-04  (-0.2781456E-03)
 number of electron      18.0000000 magnetization       4.0173273
 augmentation part        6.6686158 magnetization       1.9186184

 Broyden mixing:
  rms(total) = 0.37991E-01    rms(broyden)= 0.37968E-01
  rms(prec ) = 0.38582E-01
  weight for this iteration     100.00

 eigenvalues of (default mixing * dielectric matrix)
  average eigenvalue GAMMA=   6.9941
 51.5556 47.7843 33.9487 20.5715 14.5374 14.5374 11.1198  9.8735  9.8735  3.2566
  3.2566  2.8952  2.8952  0.3343  1.1113  1.1113  1.1564  1.1564  0.7218  0.7218
  0.4178  0.4630  1.0749  1.0749  0.9885  0.9885  0.9866  0.9298  0.9298  0.8216
  0.8626  0.8626  0.5658  0.7038  0.7038

 Free energy of the ion-electron system (eV)
  ---------------------------------------------------
  alpha Z        PSCENC =         0.64027230
  Ewald energy   TEWEN  =       126.18696251
  -Hartree energ DENC   =     -1287.40264073
  -exchange      EXHF   =         0.00000000
  -V(xc)+E(xc)   XCENC  =       -93.91002000
  PAW double counting   =      1402.70039208    -1274.84384041
  entropy T*S    EENTRO =        -0.00276275
  eigenvalues    EBANDS =      -112.51084039
  atomic energy  EATOM  =      1232.83166263
  ---------------------------------------------------
  free energy    TOTEN  =        -6.31081477 eV

  energy without entropy =       -6.30805202  energy(sigma->0) =       -6.30943339


--------------------------------------------------------------------------------------------------------




----------------------------------------- Iteration    1(  44)  ---------------------------------------


    POTLOK:  cpu time    4.88: real time    9.88
    SETDIJ:  cpu time    4.77: real time    9.63
     EDDAV:  cpu time    2.69: real time    5.36
       DOS:  cpu time    0.00: real time    0.00
    CHARGE:  cpu time    4.74: real time    9.37
    MIXING:  cpu time    1.51: real time    2.91
    --------------------------------------------
      LOOP:  cpu time   18.60: real time   37.16

 eigenvalue-minimisations  :    56
 total energy-change (2. order) : 0.1599605E-03  (-0.2124336E-03)
 number of electron      18.0000000 magnetization       4.0141653
 augmentation part        6.6686315 magnetization       1.9153866

 Broyden mixing:
  rms(total) = 0.22205E-01    rms(broyden)= 0.22182E-01
  rms(prec ) = 0.22545E-01
  weight for this iteration     100.00

 eigenvalues of (default mixing * dielectric matrix)
  average eigenvalue GAMMA=   6.8613
 50.9922 48.3369 34.7852 20.2971 14.6442 14.6442 11.2518  9.9040  9.9040  3.2566
  3.2566  3.0235  3.0235  0.3343  1.1951  1.1951  0.8393  0.8393  1.1560  1.1560
  1.0790  1.0790  0.9976  0.9976  0.9884  0.9143  0.9143  0.8216  0.8600  0.8600
  0.4235  0.5156  0.5156  0.7126  0.7126  0.5823

 Free energy of the ion-electron system (eV)
  ---------------------------------------------------
  alpha Z        PSCENC =         0.64027230
  Ewald energy   TEWEN  =       126.18696251
  -Hartree energ DENC   =     -1287.40540463
  -exchange      EXHF   =         0.00000000
  -V(xc)+E(xc)   XCENC  =       -93.91144177
  PAW double counting   =      1402.68371975    -1274.82675680
  entropy T*S    EENTRO =        -0.00280271
  eigenvalues    EBANDS =      -112.50686609
  atomic energy  EATOM  =      1232.83166263
  ---------------------------------------------------
  free energy    TOTEN  =        -6.31065481 eV

  energy without entropy =       -6.30785210  energy(sigma->0) =       -6.30925345


--------------------------------------------------------------------------------------------------------




----------------------------------------- Iteration    1(  45)  ---------------------------------------


    POTLOK:  cpu time    4.74: real time    9.69
    SETDIJ:  cpu time    5.12: real time   10.28
     EDDAV:  cpu time    2.53: real time    5.05
       DOS:  cpu time    0.00: real time    0.00
    CHARGE:  cpu time    4.22: real time    8.36
    MIXING:  cpu time    1.01: real time    2.00
    --------------------------------------------
      LOOP:  cpu time   17.62: real time   35.39

 eigenvalue-minimisations  :    56
 total energy-change (2. order) :-0.1379453E-03  (-0.2014479E-03)
 number of electron      18.0000000 magnetization       4.0113809
 augmentation part        6.6686492 magnetization       1.9125646

 Broyden mixing:
  rms(total) = 0.41514E-01    rms(broyden)= 0.41497E-01
  rms(prec ) = 0.42180E-01
  weight for this iteration     100.00

 eigenvalues of (default mixing * dielectric matrix)
  average eigenvalue GAMMA=   6.6786
 50.5314 48.7791 34.8675 20.3059 14.6472 14.6472 11.2761  9.8994  9.8994  3.2566
  3.2566  3.0181  3.0181  0.3343  1.1841  1.1841  0.0718  0.8382  0.8382  1.1563
  1.1563  1.0789  1.0789  0.9969  0.9969  0.9889  0.9158  0.9158  0.8216  0.8615
  0.8615  0.4240  0.4994  0.4994  0.5899  0.7072  0.7072

 Free energy of the ion-electron system (eV)
  ---------------------------------------------------
  alpha Z        PSCENC =         0.64027230
  Ewald energy   TEWEN  =       126.18696251
  -Hartree energ DENC   =     -1287.40695120
  -exchange      EXHF   =         0.00000000
  -V(xc)+E(xc)   XCENC  =       -93.91277516
  PAW double counting   =      1402.68124847    -1274.82409548
  entropy T*S    EENTRO =        -0.00274788
  eigenvalues    EBANDS =      -112.50436894
  atomic energy  EATOM  =      1232.83166263
  ---------------------------------------------------
  free energy    TOTEN  =        -6.31079275 eV

  energy without entropy =       -6.30804488  energy(sigma->0) =       -6.30941881


--------------------------------------------------------------------------------------------------------




----------------------------------------- Iteration    1(  46)  ---------------------------------------


    POTLOK:  cpu time    4.59: real time    9.37
    SETDIJ:  cpu time    5.36: real time   10.80
     EDDAV:  cpu time    2.39: real time    4.70
       DOS:  cpu time    0.00: real time    0.00
    CHARGE:  cpu time    3.53: real time    7.13
    MIXING:  cpu time    1.34: real time    2.70
    --------------------------------------------
      LOOP:  cpu time   17.20: real time   34.71

 eigenvalue-minimisations  :    56
 total energy-change (2. order) : 0.1951558E-03  (-0.1261538E-03)
 number of electron      18.0000000 magnetization       4.0091203
 augmentation part        6.6686286 magnetization       1.9102387

 Broyden mixing:
  rms(total) = 0.10528E-01    rms(broyden)= 0.10492E-01
  rms(prec ) = 0.10665E-01
  weight for this iteration     100.00

 eigenvalues of (default mixing * dielectric matrix)
  average eigenvalue GAMMA=   6.5831
 51.8347 45.8824 36.2524 20.6662 14.5633 14.5633 11.4682  9.9121  9.9121  3.2566
  3.2566  3.3363  3.3363  0.3343  1.3047  1.3047  1.1146  1.1146  0.7195  0.7195
  1.1589  1.1589  1.0788  1.0788  1.0055  1.0055  0.9874  0.9197  0.9197  0.8216
  0.8511  0.8511  0.4222  0.7125  0.7125  0.5154  0.5534  0.5534

 Free energy of the ion-electron system (eV)
  ---------------------------------------------------
  alpha Z        PSCENC =         0.64027230
  Ewald energy   TEWEN  =       126.18696251
  -Hartree energ DENC   =     -1287.41180854
  -exchange      EXHF   =         0.00000000
  -V(xc)+E(xc)   XCENC  =       -93.91374470
  PAW double counting   =      1402.67423880    -1274.81656312
  entropy T*S    EENTRO =        -0.00281776
  eigenvalues    EBANDS =      -112.49879971
  atomic energy  EATOM  =      1232.83166263
  ---------------------------------------------------
  free energy    TOTEN  =        -6.31059760 eV

  energy without entropy =       -6.30777984  energy(sigma->0) =       -6.30918872


--------------------------------------------------------------------------------------------------------




----------------------------------------- Iteration    1(  47)  ---------------------------------------


    POTLOK:  cpu time    4.89: real time   10.19
    SETDIJ:  cpu time    5.20: real time   10.66
     EDDAV:  cpu time    2.47: real time    4.83
       DOS:  cpu time    0.00: real time    0.00
    CHARGE:  cpu time    3.15: real time    6.22
    MIXING:  cpu time    1.42: real time    3.01
    --------------------------------------------
      LOOP:  cpu time   17.13: real time   34.91

 eigenvalue-minimisations  :    56
 total energy-change (2. order) :-0.2561963E-03  (-0.1081760E-03)
 number of electron      18.0000000 magnetization       4.0073771
 augmentation part        6.6686309 magnetization       1.9084567

 Broyden mixing:
  rms(total) = 0.43900E-01    rms(broyden)= 0.43888E-01
  rms(prec ) = 0.44615E-01
  weight for this iteration     100.00

 eigenvalues of (default mixing * dielectric matrix)
  average eigenvalue GAMMA=   6.4703
 51.4292 45.9419 36.9994 21.2228 14.5552 14.2761 11.9367  9.9614  9.9614  3.2566
  3.2566  3.4031  3.4031  0.3343  1.2589  1.2589  1.2800  1.2800  1.1645  1.1645
  0.7473  0.7473  1.0819  1.0819  0.9963  0.9963  0.9894  0.9329  0.9329  0.8216
  0.8636  0.8636  0.4213  0.6089  0.6089  0.6236  0.6236  0.4830  0.5738

 Free energy of the ion-electron system (eV)
  ---------------------------------------------------
  alpha Z        PSCENC =         0.64027230
  Ewald energy   TEWEN  =       126.18696251
  -Hartree energ DENC   =     -1287.41483526
  -exchange      EXHF   =         0.00000000
  -V(xc)+E(xc)   XCENC  =       -93.91478410
  PAW double counting   =      1402.67852284    -1274.82067377
  entropy T*S    EENTRO =        -0.00273719
  eigenvalues    EBANDS =      -112.49524374
  atomic energy  EATOM  =      1232.83166263
  ---------------------------------------------------
  free energy    TOTEN  =        -6.31085379 eV

  energy without entropy =       -6.30811660  energy(sigma->0) =       -6.30948520


--------------------------------------------------------------------------------------------------------




----------------------------------------- Iteration    1(  48)  ---------------------------------------


    POTLOK:  cpu time    5.34: real time   10.63
    SETDIJ:  cpu time    5.16: real time   10.54
     EDDAV:  cpu time    2.19: real time    4.39
       DOS:  cpu time    0.00: real time    0.00
    CHARGE:  cpu time    4.12: real time    8.26
    MIXING:  cpu time    1.64: real time    3.21
    --------------------------------------------
      LOOP:  cpu time   18.46: real time   37.04

 eigenvalue-minimisations  :    56
 total energy-change (2. order) : 0.2936353E-03  (-0.4813212E-04)
 number of electron      18.0000000 magnetization       4.0058899
 augmentation part        6.6685826 magnetization       1.9069174

 Broyden mixing:
  rms(total) = 0.36097E-02    rms(broyden)= 0.35308E-02
  rms(prec ) = 0.35987E-02
  weight for this iteration     100.00

 eigenvalues of (default mixing * dielectric matrix)
  average eigenvalue GAMMA=   6.4199
 52.4967 40.9495 40.9495 21.9558 16.3473 12.6284 12.6284 10.0725 10.0725  3.2566
  3.2566  4.4776  3.2990  1.7845  1.7845  0.3343  1.1881  1.1881  1.1596  1.1596
  0.7809  0.7809  1.0824  1.0824  0.9943  0.9943  0.9958  0.9310  0.9310  0.8217
  0.8098  0.8098  0.4213  0.7463  0.7463  0.6419  0.6419  0.4871  0.5548  0.5548

 Free energy of the ion-electron system (eV)
  ---------------------------------------------------
  alpha Z        PSCENC =         0.64027230
  Ewald energy   TEWEN  =       126.18696251
  -Hartree energ DENC   =     -1287.42048456
  -exchange      EXHF   =         0.00000000
  -V(xc)+E(xc)   XCENC  =       -93.91520264
  PAW double counting   =      1402.67870489    -1274.82033195
  entropy T*S    EENTRO =        -0.00282087
  eigenvalues    EBANDS =      -112.48932248
  atomic energy  EATOM  =      1232.83166263
  ---------------------------------------------------
  free energy    TOTEN  =        -6.31056016 eV

  energy without entropy =       -6.30773929  energy(sigma->0) =       -6.30914972


--------------------------------------------------------------------------------------------------------




----------------------------------------- Iteration    1(  49)  ---------------------------------------


    POTLOK:  cpu time    5.34: real time   10.69
    SETDIJ:  cpu time    4.93: real time    9.86
     EDDAV:  cpu time    2.21: real time    4.48
       DOS:  cpu time    0.00: real time    0.00
    CHARGE:  cpu time    4.10: real time    8.34
    MIXING:  cpu time    1.62: real time    3.09
    --------------------------------------------
      LOOP:  cpu time   18.21: real time   36.49

 eigenvalue-minimisations  :    56
 total energy-change (2. order) :-0.2681954E-03  (-0.3231351E-04)
 number of electron      18.0000000 magnetization       4.0048515
 augmentation part        6.6685755 magnetization       1.9058476

 Broyden mixing:
  rms(total) = 0.44507E-01    rms(broyden)= 0.44499E-01
  rms(prec ) = 0.45237E-01
  weight for this iteration     100.00

 eigenvalues of (default mixing * dielectric matrix)
  average eigenvalue GAMMA=   6.3193
 52.3678 40.9041 40.9041 21.4659 17.0679 12.5529 12.5529 10.1931 10.1931  6.2302
  3.2566  3.2566  3.0817  1.8689  1.8689  0.3343  1.1624  1.1624  0.5644  0.5644
  1.1385  1.1385  0.7141  0.7141  1.0814  1.0814  1.0130  1.0130  0.9980  0.9182
  0.9182  0.7814  0.7814  0.8548  0.8215  0.4214  0.7479  0.7479  0.4801  0.5450
  0.6302

 Free energy of the ion-electron system (eV)
  ---------------------------------------------------
  alpha Z        PSCENC =         0.64027230
  Ewald energy   TEWEN  =       126.18696251
  -Hartree energ DENC   =     -1287.42392576
  -exchange      EXHF   =         0.00000000
  -V(xc)+E(xc)   XCENC  =       -93.91595419
  PAW double counting   =      1402.68638678    -1274.82787386
  entropy T*S    EENTRO =        -0.00273383
  eigenvalues    EBANDS =      -112.48562494
  atomic energy  EATOM  =      1232.83166263
  ---------------------------------------------------
  free energy    TOTEN  =        -6.31082835 eV

  energy without entropy =       -6.30809453  energy(sigma->0) =       -6.30946144


--------------------------------------------------------------------------------------------------------




----------------------------------------- Iteration    1(  50)  ---------------------------------------


    POTLOK:  cpu time    5.37: real time   10.76
    SETDIJ:  cpu time    4.72: real time    9.57
     EDDAV:  cpu time    2.41: real time    4.87
       DOS:  cpu time    0.00: real time    0.00
    CHARGE:  cpu time    4.32: real time    8.62
    MIXING:  cpu time    1.69: real time    3.31
    --------------------------------------------
      LOOP:  cpu time   18.51: real time   37.14

 eigenvalue-minimisations  :    56
 total energy-change (2. order) : 0.3029878E-03  (-0.3396687E-04)
 number of electron      18.0000000 magnetization       4.0038725
 augmentation part        6.6685196 magnetization       1.9048288

 Broyden mixing:
  rms(total) = 0.85050E-02    rms(broyden)= 0.84811E-02
  rms(prec ) = 0.86274E-02
  weight for this iteration     100.00

 eigenvalues of (default mixing * dielectric matrix)
  average eigenvalue GAMMA=   6.3411
 52.2175 41.9879 41.9879 20.2483 20.2483 12.8506 12.8506 10.5183  9.9426  7.9018
  3.2566  3.2566  2.8678  1.8453  1.8453  0.3343  1.2191  1.2191  0.8205  0.8205
  1.1411  1.1411  0.6867  0.6867  1.0977  1.0977  0.8565  0.8565  1.0145  1.0145
  0.9936  0.9106  0.9106  0.9032  0.8216  0.4208  0.4673  0.5206  0.5206  0.6814
  0.6814  0.6609

 Free energy of the ion-electron system (eV)
  ---------------------------------------------------
  alpha Z        PSCENC =         0.64027230
  Ewald energy   TEWEN  =       126.18696251
  -Hartree energ DENC   =     -1287.42944835
  -exchange      EXHF   =         0.00000000
  -V(xc)+E(xc)   XCENC  =       -93.91605122
  PAW double counting   =      1402.69083202    -1274.83186375
  entropy T*S    EENTRO =        -0.00281753
  eigenvalues    EBANDS =      -112.48007398
  atomic energy  EATOM  =      1232.83166263
  ---------------------------------------------------
  free energy    TOTEN  =        -6.31052537 eV

  energy without entropy =       -6.30770784  energy(sigma->0) =       -6.30911660


--------------------------------------------------------------------------------------------------------




----------------------------------------- Iteration    1(  51)  ---------------------------------------


    POTLOK:  cpu time    4.76: real time    9.64
    SETDIJ:  cpu time    4.96: real time   10.11
     EDDAV:  cpu time    2.70: real time    5.14
       DOS:  cpu time    0.00: real time    0.00
    CHARGE:  cpu time    4.17: real time    8.61
    MIXING:  cpu time    1.60: real time    3.40
    --------------------------------------------
      LOOP:  cpu time   18.20: real time   36.92

 eigenvalue-minimisations  :    56
 total energy-change (2. order) :-0.2410832E-03  (-0.2406091E-04)
 number of electron      18.0000000 magnetization       4.0032048
 augmentation part        6.6685067 magnetization       1.9041350

 Broyden mixing:
  rms(total) = 0.44149E-01    rms(broyden)= 0.44143E-01
  rms(prec ) = 0.44876E-01
  weight for this iteration     100.00

 eigenvalues of (default mixing * dielectric matrix)
  average eigenvalue GAMMA=   6.1960
 52.3165 41.8853 41.8853 20.2693 20.2693 12.8489 12.8489 10.5218  9.9594  7.9526
  3.2566  3.2566  2.8713  1.8511  1.8511  0.3343  1.1865  1.1865  0.8378  0.8378
  0.1766  1.1397  1.1397  0.6691  0.6691  1.0995  1.0995  0.8557  0.8557  1.0157
  1.0157  0.9938  0.9098  0.9098  0.9027  0.8216  0.4204  0.4586  0.4793  0.5211
  0.6944  0.6944  0.6575

 Free energy of the ion-electron system (eV)
  ---------------------------------------------------
  alpha Z        PSCENC =         0.64027230
  Ewald energy   TEWEN  =       126.18696251
  -Hartree energ DENC   =     -1287.43285058
  -exchange      EXHF   =         0.00000000
  -V(xc)+E(xc)   XCENC  =       -93.91659879
  PAW double counting   =      1402.69905572    -1274.83997336
  entropy T*S    EENTRO =        -0.00273468
  eigenvalues    EBANDS =      -112.47656219
  atomic energy  EATOM  =      1232.83166263
  ---------------------------------------------------
  free energy    TOTEN  =        -6.31076645 eV

  energy without entropy =       -6.30803177  energy(sigma->0) =       -6.30939911


--------------------------------------------------------------------------------------------------------




----------------------------------------- Iteration    1(  52)  ---------------------------------------


    POTLOK:  cpu time    4.92: real time    9.70
    SETDIJ:  cpu time    5.09: real time   10.42
     EDDAV:  cpu time    2.60: real time    5.23
       DOS:  cpu time    0.00: real time    0.00
    CHARGE:  cpu time    3.65: real time    7.29
    MIXING:  cpu time    1.28: real time    2.59
    --------------------------------------------
      LOOP:  cpu time   17.53: real time   35.24

 eigenvalue-minimisations  :    56
 total energy-change (2. order) : 0.2630969E-03  (-0.2413763E-04)
 number of electron      18.0000000 magnetization       4.0025519
 augmentation part        6.6684536 magnetization       1.9034510

 Broyden mixing:
  rms(total) = 0.13694E-01    rms(broyden)= 0.13683E-01
  rms(prec ) = 0.13914E-01
  weight for this iteration     100.00

 eigenvalues of (default mixing * dielectric matrix)
  average eigenvalue GAMMA=   6.1937
 52.2782 42.8938 42.8938 20.7727 20.7727 13.1199 13.1199 10.5932 10.0158  7.9774
  3.2566  3.2566  2.8170  2.0192  2.0192  1.4127  1.4127  0.3343  1.0014  1.0014
  0.7564  0.7564  1.1480  1.1480  1.1117  1.1117  1.0180  1.0180  0.9857  0.9030
  0.9030  0.8972  0.8216  0.8549  0.8549  0.6029  0.6029  0.7618  0.7618  0.4205
  0.4475  0.4958  0.5466  0.6261

 Free energy of the ion-electron system (eV)
  ---------------------------------------------------
  alpha Z        PSCENC =         0.64027230
  Ewald energy   TEWEN  =       126.18696251
  -Hartree energ DENC   =     -1287.43793358
  -exchange      EXHF   =         0.00000000
  -V(xc)+E(xc)   XCENC  =       -93.91655620
  PAW double counting   =      1402.70557183    -1274.84609861
  entropy T*S    EENTRO =        -0.00281203
  eigenvalues    EBANDS =      -112.47157219
  atomic energy  EATOM  =      1232.83166263
  ---------------------------------------------------
  free energy    TOTEN  =        -6.31050335 eV

  energy without entropy =       -6.30769132  energy(sigma->0) =       -6.30909734


--------------------------------------------------------------------------------------------------------




----------------------------------------- Iteration    1(  53)  ---------------------------------------


    POTLOK:  cpu time    4.82: real time    9.85
    SETDIJ:  cpu time    5.49: real time   11.17
     EDDAV:  cpu time    2.47: real time    4.96
       DOS:  cpu time    0.01: real time    0.01
    CHARGE:  cpu time    4.30: real time    8.81
    MIXING:  cpu time    1.69: real time    3.71
    --------------------------------------------
      LOOP:  cpu time   18.78: real time   38.51

 eigenvalue-minimisations  :    56
 total energy-change (2. order) :-0.2249497E-03  (-0.1773176E-04)
 number of electron      18.0000000 magnetization       3.9995792
 augmentation part        6.6684367 magnetization       1.9004552

 Broyden mixing:
  rms(total) = 0.42841E-01    rms(broyden)= 0.42838E-01
  rms(prec ) = 0.43548E-01
  weight for this iteration     100.00

 eigenvalues of (default mixing * dielectric matrix)
  average eigenvalue GAMMA=   6.8936
 49.5820 47.4069 45.0333 20.6830 19.8675 14.7650 11.8663 10.4214 10.0342 10.0342
  8.0186  2.8943  1.9534  1.9534  1.4423  1.4423  0.3451  1.0497  1.0497  0.3495
  0.3495  1.1291  1.1291  0.6850  0.6850  1.0716  1.0716  0.5613  0.5613  1.0116
  0.5515  0.5515  0.8121  0.8121  0.8956  0.8956  0.7667  0.7667  0.5456  0.7002

 Free energy of the ion-electron system (eV)
  ---------------------------------------------------
  alpha Z        PSCENC =         0.64027230
  Ewald energy   TEWEN  =       126.18696251
  -Hartree energ DENC   =     -1287.44107399
  -exchange      EXHF   =         0.00000000
  -V(xc)+E(xc)   XCENC  =       -93.91697012
  PAW double counting   =      1402.71333527    -1274.85378034
  entropy T*S    EENTRO =        -0.00273938
  eigenvalues    EBANDS =      -112.46839719
  atomic energy  EATOM  =      1232.83166263
  ---------------------------------------------------
  free energy    TOTEN  =        -6.31072830 eV

  energy without entropy =       -6.30798892  energy(sigma->0) =       -6.30935861


--------------------------------------------------------------------------------------------------------




----------------------------------------- Iteration    1(  54)  ---------------------------------------


    POTLOK:  cpu time    5.16: real time   10.70
    SETDIJ:  cpu time    5.09: real time   10.49
     EDDAV:  cpu time    1.53: real time    3.14
       DOS:  cpu time    0.00: real time    0.00
    CHARGE:  cpu time    3.81: real time    7.68
    MIXING:  cpu time    1.28: real time    2.92
    --------------------------------------------
      LOOP:  cpu time   16.87: real time   34.94

 eigenvalue-minimisations  :    56
 total energy-change (2. order) : 0.1946453E-03  (-0.1718372E-04)
 number of electron      18.0000000 magnetization       3.9996348
 augmentation part        6.6681999 magnetization       1.9003077

 Broyden mixing:
  rms(total) = 0.26360E-01    rms(broyden)= 0.26359E-01
  rms(prec ) = 0.26798E-01
  weight for this iteration     100.00

 eigenvalues of (default mixing * dielectric matrix)
  average eigenvalue GAMMA=   6.7317
 49.4885 47.0936 45.0655 20.6159 19.7770 15.7755 11.6980 10.4199 10.0321 10.0321
  8.0628  2.4874  1.4616  1.4616  2.0035  2.0035  0.3580  0.2653  0.2653  1.0266
  1.0266  1.1915  1.1915  0.7257  0.7257  0.3455  0.4663  0.4663  0.5657  0.5657
  0.5509  1.0419  1.0419  1.0250  0.8339  0.8339  0.8903  0.8903  0.7198  0.7533
  0.7533

 Free energy of the ion-electron system (eV)
  ---------------------------------------------------
  alpha Z        PSCENC =         0.64027230
  Ewald energy   TEWEN  =       126.18696251
  -Hartree energ DENC   =     -1287.46896815
  -exchange      EXHF   =         0.00000000
  -V(xc)+E(xc)   XCENC  =       -93.91784382
  PAW double counting   =      1402.66676398    -1274.80314716
  entropy T*S    EENTRO =        -0.00278859
  eigenvalues    EBANDS =      -112.44344735
  atomic energy  EATOM  =      1232.83166263
  ---------------------------------------------------
  free energy    TOTEN  =        -6.31053366 eV

  energy without entropy =       -6.30774507  energy(sigma->0) =       -6.30913936


--------------------------------------------------------------------------------------------------------




----------------------------------------- Iteration    1(  55)  ---------------------------------------


    POTLOK:  cpu time    5.63: real time   11.34
    SETDIJ:  cpu time    4.70: real time   10.59
     EDDAV:  cpu time    2.82: real time    5.56
       DOS:  cpu time    0.00: real time    0.00
    CHARGE:  cpu time    3.87: real time    7.98
    MIXING:  cpu time    1.84: real time    3.67
    --------------------------------------------
      LOOP:  cpu time   18.86: real time   39.14

 eigenvalue-minimisations  :    56
 total energy-change (2. order) :-0.6684485E-04  (-0.5136972E-05)
 number of electron      18.0000000 magnetization       3.9997237
 augmentation part        6.6681486 magnetization       1.9003813

 Broyden mixing:
  rms(total) = 0.46006E-01    rms(broyden)= 0.46005E-01
  rms(prec ) = 0.46768E-01
  weight for this iteration     100.00

 eigenvalues of (default mixing * dielectric matrix)
  average eigenvalue GAMMA=   6.6160
 48.8205 48.0873 44.8272 20.9610 19.7305 15.0609 11.8255 10.4105 10.0537 10.0537
  7.9381  2.5833  1.5953  1.5953  2.0989  2.0989  0.3390  0.8014  0.8014  1.0255
  1.0255  0.7099  0.7099  0.3900  0.3900  1.1754  1.1754  0.5576  0.5576  0.5438
  0.5438  0.8062  0.8062  0.5647  1.0526  1.0526  1.0065  0.7204  0.7803  0.7803
  0.9073  0.9073

 Free energy of the ion-electron system (eV)
  ---------------------------------------------------
  alpha Z        PSCENC =         0.64027230
  Ewald energy   TEWEN  =       126.18696251
  -Hartree energ DENC   =     -1287.47306665
  -exchange      EXHF   =         0.00000000
  -V(xc)+E(xc)   XCENC  =       -93.91777258
  PAW double counting   =      1402.70191708    -1274.83875662
  entropy T*S    EENTRO =        -0.00272562
  eigenvalues    EBANDS =      -112.43909355
  atomic energy  EATOM  =      1232.83166263
  ---------------------------------------------------
  free energy    TOTEN  =        -6.31060050 eV

  energy without entropy =       -6.30787488  energy(sigma->0) =       -6.30923769


--------------------------------------------------------------------------------------------------------




----------------------------------------- Iteration    1(  56)  ---------------------------------------


    POTLOK:  cpu time    5.48: real time   11.03
    SETDIJ:  cpu time    4.56: real time    9.14
     EDDAV:  cpu time    2.45: real time    4.92
       DOS:  cpu time    0.00: real time    0.01
    CHARGE:  cpu time    4.76: real time    9.52
    MIXING:  cpu time    1.70: real time    3.70
    --------------------------------------------
      LOOP:  cpu time   18.95: real time   38.33

 eigenvalue-minimisations  :    56
 total energy-change (2. order) : 0.1514749E-03  (-0.8742836E-05)
 number of electron      18.0000000 magnetization       3.9997903
 augmentation part        6.6681037 magnetization       1.9004402

 Broyden mixing:
  rms(total) = 0.30507E-01    rms(broyden)= 0.30506E-01
  rms(prec ) = 0.31012E-01
  weight for this iteration     100.00

 eigenvalues of (default mixing * dielectric matrix)
  average eigenvalue GAMMA=   6.4835
 49.0779 47.3289 44.7743 21.2835 19.2300 14.3400 12.5413 10.3808 10.0693 10.0693
  7.1487  3.2860  3.2860  1.8709  0.3307  0.8713  0.8713  1.3780  1.3780  1.2763
  1.2763  1.0753  1.0753  0.6694  0.6694  0.4285  0.4285  0.6588  0.6588  0.4537
  0.7730  0.7730  1.0528  1.0528  0.6423  0.6423  0.5506  1.0157  0.9070  0.9070
  0.7200  0.7840  0.7840

 Free energy of the ion-electron system (eV)
  ---------------------------------------------------
  alpha Z        PSCENC =         0.64027230
  Ewald energy   TEWEN  =       126.18696251
  -Hartree energ DENC   =     -1287.47604859
  -exchange      EXHF   =         0.00000000
  -V(xc)+E(xc)   XCENC  =       -93.91744927
  PAW double counting   =      1402.72560731    -1274.86272822
  entropy T*S    EENTRO =        -0.00277805
  eigenvalues    EBANDS =      -112.43594965
  atomic energy  EATOM  =      1232.83166263
  ---------------------------------------------------
  free energy    TOTEN  =        -6.31044903 eV

  energy without entropy =       -6.30767097  energy(sigma->0) =       -6.30906000


--------------------------------------------------------------------------------------------------------




----------------------------------------- Iteration    1(  57)  ---------------------------------------


    POTLOK:  cpu time    4.65: real time    9.31
    SETDIJ:  cpu time    5.15: real time   10.35
     EDDAV:  cpu time    2.79: real time    5.56
       DOS:  cpu time    0.00: real time    0.00
    CHARGE:  cpu time    4.55: real time    9.23
    MIXING:  cpu time    1.25: real time    2.49
    --------------------------------------------
      LOOP:  cpu time   18.40: real time   36.97

 eigenvalue-minimisations  :    56
 total energy-change (2. order) :-0.1051875E-03  (-0.5289589E-05)
 number of electron      18.0000000 magnetization       3.9998519
 augmentation part        6.6680799 magnetization       1.9004971

 Broyden mixing:
  rms(total) = 0.44459E-01    rms(broyden)= 0.44458E-01
  rms(prec ) = 0.45195E-01
  weight for this iteration     100.00

 eigenvalues of (default mixing * dielectric matrix)
  average eigenvalue GAMMA=   6.3558
 48.3987 49.1645 44.3152 21.6151 18.8591 14.3208 12.6551 10.3737 10.0638 10.0638
  7.1518  3.2820  3.2820  0.3179  1.8527  1.4321  1.4321  0.5012  0.5012  0.0846
  0.8750  0.8750  1.2846  1.2846  1.0929  1.0929  0.4358  0.4358  0.8438  0.8438
  0.7098  0.7098  1.0536  1.0536  1.0019  0.9161  0.9161  0.6009  0.6009  0.5461
  0.5461  0.7673  0.7673  0.7323

 Free energy of the ion-electron system (eV)
  ---------------------------------------------------
  alpha Z        PSCENC =         0.64027230
  Ewald energy   TEWEN  =       126.18696251
  -Hartree energ DENC   =     -1287.47821774
  -exchange      EXHF   =         0.00000000
  -V(xc)+E(xc)   XCENC  =       -93.91746341
  PAW double counting   =      1402.74804329    -1274.88559237
  entropy T*S    EENTRO =        -0.00273201
  eigenvalues    EBANDS =      -112.43348940
  atomic energy  EATOM  =      1232.83166263
  ---------------------------------------------------
  free energy    TOTEN  =        -6.31055421 eV

  energy without entropy =       -6.30782220  energy(sigma->0) =       -6.30918821


--------------------------------------------------------------------------------------------------------




----------------------------------------- Iteration    1(  58)  ---------------------------------------


    POTLOK:  cpu time    4.44: real time    9.11
    SETDIJ:  cpu time    5.41: real time   11.45
     EDDAV:  cpu time    2.39: real time    4.89
       DOS:  cpu time    0.00: real time    0.00
    CHARGE:  cpu time    3.58: real time    7.45
    MIXING:  cpu time    1.49: real time    3.05
    --------------------------------------------
      LOOP:  cpu time   17.31: real time   35.94

 eigenvalue-minimisations  :    56
 total energy-change (2. order) : 0.1204403E-03  (-0.4411025E-05)
 number of electron      18.0000000 magnetization       3.9998702
 augmentation part        6.6680422 magnetization       1.9005126

 Broyden mixing:
  rms(total) = 0.31008E-01    rms(broyden)= 0.31007E-01
  rms(prec ) = 0.31521E-01
  weight for this iteration     100.00

 eigenvalues of (default mixing * dielectric matrix)
  average eigenvalue GAMMA=   6.9039
 49.1255 47.3937 44.0874 21.7327 18.1402 14.2663 11.2995 10.5126 10.2029 10.0570
  6.0157  6.0157  4.3041  1.1382  1.3015  1.3015  1.6291  1.6291  0.2118  0.1190
  1.3482  0.4485  0.4485  1.0765  1.0765  0.7339  0.7339  0.9691  0.9691  0.8291
  0.8291  0.6375  0.6375  0.9123  0.9123  0.7649  0.6166  0.6166  0.5291  0.5825

 Free energy of the ion-electron system (eV)
  ---------------------------------------------------
  alpha Z        PSCENC =         0.64027230
  Ewald energy   TEWEN  =       126.18696251
  -Hartree energ DENC   =     -1287.48085485
  -exchange      EXHF   =         0.00000000
  -V(xc)+E(xc)   XCENC  =       -93.91722140
  PAW double counting   =      1402.76792901    -1274.90569515
  entropy T*S    EENTRO =        -0.00277691
  eigenvalues    EBANDS =      -112.43071192
  atomic energy  EATOM  =      1232.83166263
  ---------------------------------------------------
  free energy    TOTEN  =        -6.31043377 eV

  energy without entropy =       -6.30765686  energy(sigma->0) =       -6.30904532


--------------------------------------------------------------------------------------------------------




----------------------------------------- Iteration    1(  59)  ---------------------------------------


    POTLOK:  cpu time    5.27: real time   10.16
    SETDIJ:  cpu time    5.32: real time   10.85
     EDDAV:  cpu time    2.53: real time    4.84
       DOS:  cpu time    0.01: real time    0.01
    CHARGE:  cpu time    3.11: real time    6.26
    MIXING:  cpu time    1.62: real time    3.33
    --------------------------------------------
      LOOP:  cpu time   17.87: real time   35.47

 eigenvalue-minimisations  :    56
 total energy-change (2. order) :-0.9560926E-04  (-0.4209793E-05)
 number of electron      18.0000000 magnetization       3.9999020
 augmentation part        6.6680303 magnetization       1.9005433

 Broyden mixing:
  rms(total) = 0.40913E-01    rms(broyden)= 0.40912E-01
  rms(prec ) = 0.41589E-01
  weight for this iteration     100.00

 eigenvalues of (default mixing * dielectric matrix)
  average eigenvalue GAMMA=   6.9012
 49.2000 47.6268 44.9138 21.5806 17.0370 17.0370  2.2635 11.4614 10.5105 10.1789
 10.0259  7.3935  5.6375  5.6375  1.3100  1.3100  1.5081  1.5081  0.1099  0.1099
  1.3334  0.4360  0.4360  1.0888  1.0888  0.7149  0.7149  1.0064  1.0064  0.8475
  0.8475  0.9342  0.9342  0.6853  0.6853  0.8413  0.5586  0.5586  0.6427  0.6427
  0.5860

 Free energy of the ion-electron system (eV)
  ---------------------------------------------------
  alpha Z        PSCENC =         0.64027230
  Ewald energy   TEWEN  =       126.18696251
  -Hartree energ DENC   =     -1287.48159604
  -exchange      EXHF   =         0.00000000
  -V(xc)+E(xc)   XCENC  =       -93.91729885
  PAW double counting   =      1402.77987948    -1274.91790436
  entropy T*S    EENTRO =        -0.00274572
  eigenvalues    EBANDS =      -112.42976132
  atomic energy  EATOM  =      1232.83166263
  ---------------------------------------------------
  free energy    TOTEN  =        -6.31052938 eV

  energy without entropy =       -6.30778366  energy(sigma->0) =       -6.30915652


--------------------------------------------------------------------------------------------------------




----------------------------------------- Iteration    1(  60)  ---------------------------------------


    POTLOK:  cpu time    5.36: real time   10.88
    SETDIJ:  cpu time    5.37: real time   10.99
     EDDAV:  cpu time    2.05: real time    4.15
       DOS:  cpu time    0.00: real time    0.00
    CHARGE:  cpu time    3.89: real time    8.04
    MIXING:  cpu time    1.65: real time    3.49
    --------------------------------------------
      LOOP:  cpu time   18.33: real time   37.56

 eigenvalue-minimisations  :    56
 total energy-change (2. order) : 0.6977789E-04  (-0.2117653E-05)
 number of electron      18.0000000 magnetization       3.9999315
 augmentation part        6.6680102 magnetization       1.9005743

 Broyden mixing:
  rms(total) = 0.29942E-01    rms(broyden)= 0.29941E-01
  rms(prec ) = 0.30436E-01
  weight for this iteration     100.00

 eigenvalues of (default mixing * dielectric matrix)
  average eigenvalue GAMMA=   6.8048
 48.9415 45.0915 46.7091 21.7369 16.9210 16.9210 10.5513 10.5513  8.6283  8.6283
 10.2971 10.0261  5.1877  2.0483  1.4836  1.4836  1.3014  1.3014  0.1401  0.1401
  1.3544  1.3544  1.3295  0.4110  0.4110  0.7168  0.7168  0.8939  0.8939  0.7006
  0.7006  0.9642  0.9642  0.9098  0.9098  0.6566  0.6566  0.8016  0.5705  0.5705
  0.6132  0.6132

 Free energy of the ion-electron system (eV)
  ---------------------------------------------------
  alpha Z        PSCENC =         0.64027230
  Ewald energy   TEWEN  =       126.18696251
  -Hartree energ DENC   =     -1287.48297770
  -exchange      EXHF   =         0.00000000
  -V(xc)+E(xc)   XCENC  =       -93.91715521
  PAW double counting   =      1402.79108416    -1274.92919414
  entropy T*S    EENTRO =        -0.00278007
  eigenvalues    EBANDS =      -112.42833408
  atomic energy  EATOM  =      1232.83166263
  ---------------------------------------------------
  free energy    TOTEN  =        -6.31045961 eV

  energy without entropy =       -6.30767954  energy(sigma->0) =       -6.30906957


--------------------------------------------------------------------------------------------------------




----------------------------------------- Iteration    1(  61)  ---------------------------------------


    POTLOK:  cpu time    5.19: real time   10.68
    SETDIJ:  cpu time    4.78: real time   10.11
     EDDAV:  cpu time    2.36: real time    4.74
       DOS:  cpu time    0.00: real time    0.00
    CHARGE:  cpu time    4.41: real time    8.85
    MIXING:  cpu time    2.28: real time    4.58
    --------------------------------------------
      LOOP:  cpu time   19.02: real time   38.96

 eigenvalue-minimisations  :    56
 total energy-change (2. order) :-0.6851562E-04  (-0.2864248E-05)
 number of electron      18.0000000 magnetization       3.9999490
 augmentation part        6.6680023 magnetization       1.9005909

 Broyden mixing:
  rms(total) = 0.37505E-01    rms(broyden)= 0.37505E-01
  rms(prec ) = 0.38125E-01
  weight for this iteration     100.00

 eigenvalues of (default mixing * dielectric matrix)
  average eigenvalue GAMMA=   6.6598
 48.9138 46.5411 45.1436 21.8609 16.7369 16.7369  8.1734  8.1734 10.6090 10.6090
 10.2220 10.0264  5.2052  2.5152  0.8762  1.4733  1.4733  1.3384  1.3384  1.5330
  0.0208  0.5004  0.5004  1.1952  1.1952  0.7093  0.7093  0.3154  1.0587  1.0587
  0.8813  0.8813  0.7800  0.7800  0.8881  0.8881  0.6712  0.6712  0.5854  0.5854
  0.5983  0.5983  0.7991

 Free energy of the ion-electron system (eV)
  ---------------------------------------------------
  alpha Z        PSCENC =         0.64027230
  Ewald energy   TEWEN  =       126.18696251
  -Hartree energ DENC   =     -1287.48395255
  -exchange      EXHF   =         0.00000000
  -V(xc)+E(xc)   XCENC  =       -93.91720638
  PAW double counting   =      1402.79922278    -1274.93747049
  entropy T*S    EENTRO =        -0.00275775
  eigenvalues    EBANDS =      -112.42726116
  atomic energy  EATOM  =      1232.83166263
  ---------------------------------------------------
  free energy    TOTEN  =        -6.31052812 eV

  energy without entropy =       -6.30777037  energy(sigma->0) =       -6.30914924


--------------------------------------------------------------------------------------------------------




----------------------------------------- Iteration    1(  62)  ---------------------------------------


    POTLOK:  cpu time    4.81: real time    9.69
    SETDIJ:  cpu time    4.92: real time    9.97
     EDDAV:  cpu time    2.25: real time    4.51
       DOS:  cpu time    0.00: real time    0.00
    CHARGE:  cpu time    4.59: real time    9.05
    MIXING:  cpu time    2.27: real time    4.56
    --------------------------------------------
      LOOP:  cpu time   18.84: real time   37.79

 eigenvalue-minimisations  :    56
 total energy-change (2. order) : 0.3633364E-04  (-0.1209949E-05)
 number of electron      18.0000000 magnetization       3.9999709
 augmentation part        6.6679899 magnetization       1.9006145

 Broyden mixing:
  rms(total) = 0.28768E-01    rms(broyden)= 0.28767E-01
  rms(prec ) = 0.29243E-01
  weight for this iteration     100.00

 eigenvalues of (default mixing * dielectric matrix)
  average eigenvalue GAMMA=   6.5363
 48.7973 45.1410 46.0377 21.8398 16.7766 16.7766  8.5728  8.5728 10.5948 10.5948
 10.2250  9.8903  2.6011  5.1851  0.7513  1.5448  1.5448  1.4154  1.4154  1.5969
  0.0385  0.4581  0.4581  1.1092  1.1092  0.7741  0.7741  0.8932  0.8932  0.5743
  0.5743  1.1123  1.1123  0.8039  0.8039  0.6610  0.6610  0.8844  0.8844  0.5794
  0.5794  0.5936  0.5936  0.7968

 Free energy of the ion-electron system (eV)
  ---------------------------------------------------
  alpha Z        PSCENC =         0.64027230
  Ewald energy   TEWEN  =       126.18696251
  -Hartree energ DENC   =     -1287.48476636
  -exchange      EXHF   =         0.00000000
  -V(xc)+E(xc)   XCENC  =       -93.91711457
  PAW double counting   =      1402.80467350    -1274.94294118
  entropy T*S    EENTRO =        -0.00278330
  eigenvalues    EBANDS =      -112.42645732
  atomic energy  EATOM  =      1232.83166263
  ---------------------------------------------------
  free energy    TOTEN  =        -6.31049179 eV

  energy without entropy =       -6.30770849  energy(sigma->0) =       -6.30910014


--------------------------------------------------------------------------------------------------------




----------------------------------------- Iteration    1(  63)  ---------------------------------------


    POTLOK:  cpu time    4.25: real time    9.15
    SETDIJ:  cpu time    5.27: real time   10.57
     EDDAV:  cpu time    2.55: real time    5.20
       DOS:  cpu time    0.00: real time    0.00
    CHARGE:  cpu time    4.03: real time    8.20
    MIXING:  cpu time    1.26: real time    2.54
    --------------------------------------------
      LOOP:  cpu time   17.37: real time   35.68

 eigenvalue-minimisations  :    56
 total energy-change (2. order) :-0.4075248E-04  (-0.1834182E-05)
 number of electron      18.0000000 magnetization       3.9999887
 augmentation part        6.6679869 magnetization       1.9006316

 Broyden mixing:
  rms(total) = 0.34480E-01    rms(broyden)= 0.34480E-01
  rms(prec ) = 0.35050E-01
  weight for this iteration     100.00

 eigenvalues of (default mixing * dielectric matrix)
  average eigenvalue GAMMA=   7.1707
 47.9305 45.2920 43.0308 22.9502 18.5971 18.5971 12.6102 10.5132 10.3025 10.3025
  9.9394  6.1973  2.7007  3.7542  3.0630  1.8227  1.8227  1.1697  1.1697  0.1184
  0.1184  1.4154  0.7726  0.7726  1.0409  1.0409  1.1681  0.6494  0.6494  0.9037
  0.9037  0.7667  0.7667  0.6593  0.6593  0.4221  0.6505  0.5119  0.5119  0.5593

 Free energy of the ion-electron system (eV)
  ---------------------------------------------------
  alpha Z        PSCENC =         0.64027230
  Ewald energy   TEWEN  =       126.18696251
  -Hartree energ DENC   =     -1287.48527605
  -exchange      EXHF   =         0.00000000
  -V(xc)+E(xc)   XCENC  =       -93.91716639
  PAW double counting   =      1402.80883934    -1274.94718469
  entropy T*S    EENTRO =        -0.00276752
  eigenvalues    EBANDS =      -112.42587466
  atomic energy  EATOM  =      1232.83166263
  ---------------------------------------------------
  free energy    TOTEN  =        -6.31053254 eV

  energy without entropy =       -6.30776502  energy(sigma->0) =       -6.30914878


--------------------------------------------------------------------------------------------------------




----------------------------------------- Iteration    1(  64)  ---------------------------------------


    POTLOK:  cpu time    4.92: real time    9.87
    SETDIJ:  cpu time    5.43: real time   10.94
     EDDAV:  cpu time    2.72: real time    5.44
       DOS:  cpu time    0.00: real time    0.00
    CHARGE:  cpu time    3.31: real time    6.64
    MIXING:  cpu time    1.61: real time    3.23
    --------------------------------------------
      LOOP:  cpu time   18.01: real time   36.13

 eigenvalue-minimisations  :    56
 total energy-change (2. order) : 0.1616230E-04  (-0.7050653E-06)
 number of electron      18.0000000 magnetization       4.0000267
 augmentation part        6.6679773 magnetization       1.9006611

 Broyden mixing:
  rms(total) = 0.27333E-01    rms(broyden)= 0.27332E-01
  rms(prec ) = 0.27784E-01
  weight for this iteration     100.00

 eigenvalues of (default mixing * dielectric matrix)
  average eigenvalue GAMMA=   7.1116
 44.9065 44.9065 48.0981 23.1855 19.7376 19.7376 12.0065 10.7167 10.5889 10.1225
 10.1225  6.7278  3.5989  3.4030  1.0548  2.2056  2.2056  0.3068  0.3068  1.1373
  1.1373  0.8258  0.8258  1.2560  1.2560  0.9881  0.9881  0.6682  0.6682  0.2671
  0.9064  0.9064  0.6852  0.6852  0.7863  0.7164  0.7164  0.5659  0.5659  0.5342
  0.5517

 Free energy of the ion-electron system (eV)
  ---------------------------------------------------
  alpha Z        PSCENC =         0.64027230
  Ewald energy   TEWEN  =       126.18696251
  -Hartree energ DENC   =     -1287.48584456
  -exchange      EXHF   =         0.00000000
  -V(xc)+E(xc)   XCENC  =       -93.91716278
  PAW double counting   =      1402.79569093    -1274.93388516
  entropy T*S    EENTRO =        -0.00278698
  eigenvalues    EBANDS =      -112.42542526
  atomic energy  EATOM  =      1232.83166263
  ---------------------------------------------------
  free energy    TOTEN  =        -6.31051638 eV

  energy without entropy =       -6.30772940  energy(sigma->0) =       -6.30912289


--------------------------------------------------------------------------------------------------------




----------------------------------------- Iteration    1(  65)  ---------------------------------------


    POTLOK:  cpu time    5.33: real time   10.71
    SETDIJ:  cpu time    5.16: real time   10.45
     EDDAV:  cpu time    2.32: real time    4.65
       DOS:  cpu time    0.00: real time    0.00
    CHARGE:  cpu time    4.40: real time    8.88
    MIXING:  cpu time    1.69: real time    3.45
    --------------------------------------------
      LOOP:  cpu time   18.90: real time   38.15

 eigenvalue-minimisations  :    56
 total energy-change (2. order) :-0.2725159E-04  (-0.1247685E-05)
 number of electron      18.0000000 magnetization       4.0000502
 augmentation part        6.6679839 magnetization       1.9006853

 Broyden mixing:
  rms(total) = 0.31396E-01    rms(broyden)= 0.31396E-01
  rms(prec ) = 0.31916E-01
  weight for this iteration     100.00

 eigenvalues of (default mixing * dielectric matrix)
  average eigenvalue GAMMA=   7.1410
 48.9883 45.8158 44.0048 23.3079 21.3533 21.3533 12.6057 11.1230 10.5288 10.1583
  9.4961  8.1861  4.5428  2.8065  2.8065  2.8258  0.6581  0.6581  0.2162  1.1340
  1.1340  1.2815  0.8970  0.8970  1.1476  0.6701  0.6701  0.9173  0.9173  0.9928
  0.9928  0.3546  0.6796  0.6796  0.6744  0.6744  0.7708  0.7708  0.5264  0.5264
  0.5607  0.6157

 Free energy of the ion-electron system (eV)
  ---------------------------------------------------
  alpha Z        PSCENC =         0.64027230
  Ewald energy   TEWEN  =       126.18696251
  -Hartree energ DENC   =     -1287.48529294
  -exchange      EXHF   =         0.00000000
  -V(xc)+E(xc)   XCENC  =       -93.91722565
  PAW double counting   =      1402.79563180    -1274.93389760
  entropy T*S    EENTRO =        -0.00277659
  eigenvalues    EBANDS =      -112.42588008
  atomic energy  EATOM  =      1232.83166263
  ---------------------------------------------------
  free energy    TOTEN  =        -6.31054363 eV

  energy without entropy =       -6.30776704  energy(sigma->0) =       -6.30915534


--------------------------------------------------------------------------------------------------------




----------------------------------------- Iteration    1(  66)  ---------------------------------------


    POTLOK:  cpu time    5.44: real time   10.95
    SETDIJ:  cpu time    4.82: real time    9.71
     EDDAV:  cpu time    2.28: real time    4.47
       DOS:  cpu time    0.00: real time    0.00
    CHARGE:  cpu time    4.17: real time    8.43
    MIXING:  cpu time    1.62: real time    3.24
    --------------------------------------------
      LOOP:  cpu time   18.34: real time   36.82

 eigenvalue-minimisations  :    56
 total energy-change (2. order) : 0.1643584E-04  (-0.3391818E-06)
 number of electron      18.0000000 magnetization       4.0000616
 augmentation part        6.6679822 magnetization       1.9006991

 Broyden mixing:
  rms(total) = 0.25068E-01    rms(broyden)= 0.25068E-01
  rms(prec ) = 0.25483E-01
  weight for this iteration     100.00

 eigenvalues of (default mixing * dielectric matrix)
  average eigenvalue GAMMA=   7.0230
 48.9855 45.3322 44.1560 22.1810 22.1810 22.4084 12.3303 11.3350 10.5154 10.1524
  9.5816  8.1632  4.1738  3.7618  2.7270  2.7270  0.7860  1.1726  1.1726  0.3746
  0.3746  1.1339  1.1339  0.9192  0.9192  1.1553  1.1553  0.7191  0.7191  0.3482
  0.3482  1.0389  1.0389  0.7629  0.7629  0.5598  0.5598  0.5575  0.5519  0.7689
  0.7689  0.7854  0.6894

 Free energy of the ion-electron system (eV)
  ---------------------------------------------------
  alpha Z        PSCENC =         0.64027230
  Ewald energy   TEWEN  =       126.18696251
  -Hartree energ DENC   =     -1287.48535185
  -exchange      EXHF   =         0.00000000
  -V(xc)+E(xc)   XCENC  =       -93.91718780
  PAW double counting   =      1402.79914313    -1274.93744572
  entropy T*S    EENTRO =        -0.00279240
  eigenvalues    EBANDS =      -112.42579000
  atomic energy  EATOM  =      1232.83166263
  ---------------------------------------------------
  free energy    TOTEN  =        -6.31052719 eV

  energy without entropy =       -6.30773480  energy(sigma->0) =       -6.30913100


--------------------------------------------------------------------------------------------------------




----------------------------------------- Iteration    1(  67)  ---------------------------------------


    POTLOK:  cpu time    5.61: real time   10.96
    SETDIJ:  cpu time    4.84: real time    9.70
     EDDAV:  cpu time    2.33: real time    4.67
       DOS:  cpu time    0.00: real time    0.01
    CHARGE:  cpu time    4.14: real time    8.28
    MIXING:  cpu time    1.78: real time    3.59
    --------------------------------------------
      LOOP:  cpu time   18.71: real time   37.23

 eigenvalue-minimisations  :    56
 total energy-change (2. order) :-0.3451153E-04  (-0.1011100E-05)
 number of electron      18.0000000 magnetization       4.0000665
 augmentation part        6.6679821 magnetization       1.9007053

 Broyden mixing:
  rms(total) = 0.27535E-01    rms(broyden)= 0.27535E-01
  rms(prec ) = 0.27991E-01
  weight for this iteration     100.00

 eigenvalues of (default mixing * dielectric matrix)
  average eigenvalue GAMMA=   6.9490
 48.9722 46.2833 43.4837 22.6577 22.6577 22.5222 12.4962 11.2883 10.4920 10.1921
  9.6473  8.2094  4.5657  4.5657  1.2608  2.5162  2.5162  0.2108  0.2108  1.2324
  1.2324  1.3114  1.3114  0.9260  0.9260  1.1293  1.1293  0.7077  0.7077  1.0044
  1.0044  0.3666  0.7999  0.7999  0.5997  0.5997  0.4781  0.5515  0.5785  0.5785
  0.7846  0.7846  0.7724  0.6924

 Free energy of the ion-electron system (eV)
  ---------------------------------------------------
  alpha Z        PSCENC =         0.64027230
  Ewald energy   TEWEN  =       126.18696251
  -Hartree energ DENC   =     -1287.48560896
  -exchange      EXHF   =         0.00000000
  -V(xc)+E(xc)   XCENC  =       -93.91721706
  PAW double counting   =      1402.80520826    -1274.94358179
  entropy T*S    EENTRO =        -0.00278684
  eigenvalues    EBANDS =      -112.42547274
  atomic energy  EATOM  =      1232.83166263
  ---------------------------------------------------
  free energy    TOTEN  =        -6.31056171 eV

  energy without entropy =       -6.30777487  energy(sigma->0) =       -6.30916829


--------------------------------------------------------------------------------------------------------




----------------------------------------- Iteration    1(  68)  ---------------------------------------


    POTLOK:  cpu time    4.89: real time    9.94
    SETDIJ:  cpu time    5.10: real time   10.30
     EDDAV:  cpu time    2.53: real time    5.07
       DOS:  cpu time    0.00: real time    0.00
    CHARGE:  cpu time    4.31: real time    8.56
    MIXING:  cpu time    2.21: real time    3.68
    --------------------------------------------
      LOOP:  cpu time   19.05: real time   37.56

 eigenvalue-minimisations  :    56
 total energy-change (2. order) : 0.1897277E-04  (-0.1067771E-06)
 number of electron      18.0000000 magnetization       4.0000549
 augmentation part        6.6679739 magnetization       1.9006953

 Broyden mixing:
  rms(total) = 0.20884E-01    rms(broyden)= 0.20883E-01
  rms(prec ) = 0.21229E-01
  weight for this iteration     100.00

 eigenvalues of (default mixing * dielectric matrix)
  average eigenvalue GAMMA=   7.2374
 48.6726 42.8050 42.8050 22.0222 20.1862 20.1862 11.4468 11.4468 10.1967 10.1940
 10.1940  7.3349  4.1837  4.1837  2.3213  1.6499  1.6499  1.4171  1.4171  1.5847
  1.5847  0.7657  0.7657  0.0692  0.0692  0.9824  0.9824  0.6840  0.6840  0.8576
  0.8414  0.8414  0.3933  0.6542  0.6542  0.5762  0.5762  0.5239  0.5239  0.5690

 Free energy of the ion-electron system (eV)
  ---------------------------------------------------
  alpha Z        PSCENC =         0.64027230
  Ewald energy   TEWEN  =       126.18696251
  -Hartree energ DENC   =     -1287.48648224
  -exchange      EXHF   =         0.00000000
  -V(xc)+E(xc)   XCENC  =       -93.91716684
  PAW double counting   =      1402.81414021    -1274.95254205
  entropy T*S    EENTRO =        -0.00280116
  eigenvalues    EBANDS =      -112.42458809
  atomic energy  EATOM  =      1232.83166263
  ---------------------------------------------------
  free energy    TOTEN  =        -6.31054273 eV

  energy without entropy =       -6.30774157  energy(sigma->0) =       -6.30914215


--------------------------------------------------------------------------------------------------------




----------------------------------------- Iteration    1(  69)  ---------------------------------------


    POTLOK:  cpu time    4.79: real time    9.74
    SETDIJ:  cpu time    5.35: real time   10.78
     EDDAV:  cpu time    2.27: real time    4.51
       DOS:  cpu time    0.00: real time    0.00
    CHARGE:  cpu time    3.76: real time    7.56
    MIXING:  cpu time    1.39: real time    2.79
    --------------------------------------------
      LOOP:  cpu time   17.55: real time   35.39

 eigenvalue-minimisations  :    56
 total energy-change (2. order) :-0.8514829E-04  (-0.1395517E-05)
 number of electron      18.0000000 magnetization       4.0000342
 augmentation part        6.6679680 magnetization       1.9006738

 Broyden mixing:
  rms(total) = 0.23922E-01    rms(broyden)= 0.23922E-01
  rms(prec ) = 0.24318E-01
  weight for this iteration     100.00

 eigenvalues of (default mixing * dielectric matrix)
  average eigenvalue GAMMA=   7.2152
 48.7219 42.7264 42.7264 22.7478 22.7478 21.5020 11.4442 11.4442 10.3114 10.3114
  9.8876  6.4753  6.4753  2.4721  3.9792  1.7779  1.7779  0.1912  1.3361  1.3361
  1.3997  1.3997  0.9609  0.9609  0.0338  0.6352  0.6352  0.9516  0.9516  0.9031
  0.8456  0.8456  0.3501  0.4589  0.4589  0.6471  0.6471  0.5809  0.5809  0.6031
  0.5831

 Free energy of the ion-electron system (eV)
  ---------------------------------------------------
  alpha Z        PSCENC =         0.64027230
  Ewald energy   TEWEN  =       126.18696251
  -Hartree energ DENC   =     -1287.48720643
  -exchange      EXHF   =         0.00000000
  -V(xc)+E(xc)   XCENC  =       -93.91718890
  PAW double counting   =      1402.81735920    -1274.95576600
  entropy T*S    EENTRO =        -0.00279528
  eigenvalues    EBANDS =      -112.42392790
  atomic energy  EATOM  =      1232.83166263
  ---------------------------------------------------
  free energy    TOTEN  =        -6.31062788 eV

  energy without entropy =       -6.30783260  energy(sigma->0) =       -6.30923024


--------------------------------------------------------------------------------------------------------




----------------------------------------- Iteration    1(  70)  ---------------------------------------


    POTLOK:  cpu time    5.00: real time   10.14
    SETDIJ:  cpu time    5.50: real time   10.93
     EDDAV:  cpu time    2.38: real time    4.76
       DOS:  cpu time    0.00: real time    0.00
    CHARGE:  cpu time    3.80: real time    7.58
    MIXING:  cpu time    1.73: real time    3.48
    --------------------------------------------
      LOOP:  cpu time   18.42: real time   36.90

 eigenvalue-minimisations  :    56
 total energy-change (2. order) : 0.2806772E-04  (-0.1919093E-06)
 number of electron      18.0000000 magnetization       4.0000117
 augmentation part        6.6679640 magnetization       1.9006532

 Broyden mixing:
  rms(total) = 0.19554E-01    rms(broyden)= 0.19554E-01
  rms(prec ) = 0.19877E-01
  weight for this iteration     100.00

 eigenvalues of (default mixing * dielectric matrix)
  average eigenvalue GAMMA=   7.1660
 48.3440 42.6437 42.6437 23.0410 23.0410 21.4917 10.7114 10.7114 10.9143 10.9143
  9.9773  9.9773  3.7110  5.2931  3.7669  1.9188  1.9188  0.8341  1.4462  1.4462
  1.4670  1.4670  0.9457  0.9457  0.0474  0.9404  0.9404  0.6319  0.6319  0.3157
  0.8500  0.8500  0.8952  0.5779  0.5779  0.6426  0.6426  0.6991  0.4972  0.4972
  0.5821  0.5821

 Free energy of the ion-electron system (eV)
  ---------------------------------------------------
  alpha Z        PSCENC =         0.64027230
  Ewald energy   TEWEN  =       126.18696251
  -Hartree energ DENC   =     -1287.48753400
  -exchange      EXHF   =         0.00000000
  -V(xc)+E(xc)   XCENC  =       -93.91716917
  PAW double counting   =      1402.81720250    -1274.95557557
  entropy T*S    EENTRO =        -0.00280363
  eigenvalues    EBANDS =      -112.42361738
  atomic energy  EATOM  =      1232.83166263
  ---------------------------------------------------
  free energy    TOTEN  =        -6.31059981 eV

  energy without entropy =       -6.30779618  energy(sigma->0) =       -6.30919800


--------------------------------------------------------------------------------------------------------




----------------------------------------- Iteration    1(  71)  ---------------------------------------


    POTLOK:  cpu time    4.93: real time   10.57
    SETDIJ:  cpu time    5.32: real time   10.59
     EDDAV:  cpu time    1.43: real time    2.86
       DOS:  cpu time    0.00: real time    0.00
    CHARGE:  cpu time    3.68: real time    7.55
    MIXING:  cpu time    1.70: real time    3.41
    --------------------------------------------
      LOOP:  cpu time   17.07: real time   34.99

 eigenvalue-minimisations  :    56
 total energy-change (2. order) :-0.6337971E-04  (-0.6366818E-06)
 number of electron      18.0000000 magnetization       4.0000008
 augmentation part        6.6679629 magnetization       1.9006422

 Broyden mixing:
  rms(total) = 0.23128E-01    rms(broyden)= 0.23128E-01
  rms(prec ) = 0.23511E-01
  weight for this iteration     100.00

 eigenvalues of (default mixing * dielectric matrix)
  average eigenvalue GAMMA=   7.0293
 48.3342 42.7623 42.7623 22.8849 22.8849 21.3277 10.7515 10.7515 10.8732 10.8732
 10.0290 10.0290  6.3839  3.0872  3.7615  2.1797  2.1797  0.9180  0.9180  1.4001
  1.4001  0.8895  0.8895  1.3026  1.3026  0.9960  0.9960  0.1034  0.2506  0.5971
  0.5971  0.9269  0.8242  0.8242  0.5690  0.5690  0.6262  0.6262  0.5149  0.5149
  0.6363  0.6363  0.5762

 Free energy of the ion-electron system (eV)
  ---------------------------------------------------
  alpha Z        PSCENC =         0.64027230
  Ewald energy   TEWEN  =       126.18696251
  -Hartree energ DENC   =     -1287.48772477
  -exchange      EXHF   =         0.00000000
  -V(xc)+E(xc)   XCENC  =       -93.91718856
  PAW double counting   =      1402.81716924    -1274.95552573
  entropy T*S    EENTRO =        -0.00279696
  eigenvalues    EBANDS =      -112.42349384
  atomic energy  EATOM  =      1232.83166263
  ---------------------------------------------------
  free energy    TOTEN  =        -6.31066319 eV

  energy without entropy =       -6.30786623  energy(sigma->0) =       -6.30926471


--------------------------------------------------------------------------------------------------------




----------------------------------------- Iteration    1(  72)  ---------------------------------------


    POTLOK:  cpu time    5.64: real time   11.32
    SETDIJ:  cpu time    5.22: real time    9.97
     EDDAV:  cpu time    2.23: real time    4.47
       DOS:  cpu time    0.00: real time    0.00
    CHARGE:  cpu time    3.82: real time    7.72
    MIXING:  cpu time    1.86: real time    3.65
    --------------------------------------------
      LOOP:  cpu time   18.78: real time   37.14

 eigenvalue-minimisations  :    56
 total energy-change (2. order) : 0.4195527E-04  (-0.3498902E-06)
 number of electron      18.0000000 magnetization       3.9999893
 augmentation part        6.6679617 magnetization       1.9006325

 Broyden mixing:
  rms(total) = 0.19573E-01    rms(broyden)= 0.19573E-01
  rms(prec ) = 0.19897E-01
  weight for this iteration     100.00

 eigenvalues of (default mixing * dielectric matrix)
  average eigenvalue GAMMA=   7.1693
 48.7724 42.7759 42.7759 25.4720 25.4720 21.3288 10.8017 10.8017 11.7052 11.7052
 10.2661 10.2661  9.4232  2.8844  3.3136  2.6464  2.6464  1.3069  1.3069  1.5798
  1.5798  0.9625  0.9625  1.4039  1.2858  0.9855  0.9855  0.0888  1.0039  0.5549
  0.5549  0.2246  0.8321  0.8321  0.6322  0.6322  0.4480  0.6394  0.6394  0.5795
  0.5795  0.6085  0.6085  0.5723

 Free energy of the ion-electron system (eV)
  ---------------------------------------------------
  alpha Z        PSCENC =         0.64027230
  Ewald energy   TEWEN  =       126.18696251
  -Hartree energ DENC   =     -1287.48775361
  -exchange      EXHF   =         0.00000000
  -V(xc)+E(xc)   XCENC  =       -93.91717198
  PAW double counting   =      1402.81637978    -1274.95471146
  entropy T*S    EENTRO =        -0.00280362
  eigenvalues    EBANDS =      -112.42345779
  atomic energy  EATOM  =      1232.83166263
  ---------------------------------------------------
  free energy    TOTEN  =        -6.31062124 eV

  energy without entropy =       -6.30781762  energy(sigma->0) =       -6.30921943


--------------------------------------------------------------------------------------------------------




----------------------------------------- Iteration    1(  73)  ---------------------------------------


    POTLOK:  cpu time    5.61: real time   11.38
    SETDIJ:  cpu time    4.61: real time    8.84
     EDDAV:  cpu time    2.28: real time    4.71
       DOS:  cpu time    0.00: real time    0.00
    CHARGE:  cpu time    4.28: real time    8.58
    MIXING:  cpu time    2.02: real time    4.06
    --------------------------------------------
      LOOP:  cpu time   18.80: real time   37.58

 eigenvalue-minimisations  :    56
 total energy-change (2. order) :-0.4419143E-04  (-0.3766357E-06)
 number of electron      18.0000000 magnetization       3.9999866
 augmentation part        6.6679618 magnetization       1.9006295

 Broyden mixing:
  rms(total) = 0.22717E-01    rms(broyden)= 0.22717E-01
  rms(prec ) = 0.23093E-01
  weight for this iteration     100.00

 eigenvalues of (default mixing * dielectric matrix)
  average eigenvalue GAMMA=   7.6986
 49.3740 42.2357 42.2357 24.6997 24.6997 20.0113 10.7886 10.7886 11.8784 10.2451
 10.2451  9.7997  8.5256  3.6138  3.6138  3.8446  2.6543  2.6543  0.8260  0.8260
  1.2510  1.2510  0.0157  1.1383  1.1383  0.8508  0.8508  0.6403  0.6403  0.4091
  0.7515  0.6689  0.6689  0.6237  0.6237  0.5853  0.5853  0.5974  0.5465  0.5465

 Free energy of the ion-electron system (eV)
  ---------------------------------------------------
  alpha Z        PSCENC =         0.64027230
  Ewald energy   TEWEN  =       126.18696251
  -Hartree energ DENC   =     -1287.48782454
  -exchange      EXHF   =         0.00000000
  -V(xc)+E(xc)   XCENC  =       -93.91718689
  PAW double counting   =      1402.81663425    -1274.95496117
  entropy T*S    EENTRO =        -0.00279781
  eigenvalues    EBANDS =      -112.42342671
  atomic energy  EATOM  =      1232.83166263
  ---------------------------------------------------
  free energy    TOTEN  =        -6.31066543 eV

  energy without entropy =       -6.30786762  energy(sigma->0) =       -6.30926653


--------------------------------------------------------------------------------------------------------




----------------------------------------- Iteration    1(  74)  ---------------------------------------


    POTLOK:  cpu time    4.77: real time    9.64
    SETDIJ:  cpu time    5.08: real time   10.17
     EDDAV:  cpu time    2.37: real time    4.71
       DOS:  cpu time    0.00: real time    0.00
    CHARGE:  cpu time    4.24: real time    8.45
    MIXING:  cpu time    2.01: real time    4.02
    --------------------------------------------
      LOOP:  cpu time   18.49: real time   37.01

 eigenvalue-minimisations  :    56
 total energy-change (2. order) : 0.3574921E-04  (-0.2778247E-06)
 number of electron      18.0000000 magnetization       3.9999794
 augmentation part        6.6679612 magnetization       1.9006221

 Broyden mixing:
  rms(total) = 0.20023E-01    rms(broyden)= 0.20023E-01
  rms(prec ) = 0.20354E-01
  weight for this iteration     100.00

 eigenvalues of (default mixing * dielectric matrix)
  average eigenvalue GAMMA=   7.6353
 49.4477 42.6560 42.6560 28.3679 22.5808 19.8172  8.1942  8.1942 10.7396 10.7396
 11.6230 10.3744 10.2236  9.7731  4.9069  1.9828  1.9828  0.6610  0.6610  1.4187
  1.4187  1.4240  1.4240  1.1054  1.1054  0.0157  0.8484  0.8484  0.6214  0.6214
  0.2948  0.6352  0.6352  0.7420  0.7420  0.6421  0.6421  0.5432  0.5432  0.5970
  0.5970

 Free energy of the ion-electron system (eV)
  ---------------------------------------------------
  alpha Z        PSCENC =         0.64027230
  Ewald energy   TEWEN  =       126.18696251
  -Hartree energ DENC   =     -1287.48776312
  -exchange      EXHF   =         0.00000000
  -V(xc)+E(xc)   XCENC  =       -93.91718319
  PAW double counting   =      1402.81471298    -1274.95300869
  entropy T*S    EENTRO =        -0.00280282
  eigenvalues    EBANDS =      -112.42348227
  atomic energy  EATOM  =      1232.83166263
  ---------------------------------------------------
  free energy    TOTEN  =        -6.31062968 eV

  energy without entropy =       -6.30782686  energy(sigma->0) =       -6.30922827


--------------------------------------------------------------------------------------------------------




----------------------------------------- Iteration    1(  75)  ---------------------------------------


    POTLOK:  cpu time    4.43: real time    8.90
    SETDIJ:  cpu time    5.37: real time   10.75
     EDDAV:  cpu time    2.51: real time    5.03
       DOS:  cpu time    0.00: real time    0.00
    CHARGE:  cpu time    3.85: real time    7.61
    MIXING:  cpu time    1.32: real time    2.66
    --------------------------------------------
      LOOP:  cpu time   17.49: real time   34.97

 eigenvalue-minimisations  :    56
 total energy-change (2. order) :-0.3192200E-04  (-0.2052178E-06)
 number of electron      18.0000000 magnetization       3.9999781
 augmentation part        6.6679616 magnetization       1.9006195

 Broyden mixing:
  rms(total) = 0.22534E-01    rms(broyden)= 0.22534E-01
  rms(prec ) = 0.22906E-01
  weight for this iteration     100.00

 eigenvalues of (default mixing * dielectric matrix)
  average eigenvalue GAMMA=   7.4782
 50.2225 44.3731 42.0035 26.1045 26.1045 20.1801 10.3497 10.3497 11.6841  9.7989
  9.7989 10.3677 10.3106  2.5757  2.5757  3.8441  2.4416  2.4416  0.9560  0.9560
  1.1080  1.1080  1.2203  1.2203  0.0018  1.1059  1.1059  0.9531  0.9531  0.6671
  0.6671  0.2815  0.5882  0.5882  0.7550  0.6744  0.6744  0.5862  0.5862  0.5483
  0.6261  0.6261

 Free energy of the ion-electron system (eV)
  ---------------------------------------------------
  alpha Z        PSCENC =         0.64027230
  Ewald energy   TEWEN  =       126.18696251
  -Hartree energ DENC   =     -1287.48770569
  -exchange      EXHF   =         0.00000000
  -V(xc)+E(xc)   XCENC  =       -93.91720304
  PAW double counting   =      1402.81453708    -1274.95283808
  entropy T*S    EENTRO =        -0.00279814
  eigenvalues    EBANDS =      -112.42355118
  atomic energy  EATOM  =      1232.83166263
  ---------------------------------------------------
  free energy    TOTEN  =        -6.31066160 eV

  energy without entropy =       -6.30786346  energy(sigma->0) =       -6.30926253


--------------------------------------------------------------------------------------------------------




----------------------------------------- Iteration    1(  76)  ---------------------------------------


    POTLOK:  cpu time    4.90: real time    9.86
    SETDIJ:  cpu time    5.50: real time   10.98
     EDDAV:  cpu time    2.70: real time    5.41
       DOS:  cpu time    0.00: real time    0.02
    CHARGE:  cpu time    3.48: real time    7.05
    MIXING:  cpu time    1.83: real time    3.70
    --------------------------------------------
      LOOP:  cpu time   18.41: real time   37.03

 eigenvalue-minimisations  :    56
 total energy-change (2. order) : 0.3114069E-04  (-0.1846465E-06)
 number of electron      18.0000000 magnetization       3.9999750
 augmentation part        6.6679614 magnetization       1.9006170

 Broyden mixing:
  rms(total) = 0.20015E-01    rms(broyden)= 0.20014E-01
  rms(prec ) = 0.20345E-01
  weight for this iteration     100.00

 eigenvalues of (default mixing * dielectric matrix)
  average eigenvalue GAMMA=   7.3871
 50.3752 44.0492 42.0905 26.0043 26.0043 20.3198 12.1312 12.1312 11.4114  9.9737
  9.9737 10.3223 10.1392  3.0510  3.0510  3.7931  2.3147  2.3147  1.2426  1.2426
  0.4738  0.4738  0.2197  1.2143  1.2143  1.1043  1.1043  0.9703  0.9703  0.1647
  0.1647  0.6549  0.6549  0.6856  0.6856  0.7561  0.5812  0.5812  0.6468  0.6468
  0.5442  0.5994  0.5994

 Free energy of the ion-electron system (eV)
  ---------------------------------------------------
  alpha Z        PSCENC =         0.64027230
  Ewald energy   TEWEN  =       126.18696251
  -Hartree energ DENC   =     -1287.48765741
  -exchange      EXHF   =         0.00000000
  -V(xc)+E(xc)   XCENC  =       -93.91719476
  PAW double counting   =      1402.81436662    -1274.95266280
  entropy T*S    EENTRO =        -0.00280284
  eigenvalues    EBANDS =      -112.42357671
  atomic energy  EATOM  =      1232.83166263
  ---------------------------------------------------
  free energy    TOTEN  =        -6.31063046 eV

  energy without entropy =       -6.30782762  energy(sigma->0) =       -6.30922904


--------------------------------------------------------------------------------------------------------




----------------------------------------- Iteration    1(  77)  ---------------------------------------


    POTLOK:  cpu time    5.42: real time   10.88
    SETDIJ:  cpu time    5.45: real time   10.95
     EDDAV:  cpu time    2.00: real time    4.01
       DOS:  cpu time    0.00: real time    0.00
    CHARGE:  cpu time    4.08: real time    8.19
    MIXING:  cpu time    1.94: real time    3.89
    --------------------------------------------
      LOOP:  cpu time   18.89: real time   37.93

 eigenvalue-minimisations  :    56
 total energy-change (2. order) :-0.3015386E-04  (-0.1872151E-06)
 number of electron      18.0000000 magnetization       3.9999753
 augmentation part        6.6679618 magnetization       1.9006165

 Broyden mixing:
  rms(total) = 0.22044E-01    rms(broyden)= 0.22044E-01
  rms(prec ) = 0.22408E-01
  weight for this iteration     100.00

 eigenvalues of (default mixing * dielectric matrix)
  average eigenvalue GAMMA=   7.3656
 50.2984 43.9973 42.0825 26.9828 26.9828 20.3154 13.0130 13.0130 11.4190  9.8703
 10.2854 10.2854 10.3341  3.4792  3.4792  3.7935  2.2933  2.2933  0.5253  1.2790
  1.2790  0.7937  0.7937  0.0086  1.2169  1.2169  1.1272  1.1272  0.9377  0.9377
  0.7531  0.7531  0.6185  0.6185  0.4676  0.4676  0.6868  0.6868  0.5547  0.5547
  0.6862  0.6862  0.5453  0.5453

 Free energy of the ion-electron system (eV)
  ---------------------------------------------------
  alpha Z        PSCENC =         0.64027230
  Ewald energy   TEWEN  =       126.18696251
  -Hartree energ DENC   =     -1287.48765047
  -exchange      EXHF   =         0.00000000
  -V(xc)+E(xc)   XCENC  =       -93.91720902
  PAW double counting   =      1402.81477307    -1274.95307543
  entropy T*S    EENTRO =        -0.00279912
  eigenvalues    EBANDS =      -112.42359709
  atomic energy  EATOM  =      1232.83166263
  ---------------------------------------------------
  free energy    TOTEN  =        -6.31066061 eV

  energy without entropy =       -6.30786150  energy(sigma->0) =       -6.30926106


--------------------------------------------------------------------------------------------------------




----------------------------------------- Iteration    1(  78)  ---------------------------------------


    POTLOK:  cpu time    5.42: real time   10.89
    SETDIJ:  cpu time    4.89: real time    9.82
     EDDAV:  cpu time    1.94: real time    3.89
       DOS:  cpu time    0.00: real time    0.00
    CHARGE:  cpu time    4.08: real time    8.15
    MIXING:  cpu time    1.63: real time    3.27
    --------------------------------------------
      LOOP:  cpu time   17.96: real time   36.03

 eigenvalue-minimisations  :    48
 total energy-change (2. order) : 0.2305093E-04  (-0.1087770E-06)
 number of electron      18.0000000 magnetization       3.9999719
 augmentation part        6.6679612 magnetization       1.9006132

 Broyden mixing:
  rms(total) = 0.19898E-01    rms(broyden)= 0.19898E-01
  rms(prec ) = 0.20227E-01
  weight for this iteration     100.00

 eigenvalues of (default mixing * dielectric matrix)
  average eigenvalue GAMMA=   8.0431
 50.0825 44.0284 41.2295 28.5733 28.5733 20.2748 14.8850 12.6821 12.6821 10.8012
 10.4824 10.1089  9.1478  4.3274  2.1549  2.1549  2.0050  2.0050  1.6021  1.6021
  0.1854  0.8227  0.8227  0.0058  0.0572  0.5479  0.5479  1.0231  1.0231  0.3099
  0.7824  0.7824  0.5511  0.5511  0.8085  0.8085  0.5811  0.7312  0.6906  0.6906

 Free energy of the ion-electron system (eV)
  ---------------------------------------------------
  alpha Z        PSCENC =         0.64027230
  Ewald energy   TEWEN  =       126.18696251
  -Hartree energ DENC   =     -1287.48762571
  -exchange      EXHF   =         0.00000000
  -V(xc)+E(xc)   XCENC  =       -93.91720169
  PAW double counting   =      1402.81472635    -1274.95302365
  entropy T*S    EENTRO =        -0.00280306
  eigenvalues    EBANDS =      -112.42360724
  atomic energy  EATOM  =      1232.83166263
  ---------------------------------------------------
  free energy    TOTEN  =        -6.31063756 eV

  energy without entropy =       -6.30783450  energy(sigma->0) =       -6.30923603


--------------------------------------------------------------------------------------------------------




----------------------------------------- Iteration    1(  79)  ---------------------------------------


    POTLOK:  cpu time    5.38: real time   10.81
    SETDIJ:  cpu time    4.71: real time    9.81
     EDDAV:  cpu time    2.05: real time    4.11
       DOS:  cpu time    0.00: real time    0.00
    CHARGE:  cpu time    4.35: real time    8.67
    MIXING:  cpu time    1.50: real time    3.03
    --------------------------------------------
      LOOP:  cpu time   18.00: real time   36.45

 eigenvalue-minimisations  :    48
 total energy-change (2. order) :-0.2552052E-04  (-0.1310519E-06)
 number of electron      18.0000000 magnetization       3.9999730
 augmentation part        6.6679624 magnetization       1.9006142

 Broyden mixing:
  rms(total) = 0.21791E-01    rms(broyden)= 0.21790E-01
  rms(prec ) = 0.22150E-01
  weight for this iteration     100.00

 eigenvalues of (default mixing * dielectric matrix)
  average eigenvalue GAMMA=   7.9198
 50.2116 44.6385 41.1391 28.3154 28.3154 20.0400 14.6950 12.7163 12.7163 10.8714
 10.4839 10.0951  9.3708  3.8518  4.2998  1.6159  1.6159  1.9465  1.9465  1.5453
  1.5453  0.0062  0.8497  0.8497  0.2793  0.2793  0.5921  0.5921  0.9953  0.9953
  0.3058  0.7846  0.7846  0.5577  0.5577  0.7878  0.7878  0.7186  0.7199  0.7199
  0.5716

 Free energy of the ion-electron system (eV)
  ---------------------------------------------------
  alpha Z        PSCENC =         0.64027230
  Ewald energy   TEWEN  =       126.18696251
  -Hartree energ DENC   =     -1287.48756220
  -exchange      EXHF   =         0.00000000
  -V(xc)+E(xc)   XCENC  =       -93.91721645
  PAW double counting   =      1402.81468038    -1274.95298604
  entropy T*S    EENTRO =        -0.00279961
  eigenvalues    EBANDS =      -112.42367662
  atomic energy  EATOM  =      1232.83166263
  ---------------------------------------------------
  free energy    TOTEN  =        -6.31066308 eV

  energy without entropy =       -6.30786348  energy(sigma->0) =       -6.30926328


--------------------------------------------------------------------------------------------------------




----------------------------------------- Iteration    1(  80)  ---------------------------------------


    POTLOK:  cpu time    4.65: real time    9.58
    SETDIJ:  cpu time    4.84: real time    9.80
     EDDAV:  cpu time    2.42: real time    4.86
       DOS:  cpu time    0.00: real time    0.00
    CHARGE:  cpu time    4.50: real time    9.04
    MIXING:  cpu time    1.67: real time    3.35
    --------------------------------------------
      LOOP:  cpu time   18.08: real time   36.65

 eigenvalue-minimisations  :    48
 total energy-change (2. order) : 0.2086096E-04  (-0.9223646E-07)
 number of electron      18.0000000 magnetization       3.9999714
 augmentation part        6.6679619 magnetization       1.9006128

 Broyden mixing:
  rms(total) = 0.19974E-01    rms(broyden)= 0.19974E-01
  rms(prec ) = 0.20304E-01
  weight for this iteration     100.00

 eigenvalues of (default mixing * dielectric matrix)
  average eigenvalue GAMMA=   7.7180
 50.1611 45.0687 40.1205 34.9104 22.3319 20.2927 14.0999 12.3608 12.3608 10.5248
 10.5248 10.0513  9.1255  3.7838  4.1389  1.7290  1.7290  1.8668  1.8668  1.6916
  1.6916  0.9250  0.9250  0.0064  0.4850  0.4850  1.0578  1.0578  0.6002  0.6002
  0.3444  0.3444  0.7974  0.7974  0.5552  0.5552  0.7395  0.7395  0.7130  0.7130
  0.7531  0.5300

 Free energy of the ion-electron system (eV)
  ---------------------------------------------------
  alpha Z        PSCENC =         0.64027230
  Ewald energy   TEWEN  =       126.18696251
  -Hartree energ DENC   =     -1287.48754596
  -exchange      EXHF   =         0.00000000
  -V(xc)+E(xc)   XCENC  =       -93.91720798
  PAW double counting   =      1402.81479898    -1274.95310222
  entropy T*S    EENTRO =        -0.00280293
  eigenvalues    EBANDS =      -112.42367954
  atomic energy  EATOM  =      1232.83166263
  ---------------------------------------------------
  free energy    TOTEN  =        -6.31064222 eV

  energy without entropy =       -6.30783929  energy(sigma->0) =       -6.30924076


--------------------------------------------------------------------------------------------------------




----------------------------------------- Iteration    1(  81)  ---------------------------------------


    POTLOK:  cpu time    4.90: real time    9.75
    SETDIJ:  cpu time    5.16: real time   10.36
     EDDAV:  cpu time    2.35: real time    4.70
       DOS:  cpu time    0.00: real time    0.00
    CHARGE:  cpu time    4.29: real time    8.56
    MIXING:  cpu time    1.17: real time    2.30
    --------------------------------------------
      LOOP:  cpu time   17.89: real time   35.67

 eigenvalue-minimisations  :    48
 total energy-change (2. order) :-0.2046402E-04  (-0.8862906E-07)
 number of electron      18.0000000 magnetization       3.9999727
 augmentation part        6.6679627 magnetization       1.9006139

 Broyden mixing:
  rms(total) = 0.21559E-01    rms(broyden)= 0.21559E-01
  rms(prec ) = 0.21915E-01
  weight for this iteration     100.00

 eigenvalues of (default mixing * dielectric matrix)
  average eigenvalue GAMMA=   7.6613
 51.4532 44.6921 40.2910 34.7223 21.6838 17.9425 16.1646  5.3224  5.3224 12.6658
 12.6658  9.0107 10.5547 10.5547 10.0713  4.0331  1.6689  1.6689  1.2501  1.2501
  1.4915  1.4915  1.1049  1.1049  0.0058  0.6110  0.6110  0.2102  0.3917  0.3917
  0.8670  0.8670  0.8879  0.8879  0.7195  0.7195  0.5387  0.5387  0.7172  0.6234
  0.6234  0.6459  0.3961

 Free energy of the ion-electron system (eV)
  ---------------------------------------------------
  alpha Z        PSCENC =         0.64027230
  Ewald energy   TEWEN  =       126.18696251
  -Hartree energ DENC   =     -1287.48750945
  -exchange      EXHF   =         0.00000000
  -V(xc)+E(xc)   XCENC  =       -93.91721935
  PAW double counting   =      1402.81471589    -1274.95302302
  entropy T*S    EENTRO =        -0.00280005
  eigenvalues    EBANDS =      -112.42372415
  atomic energy  EATOM  =      1232.83166263
  ---------------------------------------------------
  free energy    TOTEN  =        -6.31066269 eV

  energy without entropy =       -6.30786264  energy(sigma->0) =       -6.30926266


--------------------------------------------------------------------------------------------------------




----------------------------------------- Iteration    1(  82)  ---------------------------------------


    POTLOK:  cpu time    4.66: real time    9.50
    SETDIJ:  cpu time    5.47: real time   10.95
     EDDAV:  cpu time    1.94: real time    3.97
       DOS:  cpu time    0.00: real time    0.00
    CHARGE:  cpu time    3.69: real time    7.40
    MIXING:  cpu time    1.85: real time    3.71
    --------------------------------------------
      LOOP:  cpu time   17.62: real time   35.54

 eigenvalue-minimisations  :    48
 total energy-change (2. order) : 0.1710511E-04  (-0.6500252E-07)
 number of electron      18.0000000 magnetization       3.9999720
 augmentation part        6.6679623 magnetization       1.9006133

 Broyden mixing:
  rms(total) = 0.20038E-01    rms(broyden)= 0.20038E-01
  rms(prec ) = 0.20368E-01
  weight for this iteration     100.00

 eigenvalues of (default mixing * dielectric matrix)
  average eigenvalue GAMMA=   7.5508
 51.7726 44.6260 40.7379 33.8715 21.9366 17.7637 17.1123  5.8702  5.8702 12.4342
 12.4342  9.1693 10.5745 10.5745 10.0875  2.7218  2.4936  2.4936  1.7307  1.7307
  0.9932  0.9932  1.1386  1.1386  0.0044  0.8889  0.8889  0.6271  0.6271  0.3209
  0.3209  0.8895  0.8895  0.3299  0.3299  0.8174  0.7171  0.7171  0.7142  0.5559
  0.5559  0.6112  0.6112  0.5495

 Free energy of the ion-electron system (eV)
  ---------------------------------------------------
  alpha Z        PSCENC =         0.64027230
  Ewald energy   TEWEN  =       126.18696251
  -Hartree energ DENC   =     -1287.48750096
  -exchange      EXHF   =         0.00000000
  -V(xc)+E(xc)   XCENC  =       -93.91721202
  PAW double counting   =      1402.81481258    -1274.95311694
  entropy T*S    EENTRO =        -0.00280282
  eigenvalues    EBANDS =      -112.42372285
  atomic energy  EATOM  =      1232.83166263
  ---------------------------------------------------
  free energy    TOTEN  =        -6.31064558 eV

  energy without entropy =       -6.30784276  energy(sigma->0) =       -6.30924417


--------------------------------------------------------------------------------------------------------




----------------------------------------- Iteration    1(  83)  ---------------------------------------


    POTLOK:  cpu time    5.00: real time   10.03
    SETDIJ:  cpu time    5.15: real time   10.50
     EDDAV:  cpu time    2.00: real time    3.98
       DOS:  cpu time    0.00: real time    0.00
    CHARGE:  cpu time    3.29: real time    6.49
    MIXING:  cpu time    1.73: real time    3.57
    --------------------------------------------
      LOOP:  cpu time   17.17: real time   34.58

 eigenvalue-minimisations  :    48
 total energy-change (2. order) :-0.1664362E-04  (-0.6193122E-07)
 number of electron      18.0000000 magnetization       3.9999719
 augmentation part        6.6679629 magnetization       1.9006131

 Broyden mixing:
  rms(total) = 0.21344E-01    rms(broyden)= 0.21344E-01
  rms(prec ) = 0.21697E-01
  weight for this iteration     100.00

 eigenvalues of (default mixing * dielectric matrix)
  average eigenvalue GAMMA=   8.3451
 51.0653 43.6898 39.3924 30.5358 30.5358 19.1904 19.1904 14.3405  4.2581 11.1757
 11.1757 10.4506  9.8845  9.5567  4.0695  4.0695  3.0188  3.0188  1.3674  0.1259
  0.8029  0.8029  0.9620  0.9620  0.0061  1.0522  1.0522  1.0177  0.5739  0.5739
  0.3332  0.3332  0.5690  0.5690  0.7145  0.7145  0.7283  0.7283  0.6045  0.5900

 Free energy of the ion-electron system (eV)
  ---------------------------------------------------
  alpha Z        PSCENC =         0.64027230
  Ewald energy   TEWEN  =       126.18696251
  -Hartree energ DENC   =     -1287.48747259
  -exchange      EXHF   =         0.00000000
  -V(xc)+E(xc)   XCENC  =       -93.91722111
  PAW double counting   =      1402.81476374    -1274.95307131
  entropy T*S    EENTRO =        -0.00280046
  eigenvalues    EBANDS =      -112.42375793
  atomic energy  EATOM  =      1232.83166263
  ---------------------------------------------------
  free energy    TOTEN  =        -6.31066223 eV

  energy without entropy =       -6.30786177  energy(sigma->0) =       -6.30926200


--------------------------------------------------------------------------------------------------------




----------------------------------------- Iteration    1(  84)  ---------------------------------------


    POTLOK:  cpu time    5.01: real time   10.19
    SETDIJ:  cpu time    5.38: real time   10.85
     EDDAV:  cpu time    1.62: real time    3.23
       DOS:  cpu time    0.00: real time    0.00
    CHARGE:  cpu time    4.03: real time    8.03
    MIXING:  cpu time    1.69: real time    3.36
    --------------------------------------------
      LOOP:  cpu time   17.74: real time   35.67

 eigenvalue-minimisations  :    40
 total energy-change (2. order) : 0.1345453E-04  (-0.4275240E-07)
 number of electron      18.0000000 magnetization       3.9999702
 augmentation part        6.6679641 magnetization       1.9006110

 Broyden mixing:
  rms(total) = 0.20199E-01    rms(broyden)= 0.20199E-01
  rms(prec ) = 0.20533E-01
  weight for this iteration     100.00

 eigenvalues of (default mixing * dielectric matrix)
  average eigenvalue GAMMA=   8.1408
 51.3578 43.5272 40.1166 30.4246 30.4246 19.1567 19.1567 14.1324 10.9745 10.9745
 10.4903  9.8609  9.6454  4.1710  3.7858  3.7858  2.9506  2.9506  0.8956  0.8956
  0.4513  1.3501  0.9089  0.9089  0.0037  0.0492  1.1743  1.0597  1.0597  0.5985
  0.5985  0.3539  0.3539  0.7669  0.7669  0.5596  0.5596  0.6624  0.6624  0.6657
  0.5805

 Free energy of the ion-electron system (eV)
  ---------------------------------------------------
  alpha Z        PSCENC =         0.64027230
  Ewald energy   TEWEN  =       126.18696251
  -Hartree energ DENC   =     -1287.48737939
  -exchange      EXHF   =         0.00000000
  -V(xc)+E(xc)   XCENC  =       -93.91721650
  PAW double counting   =      1402.81554032    -1274.95386466
  entropy T*S    EENTRO =        -0.00280254
  eigenvalues    EBANDS =      -112.42382344
  atomic energy  EATOM  =      1232.83166263
  ---------------------------------------------------
  free energy    TOTEN  =        -6.31064877 eV

  energy without entropy =       -6.30784623  energy(sigma->0) =       -6.30924750


--------------------------------------------------------------------------------------------------------




----------------------------------------- Iteration    1(  85)  ---------------------------------------


    POTLOK:  cpu time    5.50: real time   10.76
    SETDIJ:  cpu time    4.84: real time    9.64
     EDDAV:  cpu time    1.62: real time    3.21
       DOS:  cpu time    0.00: real time    0.00
    CHARGE:  cpu time    4.02: real time    7.99
    MIXING:  cpu time    2.09: real time    4.23
    --------------------------------------------
      LOOP:  cpu time   18.08: real time   35.84

 eigenvalue-minimisations  :    34
 total energy-change (2. order) :-0.1237256E-04  (-0.3221873E-07)
 number of electron      18.0000000 magnetization       3.9999730
 augmentation part        6.6679633 magnetization       1.9006151

 Broyden mixing:
  rms(total) = 0.21325E-01    rms(broyden)= 0.21325E-01
  rms(prec ) = 0.21677E-01
  weight for this iteration     100.00

 eigenvalues of (default mixing * dielectric matrix)
  average eigenvalue GAMMA=   8.0409
 51.0295 45.0491 41.1833 30.5654 30.5654 19.1308 19.1308 14.5478 11.0231 10.7924
 10.4874  9.8450  9.8450  3.6421  3.9611  3.9611  2.8518  2.8518  1.1081  1.1081
  1.7036  0.9805  0.9805  0.1258  1.1461  1.1461  0.0106  0.3591  0.3591  1.0164
  0.6105  0.6105  0.7722  0.7722  0.7224  0.7224  0.3591  0.3591  0.6115  0.6115
  0.4786  0.5795

 Free energy of the ion-electron system (eV)
  ---------------------------------------------------
  alpha Z        PSCENC =         0.64027230
  Ewald energy   TEWEN  =       126.18696251
  -Hartree energ DENC   =     -1287.48732003
  -exchange      EXHF   =         0.00000000
  -V(xc)+E(xc)   XCENC  =       -93.91722571
  PAW double counting   =      1402.81598635    -1274.95432524
  entropy T*S    EENTRO =        -0.00280049
  eigenvalues    EBANDS =      -112.42387347
  atomic energy  EATOM  =      1232.83166263
  ---------------------------------------------------
  free energy    TOTEN  =        -6.31066114 eV

  energy without entropy =       -6.30786066  energy(sigma->0) =       -6.30926090


--------------------------------------------------------------------------------------------------------




----------------------------------------- Iteration    1(  86)  ---------------------------------------


    POTLOK:  cpu time    5.00: real time   10.03
    SETDIJ:  cpu time    4.79: real time    9.58
     EDDAV:  cpu time    1.76: real time    3.50
       DOS:  cpu time    0.00: real time    0.00
    CHARGE:  cpu time    4.07: real time    8.12
    MIXING:  cpu time    2.32: real time    4.64
    --------------------------------------------
      LOOP:  cpu time   17.94: real time   35.86

 eigenvalue-minimisations  :    34
 total energy-change (2. order) : 0.1230403E-04  (-0.3013264E-07)
 number of electron      18.0000000 magnetization       3.9999729
 augmentation part        6.6679652 magnetization       1.9006138

 Broyden mixing:
  rms(total) = 0.20393E-01    rms(broyden)= 0.20393E-01
  rms(prec ) = 0.20729E-01
  weight for this iteration     100.00

 eigenvalues of (default mixing * dielectric matrix)
  average eigenvalue GAMMA=   7.8961
 50.9723 45.3386 41.3497 30.1552 30.1552 19.4667 19.4667 14.5927  3.6972 10.8953
 10.8953 10.4032  9.9501  9.9501  4.2708  4.2708  3.0514  3.0514  1.6989  0.1340
  0.4588  0.4588  1.0734  1.0734  0.9335  0.9335  0.0096  1.0800  1.0503  1.0503
  0.6284  0.6284  0.3629  0.3629  0.3728  0.7710  0.7710  0.7030  0.7030  0.6357
  0.6357  0.4903  0.5778

 Free energy of the ion-electron system (eV)
  ---------------------------------------------------
  alpha Z        PSCENC =         0.64027230
  Ewald energy   TEWEN  =       126.18696251
  -Hartree energ DENC   =     -1287.48723785
  -exchange      EXHF   =         0.00000000
  -V(xc)+E(xc)   XCENC  =       -93.91722146
  PAW double counting   =      1402.81631061    -1274.95465463
  entropy T*S    EENTRO =        -0.00280219
  eigenvalues    EBANDS =      -112.42394075
  atomic energy  EATOM  =      1232.83166263
  ---------------------------------------------------
  free energy    TOTEN  =        -6.31064884 eV

  energy without entropy =       -6.30784665  energy(sigma->0) =       -6.30924775


--------------------------------------------------------------------------------------------------------




----------------------------------------- Iteration    1(  87)  ---------------------------------------


    POTLOK:  cpu time    4.88: real time    9.96
    SETDIJ:  cpu time    4.80: real time    9.57
     EDDAV:  cpu time    1.66: real time    3.33
       DOS:  cpu time    0.00: real time    0.00
    CHARGE:  cpu time    4.54: real time    8.94
    MIXING:  cpu time    1.62: real time    3.47
    --------------------------------------------
      LOOP:  cpu time   17.50: real time   35.27

 eigenvalue-minimisations  :    34
 total energy-change (2. order) :-0.9758382E-05  (-0.1906988E-07)
 number of electron      18.0000000 magnetization       3.9999770
 augmentation part        6.6679644 magnetization       1.9006187

 Broyden mixing:
  rms(total) = 0.21248E-01    rms(broyden)= 0.21248E-01
  rms(prec ) = 0.21598E-01
  weight for this iteration     100.00

 eigenvalues of (default mixing * dielectric matrix)
  average eigenvalue GAMMA=   7.7189
 51.3115 44.8159 42.2631 29.5980 29.5980 19.8189 16.4934 16.4934  9.9400  9.9400
 10.4021 10.8121 10.8121  3.0903  4.1806  4.1806  3.0811  3.0811  0.8409  0.8409
  1.6063  1.3137  1.3137  0.1401  1.0981  1.0981  0.0154  0.6994  0.6994  1.0908
  1.0315  1.0315  0.3173  0.3173  0.4536  0.4536  0.7380  0.7380  0.7591  0.7591
  0.6362  0.6362  0.5153  0.5777

 Free energy of the ion-electron system (eV)
  ---------------------------------------------------
  alpha Z        PSCENC =         0.64027230
  Ewald energy   TEWEN  =       126.18696251
  -Hartree energ DENC   =     -1287.48719453
  -exchange      EXHF   =         0.00000000
  -V(xc)+E(xc)   XCENC  =       -93.91722944
  PAW double counting   =      1402.81679116    -1274.95514535
  entropy T*S    EENTRO =        -0.00280063
  eigenvalues    EBANDS =      -112.42397724
  atomic energy  EATOM  =      1232.83166263
  ---------------------------------------------------
  free energy    TOTEN  =        -6.31065860 eV

  energy without entropy =       -6.30785797  energy(sigma->0) =       -6.30925828


--------------------------------------------------------------------------------------------------------




----------------------------------------- Iteration    1(  88)  ---------------------------------------


    POTLOK:  cpu time    4.61: real time    9.44
    SETDIJ:  cpu time    5.18: real time   10.53
     EDDAV:  cpu time    1.73: real time    3.45
       DOS:  cpu time    0.00: real time    0.00
    CHARGE:  cpu time    4.14: real time    8.29
    MIXING:  cpu time    1.88: real time    3.80
    --------------------------------------------
      LOOP:  cpu time   17.54: real time   35.52

 eigenvalue-minimisations  :    34
 total energy-change (2. order) : 0.9615888E-05  (-0.1667001E-07)
 number of electron      18.0000000 magnetization       3.9999930
 augmentation part        6.6679662 magnetization       1.9006336

 Broyden mixing:
  rms(total) = 0.20436E-01    rms(broyden)= 0.20436E-01
  rms(prec ) = 0.20773E-01
  weight for this iteration     100.00

 eigenvalues of (default mixing * dielectric matrix)
  average eigenvalue GAMMA=   8.3840
 52.1084 42.1849 43.0605 28.6848 28.6848 19.0986 16.6140 16.6140  3.2588 11.1970
 10.0172 10.0172 10.3698 10.4538  5.1933  5.1933  4.2196  1.9692  1.9692  1.3032
  1.3032  1.2863  0.0705  0.0074  0.3884  0.3884  1.0610  1.0610  0.6893  0.6893
  0.8784  0.8784  0.3645  0.3645  0.8265  0.4448  0.6321  0.6321  0.5904  0.5904

 Free energy of the ion-electron system (eV)
  ---------------------------------------------------
  alpha Z        PSCENC =         0.64027230
  Ewald energy   TEWEN  =       126.18696251
  -Hartree energ DENC   =     -1287.48714072
  -exchange      EXHF   =         0.00000000
  -V(xc)+E(xc)   XCENC  =       -93.91722609
  PAW double counting   =      1402.81732185    -1274.95568188
  entropy T*S    EENTRO =        -0.00280211
  eigenvalues    EBANDS =      -112.42401748
  atomic energy  EATOM  =      1232.83166263
  ---------------------------------------------------
  free energy    TOTEN  =        -6.31064898 eV

  energy without entropy =       -6.30784687  energy(sigma->0) =       -6.30924793


--------------------------------------------------------------------------------------------------------




----------------------------------------- Iteration    1(  89)  ---------------------------------------


    POTLOK:  cpu time    4.37: real time    8.81
    SETDIJ:  cpu time    5.29: real time   10.59
     EDDAV:  cpu time    1.97: real time    3.94
       DOS:  cpu time    0.00: real time    0.00
    CHARGE:  cpu time    4.17: real time    8.39
    MIXING:  cpu time    1.15: real time    2.31
    --------------------------------------------
      LOOP:  cpu time   16.95: real time   34.04

 eigenvalue-minimisations  :    34
 total energy-change (2. order) :-0.8293935E-05  (-0.1500164E-07)
 number of electron      18.0000000 magnetization       4.0000123
 augmentation part        6.6679645 magnetization       1.9006524

 Broyden mixing:
  rms(total) = 0.21028E-01    rms(broyden)= 0.21028E-01
  rms(prec ) = 0.21376E-01
  weight for this iteration     100.00

 eigenvalues of (default mixing * dielectric matrix)
  average eigenvalue GAMMA=   8.3944
 52.1443 42.1887 43.2909 30.8301 30.8301 19.1997 16.0968 16.0968  5.9413 11.5356
  9.9377  9.9377 10.3570 10.4585  5.2534  5.2534  4.6916  2.0153  2.0153  1.2512
  1.2512  1.5425  0.1929  0.9361  0.9361  0.0335  0.0335  1.0788  1.0788  0.9246
  0.9246  0.2909  0.7006  0.7006  0.4126  0.4352  0.6063  0.6063  0.8266  0.6363
  0.6990

 Free energy of the ion-electron system (eV)
  ---------------------------------------------------
  alpha Z        PSCENC =         0.64027230
  Ewald energy   TEWEN  =       126.18696251
  -Hartree energ DENC   =     -1287.48725155
  -exchange      EXHF   =         0.00000000
  -V(xc)+E(xc)   XCENC  =       -93.91722761
  PAW double counting   =      1402.81878390    -1274.95714473
  entropy T*S    EENTRO =        -0.00280104
  eigenvalues    EBANDS =      -112.42391369
  atomic energy  EATOM  =      1232.83166263
  ---------------------------------------------------
  free energy    TOTEN  =        -6.31065728 eV

  energy without entropy =       -6.30785623  energy(sigma->0) =       -6.30925675


--------------------------------------------------------------------------------------------------------




----------------------------------------- Iteration    1(  90)  ---------------------------------------


    POTLOK:  cpu time    4.89: real time    9.82
    SETDIJ:  cpu time    5.33: real time   10.67
     EDDAV:  cpu time    1.74: real time    3.48
       DOS:  cpu time    0.00: real time    0.00
    CHARGE:  cpu time    3.80: real time    7.44
    MIXING:  cpu time    1.64: real time    3.38
    --------------------------------------------
      LOOP:  cpu time   17.41: real time   34.80

 eigenvalue-minimisations  :    34
 total energy-change (2. order) : 0.6764232E-05  (-0.7301387E-08)
 number of electron      18.0000000 magnetization       4.0000310
 augmentation part        6.6679647 magnetization       1.9006692

 Broyden mixing:
  rms(total) = 0.20221E-01    rms(broyden)= 0.20221E-01
  rms(prec ) = 0.20555E-01
  weight for this iteration     100.00

 eigenvalues of (default mixing * dielectric matrix)
  average eigenvalue GAMMA=   8.3073
 52.4621 44.1016 42.0288 30.6888 30.6888 19.0413 18.0278  7.1610 11.9999 11.9999
 10.7702 10.7702  9.9951  9.9951 10.4206  3.9397  2.9105  1.9830  1.9830  1.8551
  1.8551  1.3060  1.3060  0.2697  0.0392  0.0392  0.1763  1.0596  1.0596  0.7973
  0.7973  0.9395  0.9395  0.4381  0.4381  0.5764  0.5764  0.7727  0.7727  0.6424
  0.6424  0.6416

 Free energy of the ion-electron system (eV)
  ---------------------------------------------------
  alpha Z        PSCENC =         0.64027230
  Ewald energy   TEWEN  =       126.18696251
  -Hartree energ DENC   =     -1287.48737536
  -exchange      EXHF   =         0.00000000
  -V(xc)+E(xc)   XCENC  =       -93.91722054
  PAW double counting   =      1402.82033212    -1274.95868251
  entropy T*S    EENTRO =        -0.00280252
  eigenvalues    EBANDS =      -112.42379915
  atomic energy  EATOM  =      1232.83166263
  ---------------------------------------------------
  free energy    TOTEN  =        -6.31065051 eV

  energy without entropy =       -6.30784800  energy(sigma->0) =       -6.30924925


--------------------------------------------------------------------------------------------------------




----------------------------------------- Iteration    1(  91)  ---------------------------------------


    POTLOK:  cpu time    5.15: real time   10.37
    SETDIJ:  cpu time    5.37: real time   10.80
     EDDAV:  cpu time    1.61: real time    3.23
       DOS:  cpu time    0.01: real time    0.01
    CHARGE:  cpu time    3.65: real time    7.30
    MIXING:  cpu time    1.85: real time    3.70
    --------------------------------------------
      LOOP:  cpu time   17.63: real time   35.41

 eigenvalue-minimisations  :    34
 total energy-change (2. order) :-0.7566039E-05  (-0.1646674E-07)
 number of electron      18.0000000 magnetization       4.0000468
 augmentation part        6.6679624 magnetization       1.9006839

 Broyden mixing:
  rms(total) = 0.20420E-01    rms(broyden)= 0.20420E-01
  rms(prec ) = 0.20758E-01
  weight for this iteration     100.00

 eigenvalues of (default mixing * dielectric matrix)
  average eigenvalue GAMMA=   8.2596
 52.3120 43.9731 42.2727 36.5696 31.2290 19.2820 19.2820  6.9016 11.0741 11.0741
 10.8089 10.8089 10.4730  9.9964  9.9964  3.9713  2.6591  2.0123  2.0123  1.8095
  1.8095  1.4495  1.4495  0.0595  0.0595  0.0190  0.4021  0.4021  0.6461  0.6461
  1.0819  1.0819  1.0288  0.8884  0.8884  0.7408  0.7408  0.4140  0.4140  0.5501
  0.5501  0.6256  0.6983

 Free energy of the ion-electron system (eV)
  ---------------------------------------------------
  alpha Z        PSCENC =         0.64027230
  Ewald energy   TEWEN  =       126.18696251
  -Hartree energ DENC   =     -1287.48763023
  -exchange      EXHF   =         0.00000000
  -V(xc)+E(xc)   XCENC  =       -93.91721795
  PAW double counting   =      1402.82222148    -1274.96055250
  entropy T*S    EENTRO =        -0.00280218
  eigenvalues    EBANDS =      -112.42357414
  atomic energy  EATOM  =      1232.83166263
  ---------------------------------------------------
  free energy    TOTEN  =        -6.31065808 eV

  energy without entropy =       -6.30785590  energy(sigma->0) =       -6.30925699


--------------------------------------------------------------------------------------------------------




----------------------------------------- Iteration    1(  92)  ---------------------------------------


    POTLOK:  cpu time    5.39: real time   10.92
    SETDIJ:  cpu time    5.07: real time   10.12
     EDDAV:  cpu time    1.01: real time    2.02
       DOS:  cpu time    0.00: real time    0.00
    CHARGE:  cpu time    3.90: real time    7.75
    MIXING:  cpu time    1.64: real time    3.28
    --------------------------------------------
      LOOP:  cpu time   17.02: real time   34.10

 eigenvalue-minimisations  :    28
 total energy-change (2. order) : 0.3537187E-05  (-0.1827182E-08)
 number of electron      18.0000000 magnetization       4.0000389
 augmentation part        6.6679613 magnetization       1.9006746

 Broyden mixing:
  rms(total) = 0.19046E-01    rms(broyden)= 0.19046E-01
  rms(prec ) = 0.19360E-01
  weight for this iteration     100.00

 eigenvalues of (default mixing * dielectric matrix)
  average eigenvalue GAMMA=   8.1486
 52.2802 44.1681 42.2405 40.9852 29.3424 19.8341 18.7322  7.3632  9.2943  9.2943
 11.6560 10.0814 10.0814 10.4756 10.6266  4.1551  2.9372  2.9372  1.8078  1.8078
  1.8044  1.8044  1.3595  1.3595  0.0967  0.0161  0.2008  0.2008  0.8650  0.8650
  1.0514  1.0514  1.0187  0.7406  0.7406  0.3914  0.3914  0.5220  0.5220  0.8182
  0.6747  0.6747  0.6338  0.6338

 Free energy of the ion-electron system (eV)
  ---------------------------------------------------
  alpha Z        PSCENC =         0.64027230
  Ewald energy   TEWEN  =       126.18696251
  -Hartree energ DENC   =     -1287.48815107
  -exchange      EXHF   =         0.00000000
  -V(xc)+E(xc)   XCENC  =       -93.91720152
  PAW double counting   =      1402.82453699    -1274.96280251
  entropy T*S    EENTRO =        -0.00280461
  eigenvalues    EBANDS =      -112.42312926
  atomic energy  EATOM  =      1232.83166263
  ---------------------------------------------------
  free energy    TOTEN  =        -6.31065454 eV

  energy without entropy =       -6.30784993  energy(sigma->0) =       -6.30925224


--------------------------------------------------------------------------------------------------------




----------------------------------------- Iteration    1(  93)  ---------------------------------------


    POTLOK:  cpu time    5.54: real time   11.10
    SETDIJ:  cpu time    4.86: real time    9.75
     EDDAV:  cpu time    2.04: real time    4.08
       DOS:  cpu time    0.00: real time    0.00
    CHARGE:  cpu time    3.99: real time    7.99
    MIXING:  cpu time    1.81: real time    3.60
    --------------------------------------------
      LOOP:  cpu time   18.24: real time   36.53

 eigenvalue-minimisations  :    48
 total energy-change (2. order) :-0.1144907E-04  (-0.7066903E-07)
 number of electron      18.0000000 magnetization       4.0000262
 augmentation part        6.6679583 magnetization       1.9006613

 Broyden mixing:
  rms(total) = 0.18930E-01    rms(broyden)= 0.18930E-01
  rms(prec ) = 0.19243E-01
  weight for this iteration     100.00

 eigenvalues of (default mixing * dielectric matrix)
  average eigenvalue GAMMA=   8.8979
 53.1079 44.3410 43.5049 43.5049 19.7366 18.4573 18.4573 14.6010 14.6010  5.6830
 11.7447 10.7444 10.5285 10.0063 10.0063  4.4290  2.9348  1.4592  1.4592  1.7370
  1.7370  1.6386  0.1275  0.1275  0.0404  1.1495  0.3311  0.7832  0.7832  0.5866
  0.5866  0.8739  0.8739  0.9915  0.4580  0.8427  0.7610  0.7610  0.7084  0.7084

 Free energy of the ion-electron system (eV)
  ---------------------------------------------------
  alpha Z        PSCENC =         0.64027230
  Ewald energy   TEWEN  =       126.18696251
  -Hartree energ DENC   =     -1287.48871804
  -exchange      EXHF   =         0.00000000
  -V(xc)+E(xc)   XCENC  =       -93.91719195
  PAW double counting   =      1402.82626607    -1274.96448637
  entropy T*S    EENTRO =        -0.00280484
  eigenvalues    EBANDS =      -112.42262830
  atomic energy  EATOM  =      1232.83166263
  ---------------------------------------------------
  free energy    TOTEN  =        -6.31066599 eV

  energy without entropy =       -6.30786115  energy(sigma->0) =       -6.30926357


--------------------------------------------------------------------------------------------------------




----------------------------------------- Iteration    1(  94)  ---------------------------------------


    POTLOK:  cpu time    5.89: real time   11.57
    SETDIJ:  cpu time    4.61: real time    9.27
     EDDAV:  cpu time    1.76: real time    3.45
       DOS:  cpu time    0.00: real time    0.00
    --------------------------------------------
      LOOP:  cpu time   12.27: real time   24.30

 eigenvalue-minimisations  :    34
 total energy-change (2. order) :-0.2793597E-06  (-0.1101119E-07)
 number of electron      18.0000000 magnetization       4.0000262
 augmentation part        6.6679583 magnetization       1.9006613

 Free energy of the ion-electron system (eV)
  ---------------------------------------------------
  alpha Z        PSCENC =         0.64027230
  Ewald energy   TEWEN  =       126.18696251
  -Hartree energ DENC   =     -1287.48982790
  -exchange      EXHF   =         0.00000000
  -V(xc)+E(xc)   XCENC  =       -93.91716761
  PAW double counting   =      1402.82831586    -1274.96640167
  entropy T*S    EENTRO =        -0.00280785
  eigenvalues    EBANDS =      -112.42167453
  atomic energy  EATOM  =      1232.83166263
  ---------------------------------------------------
  free energy    TOTEN  =        -6.31066627 eV

  energy without entropy =       -6.30785842  energy(sigma->0) =       -6.30926234


--------------------------------------------------------------------------------------------------------




 average (electrostatic) potential at core
  the test charge radii are     1.1806
  (the norm of the test charge is              1.0000)
       1 -76.9033       2 -76.9033
 
 
 
 E-fermi :  -4.6903     XC(G=0):  -0.3227     alpha+bet : -0.0947


 spin component 1

 k-point     1 :       0.0000    0.0000    0.0000
  band No.  band energies     occupation 
      1      -8.6883      1.00000
      2      -7.9473      1.00000
      3      -7.9473      1.00000
      4      -6.4474      1.00000
      5      -6.4346      1.00000
      6      -5.9013      1.00000
      7      -5.8874      1.00000
      8      -5.7327      1.00000
      9      -5.7327      1.00000
     10      -5.5158      1.00000
     11      -5.2087      1.00000
     12      -3.1820      0.00000
     13      -1.2490      0.00000
     14      -1.2490      0.00000

 spin component 2

 k-point     1 :       0.0000    0.0000    0.0000
  band No.  band energies     occupation 
      1      -7.5465      1.00000
      2      -6.6850      1.00000
      3      -6.6850      1.00000
      4      -5.3146      1.00000
      5      -5.3141      1.00000
      6      -4.7427      1.00000
      7      -4.6907      0.53843
      8      -4.6900      0.46157
      9      -4.1998      0.00000
     10      -4.1998      0.00000
     11      -4.1368      0.00000
     12      -2.5023      0.00000
     13      -1.0542      0.00000
     14      -1.0542      0.00000


--------------------------------------------------------------------------------------------------------


 soft charge-density along one line, spin component           1
         0         1         2         3         4         5         6         7         8         9
 total charge-density along one line
 
 soft charge-density along one line, spin component           2
         0         1         2         3         4         5         6         7         8         9
 total charge-density along one line
 
 pseudopotential strength for first ion, spin component:           1
-10.326   0.000  -0.000   0.000   0.000   0.000  -0.000   0.000  -0.000   0.000 -10.044   0.000  -0.000   0.000   0.000   0.000
 -0.000   0.000 -10.619   0.000  -0.000   0.000  -0.000   0.000   0.000   0.000  -0.000   0.000 -10.318   0.000  -0.000   0.000
  0.000   0.000  -0.000   0.000 -10.680   0.000  -0.000   0.000   0.000   0.000   0.000   0.000  -0.000   0.000 -10.376   0.000
 -0.000   0.000  -0.000   0.000  -0.000   0.000 -10.619   0.000  -0.000   0.000  -0.000   0.000  -0.000   0.000  -0.000   0.000
 -0.000   0.000   0.000   0.000   0.000   0.000  -0.000   0.000 -10.313   0.000  -0.000   0.000   0.000   0.000   0.000   0.000
-10.044   0.000  -0.000   0.000   0.000   0.000  -0.000   0.000  -0.000   0.000  -9.751   0.000  -0.000   0.000   0.000   0.000
 -0.000   0.000 -10.318   0.000  -0.000   0.000  -0.000   0.000   0.000   0.000  -0.000   0.000 -10.008   0.000  -0.000   0.000
  0.000   0.000  -0.000   0.000 -10.376   0.000  -0.000   0.000   0.000   0.000   0.000   0.000  -0.000   0.000 -10.062   0.000
 -0.000   0.000  -0.000   0.000  -0.000   0.000 -10.318   0.000  -0.000   0.000  -0.000   0.000  -0.000   0.000  -0.000   0.000
 -0.000   0.000   0.000   0.000   0.000   0.000  -0.000   0.000 -10.032   0.000  -0.000   0.000   0.000   0.000   0.000   0.000
  0.000   0.000   0.000   0.000   0.094   0.000   0.000   0.000   0.000   0.000   0.000   0.000   0.000   0.000   0.090   0.000
 -0.000   0.000  -0.000   0.000  -0.150   0.000  -0.000   0.000  -0.000   0.000  -0.000   0.000  -0.000   0.000  -0.142   0.000
 -0.000   0.000  -0.028   0.000   0.000   0.000  -0.000   0.000  -0.000   0.000  -0.000   0.000  -0.027   0.000   0.000   0.000
 -0.000   0.000   0.000   0.000  -0.015   0.000   0.000   0.000  -0.000   0.000  -0.000   0.000   0.000   0.000  -0.014   0.000
 -0.000   0.000  -0.000   0.000   0.000   0.000  -0.028   0.000   0.000   0.000  -0.000   0.000  -0.000   0.000   0.000   0.000
 -0.000   0.000   0.001   0.000  -0.000   0.000   0.000   0.000   0.000   0.000  -0.000   0.000   0.001   0.000  -0.000   0.000
  0.000   0.000  -0.000   0.000  -0.002   0.000  -0.000   0.000   0.000   0.000   0.000   0.000  -0.000   0.000  -0.002   0.000
 -0.000   0.000   0.000   0.000  -0.000   0.000   0.001   0.000  -0.000   0.000  -0.000   0.000   0.000   0.000  -0.000   0.000
  0.000   0.000   0.000   0.000   0.000   0.000   0.000   0.000  -0.000   0.000   0.000   0.000   0.000   0.000   0.000   0.000
  0.049   0.000  -0.000   0.000  -0.000   0.000  -0.000   0.000  -0.000   0.000   0.047   0.000  -0.000   0.000  -0.000   0.000
 -0.000   0.000   0.053   0.000  -0.000   0.000  -0.000   0.000   0.000   0.000  -0.000   0.000   0.051   0.000  -0.000   0.000
 -0.000   0.000   0.000   0.000   0.046   0.000   0.000   0.000  -0.000   0.000  -0.000   0.000   0.000   0.000   0.044   0.000
 -0.000   0.000  -0.000   0.000  -0.000   0.000   0.053   0.000  -0.000   0.000  -0.000   0.000  -0.000   0.000  -0.000   0.000
 -0.000   0.000   0.000   0.000   0.000   0.000  -0.000   0.000   0.049   0.000  -0.000   0.000   0.000   0.000   0.000   0.000
 -0.000   0.000  -0.000   0.000  -0.000   0.000  -0.000   0.000  -0.000   0.000  -0.000   0.000  -0.000   0.000  -0.000   0.000
  0.000   0.000  -0.000   0.000   0.000   0.000  -0.000   0.000   0.000   0.000   0.000   0.000  -0.000   0.000   0.000   0.000
 -0.041   0.000   0.000   0.000  -0.000   0.000   0.000   0.000  -0.000   0.000  -0.038   0.000   0.000   0.000  -0.000   0.000
  0.000   0.000  -0.048   0.000   0.000   0.000  -0.000   0.000   0.000   0.000   0.000   0.000  -0.045   0.000   0.000   0.000
  0.000   0.000  -0.000   0.000  -0.050   0.000  -0.000   0.000   0.000   0.000   0.000   0.000  -0.000   0.000  -0.048   0.000
  0.000   0.000  -0.000   0.000   0.000   0.000  -0.048   0.000  -0.000   0.000   0.000   0.000  -0.000   0.000   0.000   0.000
 -0.000   0.000  -0.000   0.000   0.000   0.000   0.000   0.000  -0.041   0.000  -0.000   0.000  -0.000   0.000   0.000   0.000
 -0.000   0.000   0.000   0.000  -0.000   0.000   0.000   0.000   0.000   0.000  -0.000   0.000   0.000   0.000  -0.000   0.000
 pseudopotential strength for first ion, spin component:           2
 -9.790   0.000  -0.000   0.000   0.000   0.000  -0.000   0.000  -0.000   0.000  -9.541   0.000  -0.000   0.000   0.000   0.000
 -0.000   0.000  -9.950   0.000  -0.000   0.000  -0.000   0.000   0.000   0.000  -0.000   0.000  -9.692   0.000  -0.000   0.000
  0.000   0.000  -0.000   0.000 -10.047   0.000  -0.000   0.000   0.000   0.000   0.000   0.000  -0.000   0.000  -9.783   0.000
 -0.000   0.000  -0.000   0.000  -0.000   0.000  -9.950   0.000  -0.000   0.000  -0.000   0.000  -0.000   0.000  -0.000   0.000
 -0.000   0.000   0.000   0.000   0.000   0.000  -0.000   0.000  -9.790   0.000  -0.000   0.000   0.000   0.000   0.000   0.000
 -9.541   0.000  -0.000   0.000   0.000   0.000  -0.000   0.000  -0.000   0.000  -9.279   0.000  -0.000   0.000   0.000   0.000
 -0.000   0.000  -9.692   0.000  -0.000   0.000  -0.000   0.000   0.000   0.000  -0.000   0.000  -9.421   0.000  -0.000   0.000
  0.000   0.000  -0.000   0.000  -9.783   0.000  -0.000   0.000   0.000   0.000   0.000   0.000  -0.000   0.000  -9.507   0.000
 -0.000   0.000  -0.000   0.000  -0.000   0.000  -9.692   0.000  -0.000   0.000  -0.000   0.000  -0.000   0.000  -0.000   0.000
 -0.000   0.000   0.000   0.000   0.000   0.000  -0.000   0.000  -9.541   0.000  -0.000   0.000   0.000   0.000   0.000   0.000
  0.000   0.000   0.000   0.000   0.038   0.000   0.000   0.000   0.000   0.000   0.000   0.000   0.000   0.000   0.036   0.000
 -0.000   0.000  -0.000   0.000  -0.044   0.000  -0.000   0.000  -0.000   0.000  -0.000   0.000  -0.000   0.000  -0.042   0.000
 -0.000   0.000  -0.034   0.000   0.000   0.000   0.000   0.000  -0.000   0.000  -0.000   0.000  -0.032   0.000   0.000   0.000
  0.000   0.000   0.000   0.000  -0.013   0.000   0.000   0.000  -0.000   0.000   0.000   0.000   0.000   0.000  -0.010   0.000
 -0.000   0.000   0.000   0.000   0.000   0.000  -0.034   0.000   0.000   0.000  -0.000   0.000   0.000   0.000   0.000   0.000
 -0.000   0.000   0.034   0.000  -0.000   0.000  -0.000   0.000   0.000   0.000  -0.000   0.000   0.031   0.000  -0.000   0.000
 -0.000   0.000  -0.000   0.000   0.028   0.000  -0.000   0.000   0.000   0.000  -0.000   0.000  -0.000   0.000   0.025   0.000
 -0.000   0.000  -0.000   0.000  -0.000   0.000   0.034   0.000  -0.000   0.000  -0.000   0.000  -0.000   0.000  -0.000   0.000
  0.000   0.000   0.000   0.000   0.000   0.000  -0.000   0.000  -0.000   0.000   0.000   0.000   0.000   0.000   0.000   0.000
  0.050   0.000  -0.000   0.000  -0.000   0.000  -0.000   0.000  -0.000   0.000   0.047   0.000  -0.000   0.000  -0.000   0.000
 -0.000   0.000   0.052   0.000  -0.000   0.000  -0.000   0.000   0.000   0.000  -0.000   0.000   0.049   0.000  -0.000   0.000
 -0.000   0.000   0.000   0.000   0.045   0.000   0.000   0.000  -0.000   0.000  -0.000   0.000   0.000   0.000   0.043   0.000
 -0.000   0.000  -0.000   0.000  -0.000   0.000   0.052   0.000  -0.000   0.000  -0.000   0.000  -0.000   0.000  -0.000   0.000
 -0.000   0.000   0.000   0.000   0.000   0.000  -0.000   0.000   0.050   0.000  -0.000   0.000   0.000   0.000   0.000   0.000
 -0.000   0.000   0.000   0.000  -0.000   0.000  -0.000   0.000  -0.000   0.000  -0.000   0.000   0.000   0.000  -0.000   0.000
  0.000   0.000  -0.000   0.000   0.000   0.000   0.000   0.000   0.000   0.000   0.000   0.000  -0.000   0.000   0.000   0.000
 -0.060   0.000   0.000   0.000  -0.000   0.000   0.000   0.000  -0.000   0.000  -0.056   0.000   0.000   0.000  -0.000   0.000
  0.000   0.000  -0.072   0.000   0.000   0.000  -0.000   0.000   0.000   0.000   0.000   0.000  -0.068   0.000   0.000   0.000
 -0.000   0.000  -0.000   0.000  -0.076   0.000  -0.000   0.000   0.000   0.000  -0.000   0.000  -0.000   0.000  -0.073   0.000
  0.000   0.000  -0.000   0.000   0.000   0.000  -0.072   0.000  -0.000   0.000   0.000   0.000  -0.000   0.000   0.000   0.000
 -0.000   0.000  -0.000   0.000   0.000   0.000   0.000   0.000  -0.060   0.000  -0.000   0.000  -0.000   0.000   0.000   0.000
 -0.000   0.000  -0.000   0.000  -0.000   0.000   0.000   0.000   0.000   0.000  -0.000   0.000  -0.000   0.000  -0.000   0.000
 total augmentation occupancy for first ion, spin component:           1
  1.917  -0.000  -0.000   0.000   0.000  -0.150   0.000   0.000  -0.000  -0.000   0.000   0.000  -0.000   0.000  -0.000   0.000
  0.000   2.008  -0.000   0.000   0.000   0.000  -0.898   0.000   0.000   0.000   0.000   0.000  -0.139  -0.000   0.000   0.005
 -0.000  -0.000   2.840   0.000   0.000   0.000  -0.000  -2.005   0.000   0.000  -1.086  -0.021  -0.000  -0.375   0.000  -0.000
  0.000   0.000   0.000   2.008  -0.000   0.000   0.000  -0.000  -0.898  -0.000   0.000   0.000   0.000   0.000  -0.139   0.000
  0.000   0.000   0.000  -0.000   1.967  -0.000   0.000   0.000   0.000  -0.154   0.000   0.000   0.000   0.000   0.000   0.000
 -0.150   0.000   0.000   0.000  -0.000   0.101   0.000   0.000   0.000   0.000   0.000   0.000  -0.000   0.000  -0.000   0.000
  0.000  -0.898  -0.000   0.000   0.000   0.000   1.292   0.000   0.000   0.000   0.000   0.000   0.201   0.000   0.000   0.003
  0.000   0.000  -2.005  -0.000   0.000   0.000   0.000   2.732   0.000   0.000   1.150   0.006  -0.000   0.525   0.000  -0.000
 -0.000   0.000   0.000  -0.898   0.000   0.000   0.000   0.000   1.292   0.000  -0.000  -0.000   0.000  -0.000   0.201   0.000
  0.000   0.000   0.000   0.000  -0.154   0.000   0.000   0.000   0.000   0.102   0.000  -0.000   0.000   0.000  -0.000  -0.000
  0.000   0.000  -1.086   0.000   0.000   0.000   0.000   1.150  -0.000   0.000   1.375   0.007   0.000   0.285  -0.000   0.000
  0.000   0.000  -0.021   0.000   0.000   0.000   0.000   0.006  -0.000  -0.000   0.007   0.000   0.000   0.001   0.000   0.000
 -0.000  -0.139  -0.000   0.000   0.000  -0.000   0.201  -0.000   0.000   0.000   0.000   0.000   0.031  -0.000   0.000   0.000
  0.000  -0.000  -0.375   0.000   0.000   0.000   0.000   0.525  -0.000   0.000   0.285   0.001  -0.000   0.107   0.000   0.000
 -0.000   0.000   0.000  -0.139   0.000  -0.000   0.000   0.000   0.201  -0.000  -0.000   0.000   0.000   0.000   0.031   0.000
  0.000   0.005  -0.000   0.000   0.000   0.000   0.003  -0.000   0.000  -0.000   0.000   0.000   0.000   0.000   0.000   0.000
  0.000  -0.000   0.002   0.000   0.000  -0.000   0.000   0.005  -0.000   0.000   0.003  -0.000   0.000   0.001  -0.000  -0.000
  0.000   0.000   0.000   0.005  -0.000   0.000   0.000  -0.000   0.003   0.000   0.000  -0.000   0.000   0.000   0.000   0.000
 -0.000  -0.000  -0.000   0.000  -0.000   0.000  -0.000  -0.000   0.000  -0.000   0.000  -0.000  -0.000  -0.000   0.000  -0.000
 -0.012   0.000   0.000   0.000   0.000   0.012   0.000  -0.000   0.000  -0.000   0.000   0.000   0.000   0.000  -0.000   0.000
 -0.000  -0.077   0.000   0.000   0.000  -0.000   0.125   0.000   0.000   0.000   0.000  -0.000   0.019   0.000   0.000   0.000
 -0.000   0.000  -0.149   0.000   0.000   0.000  -0.000   0.219   0.000  -0.000   0.056   0.000   0.000   0.039   0.000   0.000
 -0.000   0.000  -0.000  -0.077  -0.000  -0.000   0.000   0.000   0.125   0.000  -0.000  -0.000   0.000  -0.000   0.019   0.000
  0.000   0.000   0.000   0.000  -0.014  -0.000   0.000   0.000  -0.000   0.013   0.000   0.000   0.000  -0.000   0.000   0.000
  0.000   0.000   0.000   0.000   0.000  -0.000   0.000  -0.000   0.000   0.000  -0.000   0.000   0.000  -0.000   0.000   0.000
 -0.000  -0.000  -0.000   0.000  -0.000  -0.000   0.000   0.000   0.000   0.000   0.000   0.000   0.000  -0.000   0.000  -0.000
  0.001  -0.000  -0.000   0.000   0.000   0.004   0.000   0.000   0.000   0.000   0.000   0.000   0.000  -0.000   0.000  -0.000
 -0.000  -0.022   0.000   0.000  -0.000   0.000   0.044  -0.000   0.000   0.000   0.000   0.000   0.007   0.000   0.000   0.000
  0.000  -0.000  -0.048   0.000   0.000   0.000  -0.000   0.076   0.000   0.000   0.019   0.000   0.000   0.014   0.000  -0.000
  0.000   0.000  -0.000  -0.022  -0.000   0.000   0.000  -0.000   0.044   0.000   0.000   0.000   0.000  -0.000   0.007   0.000
  0.000   0.000   0.000  -0.000   0.001   0.000   0.000   0.000   0.000   0.004   0.000   0.000   0.000   0.000   0.000  -0.000
  0.000  -0.000  -0.000   0.000  -0.000   0.000   0.000   0.000  -0.000   0.000  -0.000  -0.000   0.000   0.000  -0.000   0.000
 total augmentation occupancy for first ion, spin component:           2
  0.635   0.000   0.000  -0.000   0.000  -0.184  -0.000   0.000   0.000   0.000   0.000   0.000   0.000   0.000   0.000  -0.000
 -0.000   2.008  -0.000   0.000  -0.000  -0.000  -0.897  -0.000   0.000  -0.000  -0.000   0.000  -0.139   0.000   0.000   0.005
  0.000  -0.000   2.419   0.000   0.000  -0.000   0.000  -1.254   0.000   0.000  -0.383  -0.020   0.000  -0.184  -0.000   0.000
  0.000   0.000   0.000   2.008  -0.000   0.000   0.000  -0.000  -0.897   0.000   0.000  -0.000   0.000   0.000  -0.139   0.000
  0.000  -0.000   0.000  -0.000   0.542   0.000  -0.000   0.000  -0.000  -0.157   0.000   0.000   0.000   0.000   0.000  -0.000
 -0.184  -0.000  -0.000   0.000   0.000   0.016   0.000   0.000  -0.000   0.000   0.000   0.000   0.000   0.000   0.000   0.000
 -0.000  -0.897   0.000   0.000  -0.000   0.000   0.271   0.000   0.000   0.000  -0.000   0.000   0.043   0.000   0.000  -0.002
  0.000  -0.000  -1.254  -0.000   0.000   0.000   0.000   0.523  -0.000   0.000   0.208   0.010   0.000   0.071  -0.000   0.000
  0.000   0.000   0.000  -0.897   0.000  -0.000   0.000  -0.000   0.271  -0.000   0.000  -0.000   0.000   0.000   0.043   0.000
 -0.000  -0.000   0.000  -0.000  -0.157   0.000   0.000   0.000  -0.000   0.012   0.000   0.000   0.000   0.000   0.000   0.000
  0.000  -0.000  -0.383   0.000   0.000   0.000  -0.000   0.208   0.000   0.000   0.092   0.001   0.000   0.005  -0.000   0.000
  0.000   0.000  -0.020  -0.000   0.000   0.000   0.000   0.010  -0.000   0.000   0.001   0.000   0.000   0.001  -0.000   0.000
  0.000  -0.139   0.000   0.000   0.000   0.000   0.043   0.000   0.000   0.000   0.000   0.000   0.007   0.000   0.000  -0.000
  0.000   0.000  -0.184   0.000   0.000   0.000   0.000   0.071   0.000   0.000   0.005   0.001   0.000   0.005  -0.000   0.000
  0.000   0.000  -0.000  -0.139  -0.000   0.000   0.000  -0.000   0.043   0.000  -0.000  -0.000   0.000  -0.000   0.007   0.000
 -0.000   0.005   0.000   0.000  -0.000   0.000  -0.002   0.000   0.000   0.000   0.000   0.000  -0.000   0.000   0.000   0.000
  0.000   0.000   0.004   0.000  -0.000   0.000  -0.000  -0.000   0.000   0.000   0.000  -0.000  -0.000   0.000   0.000   0.000
 -0.000   0.000  -0.000   0.005  -0.000   0.000   0.000  -0.000  -0.002   0.000  -0.000   0.000   0.000   0.000  -0.000   0.000
  0.000  -0.000   0.000   0.000  -0.000   0.000   0.000   0.000   0.000   0.000  -0.000   0.000   0.000   0.000   0.000   0.000
 -0.017   0.000   0.000   0.000   0.000   0.002   0.000   0.000   0.000   0.000   0.000   0.000   0.000   0.000  -0.000   0.000
 -0.000  -0.077  -0.000   0.000   0.000   0.000   0.026  -0.000   0.000   0.000   0.000   0.000   0.004   0.000   0.000  -0.000
  0.000   0.000  -0.106   0.000   0.000   0.000   0.000   0.048  -0.000   0.000   0.017   0.001  -0.000   0.008  -0.000  -0.000
 -0.000   0.000   0.000  -0.077   0.000   0.000   0.000  -0.000   0.026   0.000   0.000   0.000   0.000  -0.000   0.004   0.000
  0.000   0.000   0.000   0.000  -0.015   0.000  -0.000   0.000  -0.000   0.001   0.000   0.000   0.000   0.000   0.000  -0.000
  0.000  -0.000  -0.000   0.000  -0.000  -0.000   0.000   0.000  -0.000   0.000  -0.000  -0.000   0.000   0.000  -0.000   0.000
  0.000  -0.000   0.000  -0.000   0.000  -0.000   0.000   0.000   0.000   0.000   0.000   0.000   0.000   0.000   0.000   0.000
 -0.004   0.000  -0.000  -0.000   0.000  -0.000   0.000   0.000   0.000   0.000   0.000   0.000   0.000   0.000   0.000   0.000
  0.000  -0.022   0.000   0.000  -0.000  -0.000   0.007  -0.000   0.000   0.000   0.000  -0.000   0.001   0.000   0.000  -0.000
  0.000   0.000  -0.032   0.000   0.000  -0.000   0.000   0.014  -0.000   0.000   0.005   0.000   0.000   0.002   0.000   0.000
  0.000   0.000   0.000  -0.022  -0.000   0.000   0.000  -0.000   0.007   0.000   0.000  -0.000   0.000   0.000   0.001   0.000
 -0.000   0.000   0.000   0.000  -0.004   0.000   0.000  -0.000   0.000  -0.000   0.000  -0.000   0.000   0.000   0.000  -0.000
 -0.000   0.000  -0.000   0.000  -0.000   0.000   0.000  -0.000  -0.000  -0.000   0.000   0.000   0.000   0.000  -0.000   0.000


------------------------ aborting loop because EDIFF is reached ----------------------------------------


 


 total charge     
 
# of ion     s       p       d       f       tot
------------------------------------------------
  1        0.582   0.107   7.527   0.034   8.251
  2        0.582   0.107   7.527   0.034   8.251
------------------------------------------------
tot        1.164   0.215  15.055   0.068  16.501

 


 magnetization (x)
 
# of ion     s       p       d       f       tot
------------------------------------------------
  1        0.039   0.013   1.833   0.007   1.892
  2        0.039   0.013   1.833   0.007   1.892
------------------------------------------------
tot        0.077   0.026   3.666   0.014   3.783

 
    CHARGE:  cpu time    4.41: real time    8.78
    FORLOC:  cpu time    0.06: real time    0.12
    FORNL :  cpu time   20.95: real time   42.32
    FORCOR:  cpu time    9.09: real time   18.66
    FORHAR:  cpu time    0.75: real time    1.54
    MIXING:  cpu time    1.71: real time    3.52
    OFIELD:  cpu time    0.00: real time    0.00

 VOLUME and BASIS-vectors are now :
 -----------------------------------------------------------------------------
  energy-cutoff  :      500.00
  volume of cell :     4913.00
      direct lattice vectors                 reciprocal lattice vectors
    17.000000000  0.000000000  0.000000000     0.058823529  0.000000000  0.000000000
     0.000000000 17.000000000  0.000000000     0.000000000  0.058823529  0.000000000
     0.000000000  0.000000000 17.000000000     0.000000000  0.000000000  0.058823529

  length of vectors
    17.000000000 17.000000000 17.000000000     0.058823529  0.058823529  0.058823529


 FORCES acting on ions
    electron-ion (+dipol)            ewald-force                    non-local-force                 convergence-correction
 -----------------------------------------------------------------------------------------------
   0.817E-13 0.800E-12 0.228E+03   -.394E-16 -.393E-16 -.223E+03   0.207E-24 -.414E-24 -.398E+01   -.195E-11 -.257E-11 0.120E-02
   0.974E-13 -.790E-12 -.228E+03   0.691E-16 -.123E-16 0.223E+03   0.207E-24 -.414E-24 0.398E+01   -.218E-11 -.154E-11 -.120E-02
 -----------------------------------------------------------------------------------------------
   0.179E-12 0.104E-13 0.119E-11   0.297E-16 -.516E-16 0.000E+00   0.414E-24 -.827E-24 0.000E+00   -.412E-11 -.411E-11 -.400E-11
 
 
 POSITION                                       TOTAL-FORCE (eV/Angst)
 -----------------------------------------------------------------------------------
      0.00000      0.00000     15.86292         0.000000      0.000000      1.351434
      0.00000      0.00000      1.13708         0.000000      0.000000     -1.351434
 -----------------------------------------------------------------------------------
    total drift:                               -0.000000     -0.000000     -0.000000


--------------------------------------------------------------------------------------------------------



  FREE ENERGIE OF THE ION-ELECTRON SYSTEM (eV)
  ---------------------------------------------------
  free  energy   TOTEN  =        -6.31066627 eV

  energy  without entropy=       -6.30785842  energy(sigma->0) =       -6.30926234
 


--------------------------------------------------------------------------------------------------------


    POTLOK:  cpu time    9.78: real time   19.66


--------------------------------------------------------------------------------------------------------




--------------------------------------------------------------------------------------------------------


    WAVPRE:  cpu time    0.43: real time    0.73
 FEWALD executed in parallel
    FEWALD:  cpu time    0.03: real time    0.05

 real space projection operators:
  total allocation   :       1404.50 KBytes
  max/ min on nodes  :        354.00        344.50

    ORTHCH:  cpu time    0.25: real time    0.53
     LOOP+:  cpu time 1587.22: real time 3197.95


----------------------------------------- Iteration    2(   1)  ---------------------------------------


    POTLOK:  cpu time    5.34: real time   10.70
    SETDIJ:  cpu time    4.80: real time    9.71
     EDDAV:  cpu time    2.14: real time    4.39
       DOS:  cpu time    0.00: real time    0.01
    CHARGE:  cpu time    4.01: real time    8.08
    MIXING:  cpu time    0.11: real time    0.22
    --------------------------------------------
      LOOP:  cpu time   16.39: real time   33.11

 eigenvalue-minimisations  :    56
 total energy-change (2. order) : 0.4930312E-01  (-0.6790817E+01)
 number of electron      17.9999999 magnetization       4.0000218
 augmentation part        6.6831439 magnetization       1.9115957

  free energy =  -0.626136286703E+01  energy without entropy=  -0.625855778390E+01


--------------------------------------------------------------------------------------------------------




----------------------------------------- Iteration    2(   2)  ---------------------------------------


    POTLOK:  cpu time    5.10: real time   10.37
    SETDIJ:  cpu time    4.62: real time    9.55
     EDDAV:  cpu time    2.30: real time    4.70
       DOS:  cpu time    0.00: real time    0.00
    CHARGE:  cpu time    4.31: real time    8.80
    MIXING:  cpu time    0.20: real time    0.42
    --------------------------------------------
      LOOP:  cpu time   16.55: real time   33.86

 eigenvalue-minimisations  :    56
 total energy-change (2. order) :-0.7235244E-01  (-0.6795953E-01)
 number of electron      17.9999999 magnetization       4.0000181
 augmentation part        6.6712233 magnetization       1.8980523

 eigenvalues of (default mixing * dielectric matrix)
  average eigenvalue GAMMA=   1.8270
  1.8270

  free energy =  -0.633371530359E+01  energy without entropy=  -0.633116930885E+01


--------------------------------------------------------------------------------------------------------




----------------------------------------- Iteration    2(   3)  ---------------------------------------


    POTLOK:  cpu time    4.96: real time   10.23
    SETDIJ:  cpu time    4.80: real time    9.36
     EDDAV:  cpu time    2.60: real time    5.29
       DOS:  cpu time    0.00: real time    0.00
    CHARGE:  cpu time    4.40: real time    8.88
    MIXING:  cpu time    0.15: real time    0.30
    --------------------------------------------
      LOOP:  cpu time   16.92: real time   34.07

 eigenvalue-minimisations  :    62
 total energy-change (2. order) :-0.1377170E-01  (-0.2038182E-02)
 number of electron      17.9999999 magnetization       4.0000200
 augmentation part        6.6672465 magnetization       1.8958085

 eigenvalues of (default mixing * dielectric matrix)
  average eigenvalue GAMMA=   1.3776
  1.7046  1.0505

  free energy =  -0.634748700566E+01  energy without entropy=  -0.634742897309E+01


--------------------------------------------------------------------------------------------------------




----------------------------------------- Iteration    2(   4)  ---------------------------------------


    POTLOK:  cpu time    4.63: real time    9.50
    SETDIJ:  cpu time    4.91: real time   10.05
     EDDAV:  cpu time    2.28: real time    4.60
       DOS:  cpu time    0.00: real time    0.00
    CHARGE:  cpu time    4.12: real time    8.39
    MIXING:  cpu time    0.19: real time    0.39
    --------------------------------------------
      LOOP:  cpu time   16.15: real time   32.97

 eigenvalue-minimisations  :    56
 total energy-change (2. order) : 0.1201701E-01  (-0.1287041E-01)
 number of electron      17.9999999 magnetization       3.9999986
 augmentation part        6.6660766 magnetization       1.8956062

 eigenvalues of (default mixing * dielectric matrix)
  average eigenvalue GAMMA=   4.3816
 11.6650  1.0482  0.4318

  free energy =  -0.633546999131E+01  energy without entropy=  -0.633485545806E+01


--------------------------------------------------------------------------------------------------------




----------------------------------------- Iteration    2(   5)  ---------------------------------------


    POTLOK:  cpu time    4.89: real time    9.43
    SETDIJ:  cpu time    5.19: real time   10.42
     EDDAV:  cpu time    2.19: real time    4.47
       DOS:  cpu time    0.00: real time    0.00
    CHARGE:  cpu time    4.55: real time    9.31
    MIXING:  cpu time    0.21: real time    0.44
    --------------------------------------------
      LOOP:  cpu time   17.05: real time   34.09

 eigenvalue-minimisations  :    56
 total energy-change (2. order) :-0.4615138E-01  (-0.6620002E-01)
 number of electron      17.9999999 magnetization       3.9999891
 augmentation part        6.6631603 magnetization       1.8949331

 eigenvalues of (default mixing * dielectric matrix)
  average eigenvalue GAMMA=   3.6379
 11.2400  1.8138  1.0185  0.4792

  free energy =  -0.638162136932E+01  energy without entropy=  -0.638162136932E+01


--------------------------------------------------------------------------------------------------------




----------------------------------------- Iteration    2(   6)  ---------------------------------------


    POTLOK:  cpu time    4.75: real time    9.66
    SETDIJ:  cpu time    5.11: real time   10.29
     EDDAV:  cpu time    2.48: real time    4.98
       DOS:  cpu time    0.00: real time    0.00
    CHARGE:  cpu time    3.84: real time    7.71
    MIXING:  cpu time    0.18: real time    0.37
    --------------------------------------------
      LOOP:  cpu time   16.36: real time   33.03

 eigenvalue-minimisations  :    56
 total energy-change (2. order) : 0.9135362E-02  (-0.3475435E-02)
 number of electron      17.9999999 magnetization       3.9999916
 augmentation part        6.6622158 magnetization       1.8936010

 eigenvalues of (default mixing * dielectric matrix)
  average eigenvalue GAMMA=   4.5871
 12.4553  8.0841  0.4843  1.0208  0.8908

  free energy =  -0.637248600748E+01  energy without entropy=  -0.637248600748E+01


--------------------------------------------------------------------------------------------------------




----------------------------------------- Iteration    2(   7)  ---------------------------------------


    POTLOK:  cpu time    4.53: real time    9.19
    SETDIJ:  cpu time    5.12: real time   10.38
     EDDAV:  cpu time    2.58: real time    5.30
       DOS:  cpu time    0.00: real time    0.00
    CHARGE:  cpu time    3.64: real time    7.34
    MIXING:  cpu time    0.22: real time    0.40
    --------------------------------------------
      LOOP:  cpu time   16.09: real time   32.61

 eigenvalue-minimisations  :    56
 total energy-change (2. order) : 0.1724386E-02  (-0.7766116E-01)
 number of electron      17.9999999 magnetization       3.9999973
 augmentation part        6.6603349 magnetization       1.8934859

 eigenvalues of (default mixing * dielectric matrix)
  average eigenvalue GAMMA=   7.6338
 31.9002 10.2430  0.4838  0.9999  0.9999  1.1759

  free energy =  -0.637076162156E+01  energy without entropy=  -0.637076162156E+01


--------------------------------------------------------------------------------------------------------




----------------------------------------- Iteration    2(   8)  ---------------------------------------


    POTLOK:  cpu time    5.01: real time   10.13
    SETDIJ:  cpu time    5.25: real time   10.55
     EDDAV:  cpu time    2.73: real time    5.45
       DOS:  cpu time    0.00: real time    0.00
    CHARGE:  cpu time    3.60: real time    7.14
    MIXING:  cpu time    0.27: real time    0.54
    --------------------------------------------
      LOOP:  cpu time   16.88: real time   33.85

 eigenvalue-minimisations  :    56
 total energy-change (2. order) :-0.4588560E-01  (-0.3740650E-02)
 number of electron      17.9999999 magnetization       4.0000009
 augmentation part        6.6604391 magnetization       1.8912198

 eigenvalues of (default mixing * dielectric matrix)
  average eigenvalue GAMMA=   8.8825
 43.4251 10.6297  4.6637  0.4837  0.9825  0.9825  1.0103

  free energy =  -0.641664722500E+01  energy without entropy=  -0.641664722500E+01


--------------------------------------------------------------------------------------------------------




----------------------------------------- Iteration    2(   9)  ---------------------------------------


    POTLOK:  cpu time    5.19: real time   10.58
    SETDIJ:  cpu time    5.38: real time   10.54
     EDDAV:  cpu time    2.36: real time    4.74
       DOS:  cpu time    0.00: real time    0.00
    CHARGE:  cpu time    3.90: real time    7.73
    MIXING:  cpu time    0.34: real time    0.75
    --------------------------------------------
      LOOP:  cpu time   17.17: real time   34.36

 eigenvalue-minimisations  :    56
 total energy-change (2. order) : 0.2298812E-01  (-0.4072310E-03)
 number of electron      17.9999999 magnetization       4.0000011
 augmentation part        6.6609276 magnetization       1.8908640

 eigenvalues of (default mixing * dielectric matrix)
  average eigenvalue GAMMA=   8.9787
 49.6327 10.7439  6.8928  0.4837  1.0759  1.0759  0.9625  0.9625

  free energy =  -0.639365910627E+01  energy without entropy=  -0.639365910627E+01


--------------------------------------------------------------------------------------------------------




----------------------------------------- Iteration    2(  10)  ---------------------------------------


    POTLOK:  cpu time    5.13: real time   10.50
    SETDIJ:  cpu time    5.75: real time   11.03
     EDDAV:  cpu time    1.76: real time    3.50
       DOS:  cpu time    0.00: real time    0.00
    CHARGE:  cpu time    3.70: real time    7.40
    MIXING:  cpu time    0.27: real time    0.61
    --------------------------------------------
      LOOP:  cpu time   16.61: real time   33.04

 eigenvalue-minimisations  :    56
 total energy-change (2. order) : 0.4609653E-01  (-0.4036376E-03)
 number of electron      17.9999999 magnetization       4.0000010
 augmentation part        6.6611868 magnetization       1.8909397

 eigenvalues of (default mixing * dielectric matrix)
  average eigenvalue GAMMA=   9.5877
 51.2354 10.6308  9.9672  9.9672  0.4837  1.0465  0.9857  0.9864  0.9864

  free energy =  -0.634756257513E+01  energy without entropy=  -0.634634748650E+01


--------------------------------------------------------------------------------------------------------




----------------------------------------- Iteration    2(  11)  ---------------------------------------


    POTLOK:  cpu time    5.34: real time   10.83
    SETDIJ:  cpu time    5.40: real time   10.81
     EDDAV:  cpu time    1.97: real time    3.95
       DOS:  cpu time    0.00: real time    0.00
    CHARGE:  cpu time    4.15: real time    8.22
    MIXING:  cpu time    0.28: real time    0.56
    --------------------------------------------
      LOOP:  cpu time   17.14: real time   34.38

 eigenvalue-minimisations  :    56
 total energy-change (2. order) :-0.2036541E-02  (-0.4240788E-04)
 number of electron      17.9999999 magnetization       4.0000001
 augmentation part        6.6612330 magnetization       1.8911578

 eigenvalues of (default mixing * dielectric matrix)
  average eigenvalue GAMMA=   9.1591
 48.4830 15.5550 11.8935 10.1825  0.4837  1.0948  0.9890  0.9890  0.9728  0.9482

  free energy =  -0.634959911621E+01  energy without entropy=  -0.634861097768E+01


--------------------------------------------------------------------------------------------------------




----------------------------------------- Iteration    2(  12)  ---------------------------------------


    POTLOK:  cpu time    5.35: real time   10.90
    SETDIJ:  cpu time    4.63: real time    9.80
     EDDAV:  cpu time    2.10: real time    4.21
       DOS:  cpu time    0.00: real time    0.00
    CHARGE:  cpu time    4.02: real time    8.73
    MIXING:  cpu time    0.23: real time    0.48
    --------------------------------------------
      LOOP:  cpu time   16.34: real time   34.14

 eigenvalue-minimisations  :    56
 total energy-change (2. order) :-0.7838462E-02  (-0.2085471E-01)
 number of electron      17.9999999 magnetization       4.0000001
 augmentation part        6.6604608 magnetization       1.8931281

 eigenvalues of (default mixing * dielectric matrix)
  average eigenvalue GAMMA=   8.3725
 48.5656 15.9879 11.6023 10.0799  0.4837  1.0956  0.9889  0.9889  1.0064  0.8407
  0.4570

  free energy =  -0.635743757810E+01  energy without entropy=  -0.635742993561E+01


--------------------------------------------------------------------------------------------------------




----------------------------------------- Iteration    2(  13)  ---------------------------------------


    POTLOK:  cpu time    5.15: real time   10.53
    SETDIJ:  cpu time    4.92: real time   10.11
     EDDAV:  cpu time    2.27: real time    4.48
       DOS:  cpu time    0.00: real time    0.00
    CHARGE:  cpu time    3.95: real time    7.88
    MIXING:  cpu time    0.50: real time    0.99
    --------------------------------------------
      LOOP:  cpu time   16.79: real time   34.00

 eigenvalue-minimisations  :    56
 total energy-change (2. order) : 0.5627636E-03  (-0.2877777E-02)
 number of electron      17.9999999 magnetization       4.0000000
 augmentation part        6.6613066 magnetization       1.8922181

 eigenvalues of (default mixing * dielectric matrix)
  average eigenvalue GAMMA=   7.6792
 48.5745 15.9543 11.6227 10.0818  0.4837  1.0959  0.9894  0.9894  1.0064  0.8420
  0.4761  0.0345

  free energy =  -0.635687481453E+01  energy without entropy=  -0.635634037825E+01


--------------------------------------------------------------------------------------------------------




----------------------------------------- Iteration    2(  14)  ---------------------------------------


    POTLOK:  cpu time    5.63: real time   11.24
    SETDIJ:  cpu time    4.67: real time    9.23
     EDDAV:  cpu time    2.42: real time    4.87
       DOS:  cpu time    0.00: real time    0.00
    CHARGE:  cpu time    4.58: real time    9.22
    MIXING:  cpu time    0.41: real time    0.77
    --------------------------------------------
      LOOP:  cpu time   17.72: real time   35.35

 eigenvalue-minimisations  :    56
 total energy-change (2. order) : 0.4675472E-02  (-0.6893920E-04)
 number of electron      17.9999999 magnetization       3.9999998
 augmentation part        6.6614458 magnetization       1.8921640

 eigenvalues of (default mixing * dielectric matrix)
  average eigenvalue GAMMA=   7.0863
 49.4095 13.0063 10.7616  6.8529  2.9159  2.9159  0.4837  1.1210  1.0369  0.9724
  0.9724  0.9661  0.7070

  free energy =  -0.635219934203E+01  energy without entropy=  -0.635207856340E+01


--------------------------------------------------------------------------------------------------------




----------------------------------------- Iteration    2(  15)  ---------------------------------------


    POTLOK:  cpu time    4.80: real time    9.50
    SETDIJ:  cpu time    5.00: real time   10.02
     EDDAV:  cpu time    2.40: real time    4.81
       DOS:  cpu time    0.00: real time    0.01
    CHARGE:  cpu time    4.17: real time    8.35
    MIXING:  cpu time    0.55: real time    1.11
    --------------------------------------------
      LOOP:  cpu time   16.93: real time   33.79

 eigenvalue-minimisations  :    56
 total energy-change (2. order) : 0.5906970E-02  (-0.3907292E-02)
 number of electron      17.9999999 magnetization       3.9999998
 augmentation part        6.6608218 magnetization       1.8928054

 eigenvalues of (default mixing * dielectric matrix)
  average eigenvalue GAMMA=   6.6852
 49.7178 12.6898 10.8835  7.0122  3.1493  3.1493  0.4837  1.1215  1.0331  0.9725
  0.9725  0.8942  0.7568  0.7568

  free energy =  -0.634629237208E+01  energy without entropy=  -0.634387018544E+01


--------------------------------------------------------------------------------------------------------




----------------------------------------- Iteration    2(  16)  ---------------------------------------


    POTLOK:  cpu time    4.75: real time    9.58
    SETDIJ:  cpu time    5.33: real time   10.72
     EDDAV:  cpu time    2.69: real time    5.43
       DOS:  cpu time    0.00: real time    0.00
    CHARGE:  cpu time    4.22: real time    8.49
    MIXING:  cpu time    0.42: real time    0.85
    --------------------------------------------
      LOOP:  cpu time   17.41: real time   35.08

 eigenvalue-minimisations  :    56
 total energy-change (2. order) :-0.9602091E-02  (-0.1617245E-02)
 number of electron      17.9999999 magnetization       3.9999998
 augmentation part        6.6611759 magnetization       1.8925913

 eigenvalues of (default mixing * dielectric matrix)
  average eigenvalue GAMMA=   6.5813
 49.3965 14.5187 10.9129  8.1837  2.8879  2.8879  0.4837  2.7126  1.0544  1.0544
  1.0604  0.9825  0.9211  0.9211  0.7424

  free energy =  -0.635589446266E+01  energy without entropy=  -0.635349418276E+01


--------------------------------------------------------------------------------------------------------




----------------------------------------- Iteration    2(  17)  ---------------------------------------


    POTLOK:  cpu time    4.71: real time    9.60
    SETDIJ:  cpu time    5.29: real time   10.70
     EDDAV:  cpu time    2.09: real time    4.55
       DOS:  cpu time    0.00: real time    0.02
    CHARGE:  cpu time    3.55: real time    7.38
    MIXING:  cpu time    0.29: real time    0.66
    --------------------------------------------
      LOOP:  cpu time   15.94: real time   32.91

 eigenvalue-minimisations  :    56
 total energy-change (2. order) : 0.2644658E-02  (-0.3745591E-04)
 number of electron      17.9999999 magnetization       3.9999998
 augmentation part        6.6612141 magnetization       1.8926679

 eigenvalues of (default mixing * dielectric matrix)
  average eigenvalue GAMMA=   6.4714
 49.8568 15.2081 11.3227  8.8898  3.4285  3.4285  3.6499  0.4837  1.0489  1.0189
  1.0189  0.9870  0.9228  0.9228  0.7666  0.5881

  free energy =  -0.635324980429E+01  energy without entropy=  -0.635069799641E+01


--------------------------------------------------------------------------------------------------------




----------------------------------------- Iteration    2(  18)  ---------------------------------------


    POTLOK:  cpu time    4.55: real time    9.26
    SETDIJ:  cpu time    5.53: real time   11.09
     EDDAV:  cpu time    2.26: real time    4.57
       DOS:  cpu time    0.00: real time    0.00
    CHARGE:  cpu time    3.80: real time    7.60
    MIXING:  cpu time    0.47: real time    0.97
    --------------------------------------------
      LOOP:  cpu time   16.62: real time   33.49

 eigenvalue-minimisations  :    56
 total energy-change (2. order) :-0.1300865E-02  (-0.2427998E-02)
 number of electron      17.9999999 magnetization       3.9999999
 augmentation part        6.6610639 magnetization       1.8930196

 eigenvalues of (default mixing * dielectric matrix)
  average eigenvalue GAMMA=   6.3895
 50.0902 16.1698 11.1966  8.3377  8.3377  3.0388  3.0388  0.4837  1.1038  1.0355
  1.0355  0.9788  0.9244  0.7479  0.7479  0.6768  0.6768

  free energy =  -0.635455066910E+01  energy without entropy=  -0.635282105571E+01


--------------------------------------------------------------------------------------------------------




----------------------------------------- Iteration    2(  19)  ---------------------------------------


    POTLOK:  cpu time    4.97: real time   10.06
    SETDIJ:  cpu time    5.36: real time   10.71
     EDDAV:  cpu time    2.58: real time    5.16
       DOS:  cpu time    0.00: real time    0.00
    CHARGE:  cpu time    3.21: real time    6.43
    MIXING:  cpu time    0.54: real time    1.08
    --------------------------------------------
      LOOP:  cpu time   16.66: real time   33.44

 eigenvalue-minimisations  :    56
 total energy-change (2. order) : 0.6265133E-03  (-0.1292414E-02)
 number of electron      17.9999999 magnetization       3.9999999
 augmentation part        6.6611557 magnetization       1.8929201

 eigenvalues of (default mixing * dielectric matrix)
  average eigenvalue GAMMA=   6.0626
 50.1086 15.7033 11.3379  8.3630  8.3630  3.0435  3.0435  0.4837  1.0747  1.0394
  1.0394  0.9837  0.8577  0.8607  0.8607  0.7013  0.7013  0.5613

  free energy =  -0.635392415577E+01  energy without entropy=  -0.635111232259E+01


--------------------------------------------------------------------------------------------------------




----------------------------------------- Iteration    2(  20)  ---------------------------------------


    POTLOK:  cpu time    5.31: real time   10.67
    SETDIJ:  cpu time    5.30: real time   10.72
     EDDAV:  cpu time    2.04: real time    4.09
       DOS:  cpu time    0.00: real time    0.00
    CHARGE:  cpu time    3.68: real time    7.35
    MIXING:  cpu time    0.58: real time    1.19
    --------------------------------------------
      LOOP:  cpu time   16.92: real time   34.03

 eigenvalue-minimisations  :    56
 total energy-change (2. order) :-0.1878866E-02  (-0.7671763E-03)
 number of electron      17.9999999 magnetization       3.9999999
 augmentation part        6.6612882 magnetization       1.8929442

 eigenvalues of (default mixing * dielectric matrix)
  average eigenvalue GAMMA=   5.8504
 50.2210 15.9051 11.4394  7.7471  7.7471  3.0440  3.0440  0.4837  1.7651  1.7651
  1.1526  1.0374  1.0374  0.9832  0.9073  0.8422  0.8422  0.6981  0.4958

  free energy =  -0.635580302168E+01  energy without entropy=  -0.635362570061E+01


--------------------------------------------------------------------------------------------------------




----------------------------------------- Iteration    2(  21)  ---------------------------------------


    POTLOK:  cpu time    5.05: real time   10.07
    SETDIJ:  cpu time    5.40: real time   10.42
     EDDAV:  cpu time    1.54: real time    3.04
       DOS:  cpu time    0.00: real time    0.01
    CHARGE:  cpu time    3.62: real time    7.28
    MIXING:  cpu time    0.57: real time    1.29
    --------------------------------------------
      LOOP:  cpu time   16.19: real time   32.11

 eigenvalue-minimisations  :    56
 total energy-change (2. order) : 0.2239090E-02  (-0.1097978E-02)
 number of electron      17.9999999 magnetization       3.9999999
 augmentation part        6.6611956 magnetization       1.8930315

 eigenvalues of (default mixing * dielectric matrix)
  average eigenvalue GAMMA=   6.4106
 50.8424 19.9328 11.9442 10.8192 10.8192  8.1353  2.9526  2.9526  0.4837  1.0047
  1.0047  1.0412  1.0301  0.9952  0.8987  0.8039  0.8039  0.7301  0.3895  0.6287

  free energy =  -0.635356393155E+01  energy without entropy=  -0.635080842354E+01


--------------------------------------------------------------------------------------------------------




----------------------------------------- Iteration    2(  22)  ---------------------------------------


    POTLOK:  cpu time    5.12: real time   10.50
    SETDIJ:  cpu time    5.27: real time   10.61
     EDDAV:  cpu time    2.23: real time    4.47
       DOS:  cpu time    0.00: real time    0.01
    CHARGE:  cpu time    4.04: real time    8.08
    MIXING:  cpu time    0.73: real time    1.46
    --------------------------------------------
      LOOP:  cpu time   17.39: real time   35.13

 eigenvalue-minimisations  :    56
 total energy-change (2. order) :-0.1901369E-02  (-0.9206616E-03)
 number of electron      17.9999999 magnetization       3.9999999
 augmentation part        6.6612932 magnetization       1.8930269

 eigenvalues of (default mixing * dielectric matrix)
  average eigenvalue GAMMA=   6.2490
 50.9198 22.6538 12.1173 10.5390 10.5390  8.1191  2.9923  2.9923  0.4837  1.0573
  1.0573  0.9956  0.9956  0.9949  0.8280  0.8280  0.7736  0.6450  0.6450  0.4543
  0.5975

  free energy =  -0.635546530102E+01  energy without entropy=  -0.635289328058E+01


--------------------------------------------------------------------------------------------------------




----------------------------------------- Iteration    2(  23)  ---------------------------------------


    POTLOK:  cpu time    5.16: real time   10.38
    SETDIJ:  cpu time    4.85: real time    9.73
     EDDAV:  cpu time    2.28: real time    4.57
       DOS:  cpu time    0.00: real time    0.00
    CHARGE:  cpu time    4.17: real time    8.36
    MIXING:  cpu time    0.76: real time    1.53
    --------------------------------------------
      LOOP:  cpu time   17.24: real time   34.58

 eigenvalue-minimisations  :    56
 total energy-change (2. order) : 0.8001292E-03  (-0.8507114E-03)
 number of electron      17.9999999 magnetization       4.0000000
 augmentation part        6.6612636 magnetization       1.8930693

 eigenvalues of (default mixing * dielectric matrix)
  average eigenvalue GAMMA=   6.3461
 50.4672 27.7394 14.9961 10.6561 10.6561  7.5844  3.0712  3.0712  0.4837  0.8926
  0.8926  1.1483  1.0358  0.9805  0.9805  0.9922  0.8150  0.8150  0.7918  0.4507
  0.5466  0.5466

  free energy =  -0.635466517186E+01  energy without entropy=  -0.635194775989E+01


--------------------------------------------------------------------------------------------------------




----------------------------------------- Iteration    2(  24)  ---------------------------------------


    POTLOK:  cpu time    5.00: real time    9.86
    SETDIJ:  cpu time    4.75: real time    9.52
     EDDAV:  cpu time    2.49: real time    5.00
       DOS:  cpu time    0.00: real time    0.00
    CHARGE:  cpu time    4.40: real time    8.79
    MIXING:  cpu time    0.97: real time    1.95
    --------------------------------------------
      LOOP:  cpu time   17.60: real time   35.14

 eigenvalue-minimisations  :    56
 total energy-change (2. order) :-0.3371895E-03  (-0.6641089E-03)
 number of electron      17.9999999 magnetization       4.0000000
 augmentation part        6.6613007 magnetization       1.8930637

 eigenvalues of (default mixing * dielectric matrix)
  average eigenvalue GAMMA=   6.3472
 49.7935 33.5299 15.0420 10.7376 10.7376  7.4266  3.0702  3.0702  0.4837  1.1132
  1.1132  1.1766  1.0378  0.9723  0.9723  0.9850  0.8892  0.7885  0.7885  0.3987
  0.6380  0.6380  0.5833

  free energy =  -0.635500236138E+01  energy without entropy=  -0.635228366603E+01


--------------------------------------------------------------------------------------------------------




----------------------------------------- Iteration    2(  25)  ---------------------------------------


    POTLOK:  cpu time    4.95: real time    9.90
    SETDIJ:  cpu time    4.61: real time    9.24
     EDDAV:  cpu time    2.57: real time    5.15
       DOS:  cpu time    0.00: real time    0.00
    CHARGE:  cpu time    4.01: real time    8.04
    MIXING:  cpu time    0.68: real time    1.43
    --------------------------------------------
      LOOP:  cpu time   16.82: real time   33.79

 eigenvalue-minimisations  :    56
 total energy-change (2. order) :-0.8326844E-04  (-0.5316889E-03)
 number of electron      17.9999999 magnetization       4.0000000
 augmentation part        6.6613013 magnetization       1.8930713

 eigenvalues of (default mixing * dielectric matrix)
  average eigenvalue GAMMA=   6.1950
 49.7982 35.2466 15.6018 10.7300 10.7300  7.3751  3.0795  3.0795  0.4837  1.1319
  1.1319  1.1769  1.0379  0.9727  0.9727  0.9870  0.8895  0.7749  0.7749  0.6532
  0.6532  0.4526  0.4526  0.4928

  free energy =  -0.635508562982E+01  energy without entropy=  -0.635235113324E+01


--------------------------------------------------------------------------------------------------------




----------------------------------------- Iteration    2(  26)  ---------------------------------------


    POTLOK:  cpu time    4.57: real time    9.20
    SETDIJ:  cpu time    5.27: real time   10.72
     EDDAV:  cpu time    2.01: real time    4.02
       DOS:  cpu time    0.00: real time    0.00
    CHARGE:  cpu time    3.88: real time    7.78
    MIXING:  cpu time    1.14: real time    2.29
    --------------------------------------------
      LOOP:  cpu time   16.88: real time   34.05

 eigenvalue-minimisations  :    56
 total energy-change (2. order) : 0.2750606E-03  (-0.4157693E-03)
 number of electron      17.9999999 magnetization       4.0000000
 augmentation part        6.6613179 magnetization       1.8930718

 eigenvalues of (default mixing * dielectric matrix)
  average eigenvalue GAMMA=   6.1086
 50.5509 36.4863 15.7954 11.1144 10.5720  7.4710  3.1012  3.1012  0.4837  1.3636
  1.3636  1.1440  0.7443  0.7443  1.0341  0.9717  0.9717  0.9904  0.8992  0.8010
  0.8010  0.4036  0.6359  0.6359  0.5355

  free energy =  -0.635481056925E+01  energy without entropy=  -0.635204300882E+01


--------------------------------------------------------------------------------------------------------




----------------------------------------- Iteration    2(  27)  ---------------------------------------


    POTLOK:  cpu time    4.31: real time    8.64
    SETDIJ:  cpu time    5.39: real time   10.80
     EDDAV:  cpu time    2.01: real time    4.03
       DOS:  cpu time    0.00: real time    0.00
    CHARGE:  cpu time    3.79: real time    7.63
    MIXING:  cpu time    0.75: real time    1.54
    --------------------------------------------
      LOOP:  cpu time   16.25: real time   32.66

 eigenvalue-minimisations  :    56
 total energy-change (2. order) :-0.3121563E-03  (-0.3219543E-03)
 number of electron      17.9999999 magnetization       4.0000000
 augmentation part        6.6613267 magnetization       1.8930689

 eigenvalues of (default mixing * dielectric matrix)
  average eigenvalue GAMMA=   5.9190
 50.6621 36.7030 15.8217 10.9760 10.7361  7.4658  3.1079  3.1079  0.4837  1.4681
  1.4681  0.7656  0.7656  1.1487  1.0327  0.9906  0.9680  0.9680  0.9108  0.7918
  0.7918  0.4158  0.5479  0.5479  0.6241  0.6241

  free energy =  -0.635512272559E+01  energy without entropy=  -0.635235684445E+01


--------------------------------------------------------------------------------------------------------




----------------------------------------- Iteration    2(  28)  ---------------------------------------


    POTLOK:  cpu time    4.86: real time    9.60
    SETDIJ:  cpu time    5.15: real time   10.37
     EDDAV:  cpu time    2.51: real time    5.02
       DOS:  cpu time    0.00: real time    0.00
    CHARGE:  cpu time    4.12: real time    8.25
    MIXING:  cpu time    0.65: real time    1.30
    --------------------------------------------
      LOOP:  cpu time   17.29: real time   34.55

 eigenvalue-minimisations  :    56
 total energy-change (2. order) : 0.2207295E-03  (-0.2616659E-03)
 number of electron      17.9999999 magnetization       4.0000000
 augmentation part        6.6613326 magnetization       1.8930722

 eigenvalues of (default mixing * dielectric matrix)
  average eigenvalue GAMMA=   5.7249
 50.6256 36.8116 15.9462 11.0356 10.6799  7.4255  3.1142  3.1142  0.4837  1.5297
  1.5297  0.7775  0.7775  1.1546  1.0334  0.9894  0.9658  0.9658  0.9184  0.7972
  0.7972  0.5017  0.5017  0.3851  0.4976  0.6067  0.6067

  free energy =  -0.635490199612E+01  energy without entropy=  -0.635211701653E+01


--------------------------------------------------------------------------------------------------------




----------------------------------------- Iteration    2(  29)  ---------------------------------------


    POTLOK:  cpu time    4.46: real time    8.94
    SETDIJ:  cpu time    5.48: real time   10.81
     EDDAV:  cpu time    2.46: real time    5.34
       DOS:  cpu time    0.00: real time    0.00
    CHARGE:  cpu time    3.82: real time    7.81
    MIXING:  cpu time    0.87: real time    1.76
    --------------------------------------------
      LOOP:  cpu time   17.10: real time   34.67

 eigenvalue-minimisations  :    56
 total energy-change (2. order) :-0.2210238E-03  (-0.1984578E-03)
 number of electron      17.9999999 magnetization       4.0000000
 augmentation part        6.6613418 magnetization       1.8930653

 eigenvalues of (default mixing * dielectric matrix)
  average eigenvalue GAMMA=   5.7161
 50.4327 38.0878 16.0171 11.3043 10.7084  7.9666  3.3799  3.3799  2.2368  2.2368
  0.4837  0.9022  0.9022  1.1593  1.0358  0.9611  0.9611  0.9724  0.9309  0.7018
  0.7018  0.8028  0.8028  0.6996  0.6743  0.6743  0.4072  0.5283

  free energy =  -0.635512301995E+01  energy without entropy=  -0.635233057044E+01


--------------------------------------------------------------------------------------------------------




----------------------------------------- Iteration    2(  30)  ---------------------------------------


    POTLOK:  cpu time    5.25: real time   10.40
    SETDIJ:  cpu time    5.54: real time   10.82
     EDDAV:  cpu time    2.59: real time    5.25
       DOS:  cpu time    0.00: real time    0.00
    CHARGE:  cpu time    3.13: real time    6.39
    MIXING:  cpu time    0.89: real time    1.89
    --------------------------------------------
      LOOP:  cpu time   17.41: real time   34.76

 eigenvalue-minimisations  :    56
 total energy-change (2. order) : 0.1157429E-03  (-0.1689114E-03)
 number of electron      17.9999999 magnetization       4.0000000
 augmentation part        6.6613471 magnetization       1.8930683

 eigenvalues of (default mixing * dielectric matrix)
  average eigenvalue GAMMA=   5.6490
 49.6705 39.0626 16.0586 11.2940 11.2940  8.7711  3.7413  3.7413  2.3716  2.3716
  0.4837  1.1158  1.1158  0.7633  0.7633  1.1436  1.0348  0.9619  0.9619  0.9727
  0.9727  0.8381  0.8381  0.4060  0.7144  0.6573  0.6573  0.4912  0.5516

  free energy =  -0.635500727702E+01  energy without entropy=  -0.635221666368E+01


--------------------------------------------------------------------------------------------------------




----------------------------------------- Iteration    2(  31)  ---------------------------------------


    POTLOK:  cpu time    5.49: real time   11.04
    SETDIJ:  cpu time    5.20: real time   10.67
     EDDAV:  cpu time    2.17: real time    4.42
       DOS:  cpu time    0.00: real time    0.00
    CHARGE:  cpu time    3.94: real time    8.06
    MIXING:  cpu time    0.86: real time    1.75
    --------------------------------------------
      LOOP:  cpu time   17.67: real time   35.95

 eigenvalue-minimisations  :    56
 total energy-change (2. order) :-0.8294826E-04  (-0.1196553E-03)
 number of electron      17.9999999 magnetization       4.0000000
 augmentation part        6.6613550 magnetization       1.8930605

 eigenvalues of (default mixing * dielectric matrix)
  average eigenvalue GAMMA=   5.6069
 50.3433 40.2760 16.4731 12.3298 10.9468  9.0857  3.9278  3.9278  2.4453  2.4453
  0.4837  1.0922  1.0922  0.8482  0.8482  1.0715  1.0347  0.9905  0.9905  0.9756
  0.9078  0.8448  0.8448  0.6737  0.6737  0.7311  0.4793  0.4793  0.4065  0.5374

  free energy =  -0.635509022527E+01  energy without entropy=  -0.635228001691E+01


--------------------------------------------------------------------------------------------------------




----------------------------------------- Iteration    2(  32)  ---------------------------------------


    POTLOK:  cpu time    5.49: real time   11.00
    SETDIJ:  cpu time    5.09: real time   10.28
     EDDAV:  cpu time    1.85: real time    3.80
       DOS:  cpu time    0.00: real time    0.00
    CHARGE:  cpu time    3.69: real time    7.44
    MIXING:  cpu time    1.62: real time    3.29
    --------------------------------------------
      LOOP:  cpu time   17.74: real time   35.82

 eigenvalue-minimisations  :    56
 total energy-change (2. order) : 0.5881959E-04  (-0.1044137E-03)
 number of electron      17.9999999 magnetization       4.0000000
 augmentation part        6.6613649 magnetization       1.8930601

 eigenvalues of (default mixing * dielectric matrix)
  average eigenvalue GAMMA=   5.5153
 50.1233 40.6538 17.0615 12.5781 11.1103  9.3231  4.0265  4.0265  2.5554  2.5554
  0.4837  1.0705  1.0705  0.9760  0.9760  0.5899  0.5899  1.0649  1.0235  0.9953
  0.9953  0.9708  0.9402  0.8330  0.8330  0.4065  0.6502  0.6502  0.7028  0.5195
  0.6197

  free energy =  -0.635503140568E+01  energy without entropy=  -0.635224228473E+01


--------------------------------------------------------------------------------------------------------




----------------------------------------- Iteration    2(  33)  ---------------------------------------


    POTLOK:  cpu time    5.45: real time   10.80
    SETDIJ:  cpu time    4.80: real time    9.68
     EDDAV:  cpu time    2.31: real time    4.63
       DOS:  cpu time    0.00: real time    0.00
    CHARGE:  cpu time    4.02: real time    7.82
    MIXING:  cpu time    1.12: real time    2.18
    --------------------------------------------
      LOOP:  cpu time   17.69: real time   35.12

 eigenvalue-minimisations  :    56
 total energy-change (2. order) :-0.2954555E-04  (-0.5470725E-04)
 number of electron      17.9999999 magnetization       4.0000000
 augmentation part        6.6613714 magnetization       1.8930530

 eigenvalues of (default mixing * dielectric matrix)
  average eigenvalue GAMMA=   5.5471
 50.9070 43.7929 15.1800 15.1800 10.7490  9.7192  4.0974  4.0974  2.7236  2.7236
  0.4837  1.4574  1.4574  0.9684  0.9684  1.0099  1.0099  1.0372  1.0042  1.0042
  0.7197  0.7197  0.8424  0.8424  0.7660  0.7660  0.6572  0.6572  0.4063  0.4295
  0.5063  0.6229

  free energy =  -0.635506095123E+01  energy without entropy=  -0.635224105104E+01


--------------------------------------------------------------------------------------------------------




----------------------------------------- Iteration    2(  34)  ---------------------------------------


    POTLOK:  cpu time    5.53: real time   11.16
    SETDIJ:  cpu time    4.42: real time    8.88
     EDDAV:  cpu time    2.07: real time    4.30
       DOS:  cpu time    0.00: real time    0.00
    CHARGE:  cpu time    4.50: real time    9.10
    MIXING:  cpu time    1.03: real time    2.11
    --------------------------------------------
      LOOP:  cpu time   17.55: real time   35.54

 eigenvalue-minimisations  :    56
 total energy-change (2. order) :-0.6806728E-04  (-0.4614356E-04)
 number of electron      17.9999999 magnetization       4.0000000
 augmentation part        6.6613889 magnetization       1.8930483

 eigenvalues of (default mixing * dielectric matrix)
  average eigenvalue GAMMA=   5.4138
 50.1480 44.9912 15.8875 14.8014 10.8011  9.8080  3.9204  3.9204  2.8003  2.8003
  0.4837  1.4560  1.4560  0.9304  0.9304  0.7184  0.7184  0.4712  0.4712  1.0106
  1.0106  1.0374  0.9933  0.9933  0.8528  0.8528  0.8416  0.4065  0.6321  0.6321
  0.7203  0.6339  0.5241

  free energy =  -0.635512901851E+01  energy without entropy=  -0.635235570606E+01


--------------------------------------------------------------------------------------------------------




----------------------------------------- Iteration    2(  35)  ---------------------------------------


    POTLOK:  cpu time    4.74: real time   10.04
    SETDIJ:  cpu time    5.05: real time   10.24
     EDDAV:  cpu time    2.49: real time    4.98
       DOS:  cpu time    0.00: real time    0.00
    CHARGE:  cpu time    4.06: real time    8.13
    MIXING:  cpu time    1.75: real time    3.52
    --------------------------------------------
      LOOP:  cpu time   18.10: real time   36.91

 eigenvalue-minimisations  :    56
 total energy-change (2. order) : 0.1849197E-03  (-0.2622254E-04)
 number of electron      17.9999999 magnetization       4.0000000
 augmentation part        6.6613995 magnetization       1.8930409

 eigenvalues of (default mixing * dielectric matrix)
  average eigenvalue GAMMA=   5.2910
 49.8615 45.1667 15.3844 15.3844 10.8544  9.7572  3.9630  3.9630  2.8235  2.8235
  0.4837  1.6027  1.6027  0.9410  0.9410  0.6624  0.6624  1.0378  1.0155  1.0155
  0.7170  0.7170  0.9888  0.9540  0.9387  0.8555  0.8555  0.7301  0.6142  0.6142
  0.4064  0.4929  0.4929  0.5712

  free energy =  -0.635494409877E+01  energy without entropy=  -0.635212840349E+01


--------------------------------------------------------------------------------------------------------




----------------------------------------- Iteration    2(  36)  ---------------------------------------


    POTLOK:  cpu time    4.35: real time    8.88
    SETDIJ:  cpu time    5.31: real time   10.66
     EDDAV:  cpu time    2.49: real time    4.88
       DOS:  cpu time    0.00: real time    0.00
    CHARGE:  cpu time    4.25: real time    8.60
    MIXING:  cpu time    1.06: real time    2.13
    --------------------------------------------
      LOOP:  cpu time   17.46: real time   35.15

 eigenvalue-minimisations  :    56
 total energy-change (2. order) :-0.2256989E-03  (-0.9934538E-05)
 number of electron      17.9999999 magnetization       4.0000000
 augmentation part        6.6614413 magnetization       1.8930274

 eigenvalues of (default mixing * dielectric matrix)
  average eigenvalue GAMMA=   5.2468
 48.0933 48.0933 17.1134 14.5212 10.7795 10.0832  3.7533  3.7533  2.9151  2.9151
  0.4837  1.6814  1.6814  1.1877  1.1877  0.7958  0.7958  0.7009  0.7009  1.0135
  1.0135  1.0391  1.0030  0.9635  0.9635  0.8391  0.8391  0.6464  0.6464  0.4065
  0.7355  0.5857  0.5857  0.5909  0.5309

  free energy =  -0.635516979765E+01  energy without entropy=  -0.635248251533E+01


--------------------------------------------------------------------------------------------------------




----------------------------------------- Iteration    2(  37)  ---------------------------------------


    POTLOK:  cpu time    4.73: real time    9.53
    SETDIJ:  cpu time    5.39: real time   10.80
     EDDAV:  cpu time    2.44: real time    4.90
       DOS:  cpu time    0.01: real time    0.02
    CHARGE:  cpu time    3.92: real time    7.84
    MIXING:  cpu time    1.35: real time    2.72
    --------------------------------------------
      LOOP:  cpu time   17.85: real time   35.83

 eigenvalue-minimisations  :    56
 total energy-change (2. order) : 0.3736252E-03  (-0.3696900E-04)
 number of electron      17.9999999 magnetization       4.0000000
 augmentation part        6.6614736 magnetization       1.8930043

 eigenvalues of (default mixing * dielectric matrix)
  average eigenvalue GAMMA=   5.1301
 47.7769 47.7769 15.5011 15.5011 10.6294 10.1223  4.4457  4.4457  2.9482  2.9482
  0.4837  1.6869  1.6869  1.3154  1.3154  0.7602  0.7602  0.7914  0.7914  1.0387
  1.0141  1.0141  0.9934  0.9762  0.9538  0.8318  0.8318  0.6870  0.6870  0.7456
  0.4064  0.5651  0.5651  0.5785  0.5785  0.5308

  free energy =  -0.635479617250E+01  energy without entropy=  -0.635205757869E+01


--------------------------------------------------------------------------------------------------------




----------------------------------------- Iteration    2(  38)  ---------------------------------------


    POTLOK:  cpu time    5.17: real time   10.52
    SETDIJ:  cpu time    5.15: real time   10.20
     EDDAV:  cpu time    2.30: real time    4.62
       DOS:  cpu time    0.00: real time    0.00
    CHARGE:  cpu time    4.21: real time    8.49
    MIXING:  cpu time    1.23: real time    2.45
    --------------------------------------------
      LOOP:  cpu time   18.07: real time   36.31

 eigenvalue-minimisations  :    56
 total energy-change (2. order) :-0.1352737E-03  (-0.2602565E-05)
 number of electron      17.9999999 magnetization       4.0000000
 augmentation part        6.6615331 magnetization       1.8929825

 eigenvalues of (default mixing * dielectric matrix)
  average eigenvalue GAMMA=   5.0144
 49.1865 44.2473 17.9125 14.0545 10.2425 10.2425  4.9138  4.9138  3.0130  3.0130
  0.4837  1.7856  1.7856  1.2889  1.2889  0.8933  0.8933  1.0163  1.0163  1.0393
  1.0001  1.0001  0.7216  0.7216  0.8812  0.8556  0.8556  0.8045  0.8045  0.6145
  0.6145  0.4064  0.7378  0.6022  0.6022  0.5391  0.5391

  free energy =  -0.635493144616E+01  energy without entropy=  -0.635242645180E+01


--------------------------------------------------------------------------------------------------------




----------------------------------------- Iteration    2(  39)  ---------------------------------------


    POTLOK:  cpu time    5.42: real time   10.92
    SETDIJ:  cpu time    5.01: real time   10.24
     EDDAV:  cpu time    1.76: real time    3.63
       DOS:  cpu time    0.00: real time    0.01
    CHARGE:  cpu time    3.73: real time    7.71
    MIXING:  cpu time    2.03: real time    4.12
    --------------------------------------------
      LOOP:  cpu time   17.96: real time   36.66

 eigenvalue-minimisations  :    56
 total energy-change (2. order) : 0.1050003E-02  (-0.3572066E-04)
 number of electron      17.9999999 magnetization       4.0000000
 augmentation part        6.6615289 magnetization       1.8929700

 eigenvalues of (default mixing * dielectric matrix)
  average eigenvalue GAMMA=   4.9000
 49.1680 44.0343 17.2150 14.1900 10.2159 10.2159  5.4159  5.4159  3.0580  3.0580
  1.8306  1.8306  0.4837  1.2430  1.2430  0.9034  0.9034  1.0148  1.0148  1.0328
  1.0064  1.0064  0.8506  0.8506  0.7083  0.7083  0.8719  0.5917  0.5917  0.8247
  0.8247  0.4064  0.7508  0.5109  0.5109  0.5260  0.5863  0.5863

  free energy =  -0.635388144313E+01  energy without entropy=  -0.635121452655E+01


--------------------------------------------------------------------------------------------------------




----------------------------------------- Iteration    2(  40)  ---------------------------------------


    POTLOK:  cpu time    5.15: real time   10.52
    SETDIJ:  cpu time    4.74: real time    9.48
     EDDAV:  cpu time    2.27: real time    4.59
       DOS:  cpu time    0.00: real time    0.00
    CHARGE:  cpu time    4.01: real time    7.92
    MIXING:  cpu time    1.44: real time    2.95
    --------------------------------------------
      LOOP:  cpu time   17.61: real time   35.48

 eigenvalue-minimisations  :    56
 total energy-change (2. order) :-0.2830129E-03  (-0.1141885E-04)
 number of electron      17.9999999 magnetization       4.0000000
 augmentation part        6.6615477 magnetization       1.8929644

 eigenvalues of (default mixing * dielectric matrix)
  average eigenvalue GAMMA=   4.9011
 49.2723 44.3832 17.9244 13.6581 10.1899 10.1899  6.7498  6.7498  3.1396  3.1396
  1.8492  1.8492  0.4837  1.1233  1.1233  1.2449  1.2449  0.7957  0.7957  0.7225
  0.7225  0.8076  0.8076  1.0403  1.0086  1.0086  0.9880  0.9880  0.8928  0.8256
  0.8256  0.5955  0.5955  0.4064  0.7115  0.6117  0.6117  0.5336  0.5336

  free energy =  -0.635416445605E+01  energy without entropy=  -0.635163772443E+01


--------------------------------------------------------------------------------------------------------




----------------------------------------- Iteration    2(  41)  ---------------------------------------


    POTLOK:  cpu time    5.48: real time   11.02
    SETDIJ:  cpu time    4.73: real time    9.47
     EDDAV:  cpu time    2.74: real time    5.52
       DOS:  cpu time    0.00: real time    0.00
    CHARGE:  cpu time    4.74: real time    9.57
    MIXING:  cpu time    1.73: real time    3.26
    --------------------------------------------
      LOOP:  cpu time   19.42: real time   38.86

 eigenvalue-minimisations  :    56
 total energy-change (2. order) : 0.5180488E-03  (-0.9927569E-05)
 number of electron      17.9999999 magnetization       4.0000000
 augmentation part        6.6615287 magnetization       1.8929697

 eigenvalues of (default mixing * dielectric matrix)
  average eigenvalue GAMMA=   4.8540
 49.7382 43.6480 17.2955 13.4851 10.3327 10.3327  8.1259  8.1259  3.1968  3.1968
  1.8817  1.8817  0.4837  1.2916  1.2916  1.1411  1.1411  0.8714  0.8714  0.8319
  0.8319  1.0556  0.9903  0.9903  1.0119  1.0119  0.8547  0.8547  0.6998  0.6998
  0.8076  0.6150  0.6150  0.4064  0.7539  0.5161  0.5377  0.5377  0.6018  0.6018

  free energy =  -0.635364640721E+01  energy without entropy=  -0.635096574528E+01


--------------------------------------------------------------------------------------------------------




----------------------------------------- Iteration    2(  42)  ---------------------------------------


    POTLOK:  cpu time    4.60: real time    9.36
    SETDIJ:  cpu time    5.11: real time   10.12
     EDDAV:  cpu time    2.42: real time    4.93
       DOS:  cpu time    0.00: real time    0.00
    CHARGE:  cpu time    4.00: real time    8.19
    MIXING:  cpu time    1.23: real time    2.62
    --------------------------------------------
      LOOP:  cpu time   17.36: real time   35.24

 eigenvalue-minimisations  :    56
 total energy-change (2. order) :-0.5096229E-03  (-0.1225421E-04)
 number of electron      17.9999999 magnetization       4.0000000
 augmentation part        6.6615374 magnetization       1.8929709

 eigenvalues of (default mixing * dielectric matrix)
  average eigenvalue GAMMA=   4.8185
 49.7553 46.4000 16.9108 14.9421 10.3872 10.3872  6.9281  6.9281  3.1886  3.1886
  0.4837  1.7552  1.7552  1.7193  1.7193  1.2744  1.2744  0.9178  0.9178  0.7685
  0.7685  0.9293  0.9293  1.0536  1.0040  1.0040  0.9433  0.9433  0.7818  0.7818
  0.6811  0.6811  0.8480  0.4065  0.6171  0.6171  0.4809  0.5272  0.6798  0.6400
  0.6400

  free energy =  -0.635415603006E+01  energy without entropy=  -0.635156010712E+01


--------------------------------------------------------------------------------------------------------




----------------------------------------- Iteration    2(  43)  ---------------------------------------


    POTLOK:  cpu time    4.44: real time    8.92
    SETDIJ:  cpu time    5.58: real time   10.93
     EDDAV:  cpu time    2.15: real time    4.35
       DOS:  cpu time    0.00: real time    0.01
    CHARGE:  cpu time    3.90: real time    7.69
    MIXING:  cpu time    1.09: real time    2.20
    --------------------------------------------
      LOOP:  cpu time   17.16: real time   34.12

 eigenvalue-minimisations  :    56
 total energy-change (2. order) : 0.2747828E-03  (-0.4134258E-05)
 number of electron      17.9999999 magnetization       4.0000000
 augmentation part        6.6615221 magnetization       1.8929807

 eigenvalues of (default mixing * dielectric matrix)
  average eigenvalue GAMMA=   4.7416
 50.1718 46.3547 16.9686 14.9618 10.6528 10.4015  6.6795  6.6795  3.0963  3.0963
  2.0403  2.0403  0.4837  1.8017  1.8017  1.3383  1.3383  0.9380  0.9380  0.7939
  0.7939  1.0640  1.0115  1.0115  0.9768  0.9091  0.9091  0.8976  0.8976  0.7039
  0.7039  0.7791  0.7791  0.4065  0.6159  0.6159  0.7195  0.5091  0.5091  0.5244
  0.6160  0.6160

  free energy =  -0.635388124728E+01  energy without entropy=  -0.635117161867E+01


--------------------------------------------------------------------------------------------------------




----------------------------------------- Iteration    2(  44)  ---------------------------------------


    POTLOK:  cpu time    5.10: real time    9.72
    SETDIJ:  cpu time    5.16: real time   10.66
     EDDAV:  cpu time    2.31: real time    4.70
       DOS:  cpu time    0.01: real time    0.01
    CHARGE:  cpu time    3.07: real time    6.45
    MIXING:  cpu time    1.76: real time    3.54
    --------------------------------------------
      LOOP:  cpu time   17.41: real time   35.07

 eigenvalue-minimisations  :    56
 total energy-change (2. order) :-0.4895842E-03  (-0.8961558E-05)
 number of electron      17.9999999 magnetization       4.0000000
 augmentation part        6.6615240 magnetization       1.8929817

 eigenvalues of (default mixing * dielectric matrix)
  average eigenvalue GAMMA=   4.6723
 49.8025 45.6236 19.3600 14.3326 10.9681 10.0197  6.6757  6.6757  2.9849  2.9849
  2.3109  2.3109  0.4837  1.8128  1.8128  1.3911  1.3911  1.0080  1.0080  0.8287
  0.8287  1.0590  1.0098  1.0098  0.9861  0.9338  0.9338  0.7024  0.7024  0.8554
  0.8554  0.8116  0.8116  0.6145  0.6145  0.4064  0.5236  0.5236  0.4461  0.7164
  0.5272  0.6250  0.6250

  free energy =  -0.635437083152E+01  energy without entropy=  -0.635171073042E+01


--------------------------------------------------------------------------------------------------------




----------------------------------------- Iteration    2(  45)  ---------------------------------------


    POTLOK:  cpu time    5.02: real time   10.12
    SETDIJ:  cpu time    5.42: real time   10.68
     EDDAV:  cpu time    2.15: real time    4.32
       DOS:  cpu time    0.00: real time    0.00
    CHARGE:  cpu time    4.02: real time    8.12
    MIXING:  cpu time    1.62: real time    3.28
    --------------------------------------------
      LOOP:  cpu time   18.23: real time   36.53

 eigenvalue-minimisations  :    56
 total energy-change (2. order) : 0.1394301E-03  (-0.1845462E-05)
 number of electron      17.9999999 magnetization       4.0000000
 augmentation part        6.6615121 magnetization       1.8929914

 eigenvalues of (default mixing * dielectric matrix)
  average eigenvalue GAMMA=   4.5888
 49.7741 45.5961 19.5670 14.3345 10.9502 10.0357  6.5624  6.5624  2.8766  2.8766
  2.7282  2.7282  0.4837  1.7189  1.7189  1.4194  1.4194  1.0221  1.0221  0.8342
  0.8342  1.0573  1.0056  1.0056  0.9854  0.9604  0.9604  0.5239  0.5239  0.6994
  0.6994  0.8056  0.8056  0.8209  0.8209  0.4065  0.7433  0.6164  0.6164  0.5172
  0.5172  0.5256  0.6118  0.6118

  free energy =  -0.635423140143E+01  energy without entropy=  -0.635149278683E+01


--------------------------------------------------------------------------------------------------------




----------------------------------------- Iteration    2(  46)  ---------------------------------------


    POTLOK:  cpu time    5.23: real time   10.67
    SETDIJ:  cpu time    4.94: real time    9.96
     EDDAV:  cpu time    1.66: real time    3.33
       DOS:  cpu time    0.00: real time    0.00
    CHARGE:  cpu time    3.88: real time    7.84
    MIXING:  cpu time    1.76: real time    3.64
    --------------------------------------------
      LOOP:  cpu time   17.48: real time   35.46

 eigenvalue-minimisations  :    56
 total energy-change (2. order) :-0.3684500E-03  (-0.6488137E-05)
 number of electron      17.9999999 magnetization       4.0000000
 augmentation part        6.6615090 magnetization       1.8929918

 eigenvalues of (default mixing * dielectric matrix)
  average eigenvalue GAMMA=   5.1755
 48.9343 45.6929 21.1311  8.6421 13.7831 10.9087  9.9941  8.6622  8.6622  2.5101
  2.5101  1.3143  1.3143  1.8000  1.8000  1.2056  1.2056  0.0184  0.9777  0.9777
  1.1863  1.1863  0.7627  0.7627  1.0052  0.4377  0.5324  0.5324  0.6596  0.6596
  0.7938  0.7938  0.8227  0.8227  0.7723  0.5826  0.5826  0.6403  0.7198  0.7198

  free energy =  -0.635459985148E+01  energy without entropy=  -0.635188685220E+01


--------------------------------------------------------------------------------------------------------




----------------------------------------- Iteration    2(  47)  ---------------------------------------


    POTLOK:  cpu time    5.21: real time   10.44
    SETDIJ:  cpu time    4.95: real time    9.89
     EDDAV:  cpu time    2.18: real time    4.42
       DOS:  cpu time    0.00: real time    0.01
    CHARGE:  cpu time    4.04: real time    8.05
    MIXING:  cpu time    1.53: real time    3.19
    --------------------------------------------
      LOOP:  cpu time   17.91: real time   36.00

 eigenvalue-minimisations  :    56
 total energy-change (2. order) : 0.3462614E-04  (-0.7305331E-06)
 number of electron      17.9999999 magnetization       4.0000000
 augmentation part        6.6614964 magnetization       1.8929985

 eigenvalues of (default mixing * dielectric matrix)
  average eigenvalue GAMMA=   5.1611
 48.5532 45.5333 22.2287  8.3835 14.4885 11.0251 10.0158  8.2835  9.5068  2.6455
  2.6455  1.9374  1.9374  1.9417  1.9417  1.8391  1.2129  1.2129  1.0444  1.0444
  0.0503  0.8285  0.8285  0.9876  0.9876  0.7795  0.7795  0.8370  0.8370  0.6728
  0.6728  0.6278  0.6278  0.4375  0.4375  0.6436  0.6436  0.5757  0.5757  0.7041
  0.6488

  free energy =  -0.635456522534E+01  energy without entropy=  -0.635179344693E+01


--------------------------------------------------------------------------------------------------------




----------------------------------------- Iteration    2(  48)  ---------------------------------------


    POTLOK:  cpu time    5.56: real time   11.49
    SETDIJ:  cpu time    4.49: real time    9.14
     EDDAV:  cpu time    2.31: real time    4.62
       DOS:  cpu time    0.01: real time    0.01
    CHARGE:  cpu time    4.37: real time    8.85
    MIXING:  cpu time    1.45: real time    3.08
    --------------------------------------------
      LOOP:  cpu time   18.19: real time   37.20

 eigenvalue-minimisations  :    56
 total energy-change (2. order) :-0.2345631E-03  (-0.6797045E-05)
 number of electron      17.9999999 magnetization       4.0000000
 augmentation part        6.6614934 magnetization       1.8929994

 eigenvalues of (default mixing * dielectric matrix)
  average eigenvalue GAMMA=   5.0959
 48.6926 45.2648 22.4158  9.4272 14.7365 11.0318  9.9911  9.7032  7.6277  3.8312
  2.5988  2.5988  2.3154  1.6553  1.6553  1.1618  1.1618  1.4243  1.0889  1.0889
  0.1118  0.1118  0.8368  0.8368  0.9826  0.9826  0.6797  0.6797  0.7956  0.7956
  0.8285  0.8285  0.6767  0.6767  0.4200  0.4511  0.6569  0.6569  0.5804  0.5804
  0.7281  0.6593

  free energy =  -0.635479978847E+01  energy without entropy=  -0.635204333586E+01


--------------------------------------------------------------------------------------------------------




----------------------------------------- Iteration    2(  49)  ---------------------------------------


    POTLOK:  cpu time    4.71: real time    9.46
    SETDIJ:  cpu time    5.24: real time   10.52
     EDDAV:  cpu time    2.46: real time    4.92
       DOS:  cpu time    0.00: real time    0.00
    CHARGE:  cpu time    4.15: real time    8.20
    MIXING:  cpu time    1.91: real time    3.81
    --------------------------------------------
      LOOP:  cpu time   18.48: real time   36.92

 eigenvalue-minimisations  :    56
 total energy-change (2. order) : 0.1802061E-04  (-0.4170012E-06)
 number of electron      17.9999999 magnetization       4.0000000
 augmentation part        6.6614854 magnetization       1.8930064

 eigenvalues of (default mixing * dielectric matrix)
  average eigenvalue GAMMA=   4.9753
 48.7678 45.2597 22.0932  9.4934 14.6659 11.0144 10.0183  9.7199  6.3192  4.8524
  2.5980  2.5980  2.3165  1.6936  1.6936  1.2274  1.2274  0.2262  0.2262  1.3768
  1.0511  1.0511  0.1048  0.8365  0.8365  0.9710  0.9710  0.6838  0.6838  0.3934
  0.7994  0.7994  0.6775  0.6775  0.8368  0.8368  0.4687  0.6618  0.6618  0.5808
  0.5808  0.6928  0.6928

  free energy =  -0.635478176786E+01  energy without entropy=  -0.635199013497E+01


--------------------------------------------------------------------------------------------------------




----------------------------------------- Iteration    2(  50)  ---------------------------------------


    POTLOK:  cpu time    4.40: real time    8.68
    SETDIJ:  cpu time    5.33: real time   10.71
     EDDAV:  cpu time    2.46: real time    4.98
       DOS:  cpu time    0.00: real time    0.00
    CHARGE:  cpu time    3.91: real time    7.90
    MIXING:  cpu time    1.18: real time    2.52
    --------------------------------------------
      LOOP:  cpu time   17.28: real time   34.79

 eigenvalue-minimisations  :    56
 total energy-change (2. order) :-0.8207440E-04  (-0.4068117E-05)
 number of electron      17.9999999 magnetization       4.0000000
 augmentation part        6.6614862 magnetization       1.8930077

 eigenvalues of (default mixing * dielectric matrix)
  average eigenvalue GAMMA=   4.9193
 48.7972 45.1870 22.0178 10.0705 14.6668 10.0101  9.6659 11.0120  5.8269  5.8269
  2.6738  2.6738  2.2270  1.6955  1.6955  0.8715  0.8715  1.2398  1.2398  0.0015
  1.0346  1.0346  1.2051  0.8266  0.8266  0.9937  0.9937  0.6885  0.6885  0.8049
  0.8049  0.8328  0.8328  0.4499  0.4499  0.6673  0.6673  0.6496  0.6496  0.5138
  0.5944  0.5944  0.6869  0.6869

  free energy =  -0.635486384225E+01  energy without entropy=  -0.635208006360E+01


--------------------------------------------------------------------------------------------------------




----------------------------------------- Iteration    2(  51)  ---------------------------------------


    POTLOK:  cpu time    4.95: real time    9.99
    SETDIJ:  cpu time    5.31: real time   10.56
     EDDAV:  cpu time    2.41: real time    4.86
       DOS:  cpu time    0.00: real time    0.00
    CHARGE:  cpu time    3.37: real time    6.98
    MIXING:  cpu time    1.72: real time    3.55
    --------------------------------------------
      LOOP:  cpu time   17.76: real time   35.95

 eigenvalue-minimisations  :    48
 total energy-change (2. order) : 0.9728454E-05  (-0.1818606E-06)
 number of electron      17.9999999 magnetization       4.0000000
 augmentation part        6.6614832 magnetization       1.8930103

 eigenvalues of (default mixing * dielectric matrix)
  average eigenvalue GAMMA=   5.2053
 47.9449 31.9713 31.9713  5.9281 13.2543 11.0392 11.0392  9.9895  7.0086  7.0086
  3.0100  3.0100  1.9610  1.9610  1.7198  1.2509  1.2509  0.9134  0.9134  1.2911
  1.2911  0.0065  0.9277  0.9277  0.7725  0.7725  0.9981  0.7622  0.7622  0.6515
  0.6515  0.3760  0.4482  0.7594  0.6033  0.6033  0.6273  0.6273  0.6032  0.6032

  free energy =  -0.635485411380E+01  energy without entropy=  -0.635204852642E+01


--------------------------------------------------------------------------------------------------------




----------------------------------------- Iteration    2(  52)  ---------------------------------------


    POTLOK:  cpu time    5.11: real time   10.57
    SETDIJ:  cpu time    4.95: real time   10.05
     EDDAV:  cpu time    1.92: real time    3.84
       DOS:  cpu time    0.00: real time    0.01
    CHARGE:  cpu time    3.49: real time    6.95
    MIXING:  cpu time    1.50: real time    3.03
    --------------------------------------------
      LOOP:  cpu time   16.98: real time   34.47

 eigenvalue-minimisations  :    56
 total energy-change (2. order) :-0.1280427E-03  (-0.3231200E-05)
 number of electron      17.9999999 magnetization       4.0000000
 augmentation part        6.6614828 magnetization       1.8930105

 eigenvalues of (default mixing * dielectric matrix)
  average eigenvalue GAMMA=   5.1964
 48.8867 37.4586 25.9042  7.2758 14.0383  8.1910  8.1910 10.1636 10.1636  9.9673
  3.5736  3.5736  1.9098  1.9098  2.0330  1.2604  1.2604  1.2404  1.2404  0.0051
  0.8986  0.8986  0.9664  0.9664  0.7474  0.7474  0.7653  0.7653  0.9174  0.6554
  0.6554  0.4427  0.4427  0.4408  0.5884  0.5884  0.6894  0.6894  0.7214  0.6101
  0.6101

  free energy =  -0.635498215651E+01  energy without entropy=  -0.635218226264E+01


--------------------------------------------------------------------------------------------------------




----------------------------------------- Iteration    2(  53)  ---------------------------------------


    POTLOK:  cpu time    5.18: real time   10.45
    SETDIJ:  cpu time    5.28: real time   10.61
     EDDAV:  cpu time    1.72: real time    3.46
       DOS:  cpu time    0.00: real time    0.00
    CHARGE:  cpu time    3.91: real time    7.75
    MIXING:  cpu time    1.87: real time    3.76
    --------------------------------------------
      LOOP:  cpu time   17.96: real time   36.04

 eigenvalue-minimisations  :    56
 total energy-change (2. order) : 0.1253843E-04  (-0.1829633E-06)
 number of electron      17.9999999 magnetization       4.0000000
 augmentation part        6.6614805 magnetization       1.8930137

 eigenvalues of (default mixing * dielectric matrix)
  average eigenvalue GAMMA=   5.3301
 48.5666 34.0779 34.0779  7.6070 14.5130 11.1911 11.1911 10.4723  9.8871  9.5427
  3.2291  3.2291  1.9028  1.9028  2.0571  1.2973  1.2973  0.0044  0.9076  0.9076
  1.1403  1.1403  0.9921  0.9921  0.7552  0.7552  0.5245  0.5245  0.9431  0.7618
  0.7618  0.6443  0.6443  0.5915  0.5915  0.4565  0.4565  0.7169  0.7169  0.7023
  0.5964  0.5964

  free energy =  -0.635496961808E+01  energy without entropy=  -0.635216017595E+01


--------------------------------------------------------------------------------------------------------




----------------------------------------- Iteration    2(  54)  ---------------------------------------


    POTLOK:  cpu time    5.35: real time   10.78
    SETDIJ:  cpu time    4.84: real time    9.74
     EDDAV:  cpu time    2.38: real time    4.76
       DOS:  cpu time    0.00: real time    0.00
    CHARGE:  cpu time    3.97: real time    8.15
    MIXING:  cpu time    2.14: real time    4.43
    --------------------------------------------
      LOOP:  cpu time   18.69: real time   37.87

 eigenvalue-minimisations  :    56
 total energy-change (2. order) :-0.5117097E-04  (-0.1044188E-05)
 number of electron      17.9999999 magnetization       4.0000000
 augmentation part        6.6614819 magnetization       1.8930130

 eigenvalues of (default mixing * dielectric matrix)
  average eigenvalue GAMMA=   5.1195
 48.3596 33.6669 33.6669 14.4734  7.5540  9.0559  9.0559 10.5789 10.0061  9.4398
  3.6564  3.6564  1.9042  1.9042  2.0237  0.6085  1.2666  1.2666  0.0007  0.9362
  0.9362  1.1316  1.1316  1.0163  1.0163  0.7563  0.7563  0.9600  0.7731  0.7731
  0.6595  0.6595  0.5546  0.5546  0.5727  0.5727  0.4629  0.4629  0.6845  0.6845
  0.5834  0.5834  0.7727

  free energy =  -0.635502078904E+01  energy without entropy=  -0.635221787563E+01


--------------------------------------------------------------------------------------------------------




----------------------------------------- Iteration    2(  55)  ---------------------------------------


    POTLOK:  cpu time    5.14: real time    9.90
    SETDIJ:  cpu time    4.66: real time    9.41
     EDDAV:  cpu time    2.47: real time    5.00
       DOS:  cpu time    0.00: real time    0.00
    CHARGE:  cpu time    4.44: real time    8.78
    MIXING:  cpu time    1.96: real time    3.96
    --------------------------------------------
      LOOP:  cpu time   18.69: real time   37.08

 eigenvalue-minimisations  :    56
 total energy-change (2. order) : 0.2020523E-04  (-0.4048120E-06)
 number of electron      17.9999999 magnetization       4.0000000
 augmentation part        6.6614817 magnetization       1.8930149

 eigenvalues of (default mixing * dielectric matrix)
  average eigenvalue GAMMA=   5.1111
 48.0049 34.1715 34.1715  8.0613 14.4728 10.8010 10.8010 10.7030 10.0298  9.1943
  3.5088  3.5088  2.1177  1.7520  1.7520  1.3087  1.3087  0.6851  0.6851  1.1425
  1.1425  0.0002  0.9172  0.9172  1.0212  1.0212  0.7644  0.7644  0.9648  0.7724
  0.7724  0.6187  0.6187  0.5095  0.5095  0.5842  0.5842  0.7118  0.7118  0.4633
  0.4633  0.6663  0.6663  0.5405

  free energy =  -0.635500058381E+01  energy without entropy=  -0.635219150869E+01


--------------------------------------------------------------------------------------------------------




----------------------------------------- Iteration    2(  56)  ---------------------------------------


    POTLOK:  cpu time    4.73: real time    9.64
    SETDIJ:  cpu time    5.10: real time   10.28
     EDDAV:  cpu time    2.61: real time    5.26
       DOS:  cpu time    0.00: real time    0.00
    CHARGE:  cpu time    4.28: real time    8.83
    MIXING:  cpu time    1.17: real time    2.35
    --------------------------------------------
      LOOP:  cpu time   17.88: real time   36.38

 eigenvalue-minimisations  :    56
 total energy-change (2. order) :-0.2307810E-04  (-0.4020099E-06)
 number of electron      17.9999999 magnetization       4.0000000
 augmentation part        6.6614819 magnetization       1.8930143

 eigenvalues of (default mixing * dielectric matrix)
  average eigenvalue GAMMA=   5.6286
 43.3893 43.3893 32.7725  7.9010  7.9010 14.3903 11.8731 11.8731  9.8637  5.9618
  5.9618  3.1021  3.1021  2.4846  1.9112  1.9112  1.2751  1.2751  1.0362  1.0362
  0.0016  1.1670  0.8391  0.8391  0.6278  0.6278  0.7159  0.7159  0.8746  0.4801
  0.4801  0.6249  0.6249  0.4669  0.4669  0.7091  0.6096  0.6096  0.6261  0.6261

  free energy =  -0.635502366191E+01  energy without entropy=  -0.635222023529E+01


--------------------------------------------------------------------------------------------------------




----------------------------------------- Iteration    2(  57)  ---------------------------------------


    POTLOK:  cpu time    4.44: real time    9.00
    SETDIJ:  cpu time    5.55: real time   11.12
     EDDAV:  cpu time    2.36: real time    4.80
       DOS:  cpu time    0.00: real time    0.00
    CHARGE:  cpu time    3.61: real time    7.27
    MIXING:  cpu time    1.46: real time    2.98
    --------------------------------------------
      LOOP:  cpu time   17.42: real time   35.18

 eigenvalue-minimisations  :    56
 total energy-change (2. order) : 0.1377039E-04  (-0.3165399E-06)
 number of electron      17.9999999 magnetization       4.0000000
 augmentation part        6.6614857 magnetization       1.8930143

 eigenvalues of (default mixing * dielectric matrix)
  average eigenvalue GAMMA=   5.6159
 48.2087 40.8831 24.4856 25.8532 14.3394 11.5946 11.2621  9.6996  5.7251  4.2357
  4.2357  4.3520  1.4174  2.0861  1.7277  1.7277  1.3832  1.3832  1.0604  1.0604
  0.0210  1.1552  0.8935  0.8935  0.6759  0.6759  0.7867  0.7867  0.5513  0.5513
  0.4601  0.4601  0.6725  0.6725  0.6271  0.6271  0.7382  0.6725  0.5230  0.5230
  0.5655

  free energy =  -0.635500989152E+01  energy without entropy=  -0.635220606195E+01


--------------------------------------------------------------------------------------------------------




----------------------------------------- Iteration    2(  58)  ---------------------------------------


    POTLOK:  cpu time    4.91: real time   10.13
    SETDIJ:  cpu time    5.38: real time   10.97
     EDDAV:  cpu time    1.84: real time    3.60
       DOS:  cpu time    0.00: real time    0.00
    CHARGE:  cpu time    3.15: real time    6.36
    MIXING:  cpu time    1.63: real time    3.36
    --------------------------------------------
      LOOP:  cpu time   16.92: real time   34.41

 eigenvalue-minimisations  :    34
 total energy-change (2. order) : 0.8497299E-05  (-0.6101864E-08)
 number of electron      17.9999999 magnetization       4.0000000
 augmentation part        6.6614851 magnetization       1.8930141

 eigenvalues of (default mixing * dielectric matrix)
  average eigenvalue GAMMA=   5.5011
 48.2523 40.8868 26.4117 25.1308 14.2392 11.5428 11.2433  9.6621  5.6418  4.2228
  4.2228  4.3582  2.3622  0.9492  1.4959  1.4959  0.3034  1.4102  1.4102  1.0680
  1.0680  1.1454  0.9464  0.9464  0.0266  0.6589  0.6589  0.8009  0.8009  0.5838
  0.5838  0.6735  0.6735  0.4613  0.4613  0.7382  0.6177  0.6177  0.6580  0.5299
  0.5422  0.5422

  free energy =  -0.635500139422E+01  energy without entropy=  -0.635219606977E+01


--------------------------------------------------------------------------------------------------------




----------------------------------------- Iteration    2(  59)  ---------------------------------------


    POTLOK:  cpu time    5.10: real time   10.42
    SETDIJ:  cpu time    5.07: real time   10.23
     EDDAV:  cpu time    1.71: real time    3.43
       DOS:  cpu time    0.00: real time    0.01
    CHARGE:  cpu time    4.18: real time    8.24
    MIXING:  cpu time    1.46: real time    2.95
    --------------------------------------------
      LOOP:  cpu time   17.53: real time   35.28

 eigenvalue-minimisations  :    40
 total energy-change (2. order) :-0.6105077E-05  (-0.1980015E-07)
 number of electron      17.9999999 magnetization       4.0000000
 augmentation part        6.6614838 magnetization       1.8930147

 eigenvalues of (default mixing * dielectric matrix)
  average eigenvalue GAMMA=   5.4586
 49.4274 42.1141 25.2514 24.7946 14.2365 11.7413 11.2336  9.6975  6.2071  4.4438
  4.4438  3.8345  1.6511  2.2403  1.8190  1.8190  1.1295  1.1295  1.3384  1.3384
  0.9546  0.9546  0.0058  1.1359  0.6699  0.6699  0.5762  0.5762  0.7829  0.7829
  0.5077  0.5077  0.6887  0.6887  0.7375  0.6181  0.6181  0.5567  0.5567  0.5176
  0.5176  0.5856  0.6210

  free energy =  -0.635500749930E+01  energy without entropy=  -0.635220250953E+01


--------------------------------------------------------------------------------------------------------




----------------------------------------- Iteration    2(  60)  ---------------------------------------


    POTLOK:  cpu time    5.62: real time   10.91
    SETDIJ:  cpu time    4.97: real time   10.08
     EDDAV:  cpu time    1.01: real time    2.02
       DOS:  cpu time    0.00: real time    0.00
    CHARGE:  cpu time    3.75: real time    7.46
    MIXING:  cpu time    1.75: real time    3.56
    --------------------------------------------
      LOOP:  cpu time   17.10: real time   34.03

 eigenvalue-minimisations  :    28
 total energy-change (2. order) : 0.2423270E-05  (-0.2260653E-08)
 number of electron      17.9999999 magnetization       4.0000000
 augmentation part        6.6614833 magnetization       1.8930135

 eigenvalues of (default mixing * dielectric matrix)
  average eigenvalue GAMMA=   5.2439
 51.3304 43.5860 22.6147 15.5645 14.3696 11.8473 11.2245  9.6099  7.5994  3.8564
  4.4409  4.4409  2.7762  2.7762  1.8007  1.8007  1.4421  1.4421  1.0719  1.0719
  1.1488  1.1488  0.0389  0.2630  0.2630  1.1347  0.8749  0.8749  0.8507  0.8507
  0.5590  0.5590  0.6848  0.6848  0.5873  0.5873  0.7628  0.6190  0.6190  0.6730
  0.6730  0.5300  0.5300  0.5497

  free energy =  -0.635500507603E+01  energy without entropy=  -0.635219704931E+01


--------------------------------------------------------------------------------------------------------




----------------------------------------- Iteration    2(  61)  ---------------------------------------


    POTLOK:  cpu time    5.48: real time   10.99
    SETDIJ:  cpu time    4.92: real time    9.93
     EDDAV:  cpu time    2.11: real time    4.22
       DOS:  cpu time    0.00: real time    0.00
    CHARGE:  cpu time    3.94: real time    8.08
    MIXING:  cpu time    1.81: real time    3.65
    --------------------------------------------
      LOOP:  cpu time   18.27: real time   36.88

 eigenvalue-minimisations  :    48
 total energy-change (2. order) :-0.1355645E-04  (-0.1247739E-06)
 number of electron      17.9999999 magnetization       4.0000000
 augmentation part        6.6614844 magnetization       1.8930140

 eigenvalues of (default mixing * dielectric matrix)
  average eigenvalue GAMMA=   5.6457
 54.4032 42.1202 22.8326 14.0010 14.4684 12.6958 11.2825  9.7831  6.3930  4.6264
  4.6264  3.1310  2.2301  1.7487  1.7487  1.8960  1.8960  1.1216  1.1216  0.0581
  1.2149  0.0602  0.8443  0.8443  0.6728  0.6728  0.9792  0.7538  0.7538  0.8474
  0.8474  0.3506  0.6609  0.6609  0.5747  0.5747  0.6299  0.6299  0.4954  0.5749

  free energy =  -0.635501863248E+01  energy without entropy=  -0.635221217669E+01


--------------------------------------------------------------------------------------------------------




----------------------------------------- Iteration    2(  62)  ---------------------------------------


    POTLOK:  cpu time    5.50: real time   11.15
    SETDIJ:  cpu time    4.60: real time    9.29
     EDDAV:  cpu time    1.77: real time    3.57
       DOS:  cpu time    0.00: real time    0.00
    CHARGE:  cpu time    4.23: real time    8.51
    MIXING:  cpu time    1.80: real time    3.63
    --------------------------------------------
      LOOP:  cpu time   17.90: real time   36.38

 eigenvalue-minimisations  :    34
 total energy-change (2. order) : 0.1075758E-05  (-0.2083362E-07)
 number of electron      17.9999999 magnetization       4.0000000
 augmentation part        6.6614857 magnetization       1.8930122

 eigenvalues of (default mixing * dielectric matrix)
  average eigenvalue GAMMA=   5.5483
 54.4560 42.0488 23.0441 13.2949 14.4619 12.6886 11.2460  9.5664  6.2479  3.4141
  4.6931  4.6931  2.3152  2.3152  2.3296  1.6940  1.6940  1.1693  1.1693  1.3477
  0.0075  0.9148  0.9148  1.1369  0.7769  0.7769  0.4199  0.4199  0.7404  0.7404
  0.3722  0.6364  0.6364  0.7488  0.7488  0.4710  0.5478  0.5478  0.7128  0.6603
  0.6603

  free energy =  -0.635501755673E+01  energy without entropy=  -0.635221171684E+01


--------------------------------------------------------------------------------------------------------




----------------------------------------- Iteration    2(  63)  ---------------------------------------


    POTLOK:  cpu time    4.79: real time    9.41
    SETDIJ:  cpu time    5.38: real time   10.00
     EDDAV:  cpu time    1.74: real time    3.50
       DOS:  cpu time    0.00: real time    0.00
    CHARGE:  cpu time    4.34: real time    8.69
    MIXING:  cpu time    2.24: real time    4.51
    --------------------------------------------
      LOOP:  cpu time   18.48: real time   36.11

 eigenvalue-minimisations  :    34
 total energy-change (2. order) : 0.7288216E-05  (-0.1045018E-07)
 number of electron      17.9999999 magnetization       4.0000000
 augmentation part        6.6614836 magnetization       1.8930145

 eigenvalues of (default mixing * dielectric matrix)
  average eigenvalue GAMMA=   5.7489
 49.8992 42.4257 28.9734 23.4227 14.4185 12.7288 11.2119  9.5330  6.2871  5.1378
  5.1378  2.7385  2.7385  2.3054  2.3054  2.3654  1.3216  1.3216  1.4690  1.1152
  1.1152  0.7345  0.7345  0.0000  1.1281  0.8216  0.8216  0.8315  0.8315  0.7189
  0.7189  0.3752  0.3752  0.7860  0.6435  0.6435  0.6300  0.6300  0.4917  0.4917
  0.5629  0.5119

  free energy =  -0.635501026851E+01  energy without entropy=  -0.635220105837E+01


--------------------------------------------------------------------------------------------------------




----------------------------------------- Iteration    2(  64)  ---------------------------------------


    POTLOK:  cpu time    4.39: real time    8.68
    SETDIJ:  cpu time    5.15: real time   10.38
     EDDAV:  cpu time    2.45: real time    5.02
       DOS:  cpu time    0.00: real time    0.00
    CHARGE:  cpu time    4.34: real time    8.69
    MIXING:  cpu time    1.21: real time    2.57
    --------------------------------------------
      LOOP:  cpu time   17.55: real time   35.35

 eigenvalue-minimisations  :    56
 total energy-change (2. order) :-0.1311989E-04  (-0.1453203E-06)
 number of electron      17.9999999 magnetization       4.0000000
 augmentation part        6.6614830 magnetization       1.8930159

 eigenvalues of (default mixing * dielectric matrix)
  average eigenvalue GAMMA=   5.3050
 49.8804 42.9743 22.5005 16.9795 13.9253 13.9253 11.2150  9.7180  6.0961  4.0457
  4.0457  2.5282  2.8977  1.5759  1.5759  2.3115  2.3115  1.4561  1.4561  1.4186
  1.1414  1.1414  1.2579  0.0423  0.5024  0.5024  0.8075  0.8075  0.1174  0.8317
  0.8317  0.7866  0.6639  0.6639  0.6935  0.6935  0.3763  0.5103  0.5103  0.6303
  0.6303  0.5899  0.5459

  free energy =  -0.635502338840E+01  energy without entropy=  -0.635221536095E+01


--------------------------------------------------------------------------------------------------------




----------------------------------------- Iteration    2(  65)  ---------------------------------------


    POTLOK:  cpu time    4.78: real time    9.82
    SETDIJ:  cpu time    5.34: real time   10.76
     EDDAV:  cpu time    1.55: real time    3.13
       DOS:  cpu time    0.00: real time    0.00
    CHARGE:  cpu time    3.79: real time    7.65
    MIXING:  cpu time    1.75: real time    3.65
    --------------------------------------------
      LOOP:  cpu time   17.22: real time   35.02

 eigenvalue-minimisations  :    28
 total energy-change (2. order) : 0.2431583E-05  (-0.1107770E-07)
 number of electron      17.9999999 magnetization       4.0000000
 augmentation part        6.6614833 magnetization       1.8930155

 eigenvalues of (default mixing * dielectric matrix)
  average eigenvalue GAMMA=   5.3923
 50.3231 42.9351 24.3322 17.0515 13.9750 13.9750 11.2222  9.7187  7.5117  7.5117
  2.4604  3.9784  3.9784  2.2488  2.2488  2.0155  2.0155  1.0980  1.0980  1.2840
  1.2840  0.7847  0.7847  0.0305  1.0257  1.0257  0.8649  0.8649  0.1216  0.9508
  0.7424  0.7424  0.7473  0.7473  0.7398  0.6406  0.6406  0.3461  0.4925  0.4925
  0.5810  0.5810  0.5250  0.5250

  free energy =  -0.635502095682E+01  energy without entropy=  -0.635221072848E+01


--------------------------------------------------------------------------------------------------------




----------------------------------------- Iteration    2(  66)  ---------------------------------------


    POTLOK:  cpu time    5.20: real time   10.50
    SETDIJ:  cpu time    5.24: real time   10.63
     EDDAV:  cpu time    1.80: real time    3.67
       DOS:  cpu time    0.00: real time    0.00
    CHARGE:  cpu time    3.75: real time    7.70
    MIXING:  cpu time    1.72: real time    3.58
    --------------------------------------------
      LOOP:  cpu time   17.71: real time   36.08

 eigenvalue-minimisations  :    40
 total energy-change (2. order) :-0.9243579E-05  (-0.6043327E-07)
 number of electron      17.9999999 magnetization       4.0000000
 augmentation part        6.6614824 magnetization       1.8930174

 eigenvalues of (default mixing * dielectric matrix)
  average eigenvalue GAMMA=   5.8549
 50.0389 42.0866 25.7564 11.3428 11.3428 14.8247 13.2695 10.9404  9.6169  7.5209
  4.7871  4.7871  2.9636  2.9636  1.7933  1.7933  1.3978  1.3978  1.4079  0.0267
  1.0104  1.0104  0.8644  0.8644  0.8781  0.8781  0.4329  0.4329  0.8805  0.8805
  0.3394  0.7495  0.7495  0.6681  0.6681  0.6058  0.6058  0.4674  0.5752  0.5752

  free energy =  -0.635503020039E+01  energy without entropy=  -0.635222184165E+01


--------------------------------------------------------------------------------------------------------




----------------------------------------- Iteration    2(  67)  ---------------------------------------


    POTLOK:  cpu time    5.51: real time   11.09
    SETDIJ:  cpu time    5.35: real time   10.13
     EDDAV:  cpu time    1.34: real time    2.69
       DOS:  cpu time    0.00: real time    0.00
    CHARGE:  cpu time    3.75: real time    7.54
    MIXING:  cpu time    1.49: real time    3.18
    --------------------------------------------
      LOOP:  cpu time   17.44: real time   34.67

 eigenvalue-minimisations  :    40
 total energy-change (2. order) : 0.5490705E-05  (-0.3320975E-07)
 number of electron      17.9999999 magnetization       4.0000000
 augmentation part        6.6614845 magnetization       1.8930152

 eigenvalues of (default mixing * dielectric matrix)
  average eigenvalue GAMMA=   5.8869
 49.8450 42.2188 29.3236 11.1689 11.1689 14.1591 14.1591 11.2522  9.9892  8.6439
  5.2235  5.2235  3.0220  2.7918  2.0925  2.0925  1.1631  1.1631  1.4193  1.3144
  1.3144  0.0275  0.4460  0.4460  0.8287  0.8287  0.8192  0.8192  0.4943  0.4943
  0.8816  0.8816  0.6580  0.6580  0.4654  0.6330  0.6330  0.5776  0.5776  0.7214
  0.7214

  free energy =  -0.635502470969E+01  energy without entropy=  -0.635221515329E+01


--------------------------------------------------------------------------------------------------------




----------------------------------------- Iteration    2(  68)  ---------------------------------------


    POTLOK:  cpu time    5.79: real time   11.01
    SETDIJ:  cpu time    4.71: real time    9.56
     EDDAV:  cpu time    1.74: real time    3.47
       DOS:  cpu time    0.00: real time    0.00
    CHARGE:  cpu time    4.22: real time    8.27
    MIXING:  cpu time    1.82: real time    3.46
    --------------------------------------------
      LOOP:  cpu time   18.28: real time   35.79

 eigenvalue-minimisations  :    34
 total energy-change (2. order) :-0.3344488E-05  (-0.1220918E-07)
 number of electron      17.9999999 magnetization       4.0000000
 augmentation part        6.6614834 magnetization       1.8930167

 eigenvalues of (default mixing * dielectric matrix)
  average eigenvalue GAMMA=   5.8852
 48.3882 40.9163 31.8838 14.2946 14.2946 13.6245 13.6245 11.3407  9.8615  8.4300
  5.2410  5.2410  3.2966  2.7811  2.0965  2.0965  1.2192  1.2192  0.0274  0.4106
  0.4106  1.2356  1.2356  1.3313  0.8833  0.8833  0.8727  0.8727  1.0356  0.5163
  0.5163  0.8095  0.8095  0.6294  0.6294  0.6368  0.6368  0.7538  0.4688  0.5849
  0.5849  0.5553

  free energy =  -0.635502805418E+01  energy without entropy=  -0.635221959247E+01


--------------------------------------------------------------------------------------------------------




----------------------------------------- Iteration    2(  69)  ---------------------------------------


    POTLOK:  cpu time    5.92: real time   11.56
    SETDIJ:  cpu time    4.56: real time    9.14
     EDDAV:  cpu time    1.59: real time    3.26
       DOS:  cpu time    0.00: real time    0.01
    CHARGE:  cpu time    4.06: real time    8.13
    MIXING:  cpu time    2.06: real time    4.12
    --------------------------------------------
      LOOP:  cpu time   18.19: real time   36.23

 eigenvalue-minimisations  :    34
 total energy-change (2. order) : 0.5008603E-05  (-0.1062131E-07)
 number of electron      17.9999999 magnetization       4.0000000
 augmentation part        6.6614858 magnetization       1.8930178

 eigenvalues of (default mixing * dielectric matrix)
  average eigenvalue GAMMA=   5.7937
 47.8373 41.2888 33.6550 12.9742 12.9742 14.1310 14.1310 11.0852  9.7790  7.5783
  5.8443  5.8443  3.4775  2.8490  2.0353  2.0353  0.6421  0.6421  1.3219  1.3219
  1.4702  1.4702  0.0184  0.9633  0.9633  0.9917  0.9917  0.8873  0.8873  0.5902
  0.5902  0.8879  0.8879  0.8126  0.8126  0.5089  0.5089  0.6377  0.6377  0.4319
  0.5825  0.5825  0.5665

  free energy =  -0.635502304558E+01  energy without entropy=  -0.635221374936E+01


--------------------------------------------------------------------------------------------------------




----------------------------------------- Iteration    2(  70)  ---------------------------------------


    POTLOK:  cpu time    4.72: real time    9.71
    SETDIJ:  cpu time    4.91: real time    9.99
     EDDAV:  cpu time    1.63: real time    3.31
       DOS:  cpu time    0.00: real time    0.00
    --------------------------------------------
      LOOP:  cpu time   11.27: real time   23.02

 eigenvalue-minimisations  :    34
 total energy-change (2. order) :-0.3137432E-06  (-0.1154171E-07)
 number of electron      17.9999999 magnetization       4.0000000
 augmentation part        6.6614858 magnetization       1.8930178

  free energy =  -0.635502335932E+01  energy without entropy=  -0.635221391536E+01


--------------------------------------------------------------------------------------------------------




 average (electrostatic) potential at core
  the test charge radii are     1.1806
  (the norm of the test charge is              1.0000)
       1 -76.9852       2 -76.9852
 
 
 
 E-fermi :  -4.6323     XC(G=0):  -0.3178     alpha+bet : -0.0947


 spin component 1

 k-point     1 :       0.0000    0.0000    0.0000
  band No.  band energies     occupation 
      1      -9.1417      1.00000
      2      -8.4199      1.00000
      3      -8.4199      1.00000
      4      -6.6001      1.00000
      5      -6.5892      1.00000
      6      -5.8542      1.00000
      7      -5.8423      1.00000
      8      -5.5189      1.00000
      9      -5.5189      1.00000
     10      -5.2822      1.00000
     11      -5.2458      1.00000
     12      -3.1032      0.00000
     13      -1.2844      0.00000
     14      -1.2844      0.00000

 spin component 2

 k-point     1 :       0.0000    0.0000    0.0000
  band No.  band energies     occupation 
      1      -7.9863      1.00000
      2      -7.1862      1.00000
      3      -7.1862      1.00000
      4      -5.4730      1.00000
      5      -5.4726      1.00000
      6      -4.8200      1.00000
      7      -4.6326      0.53602
      8      -4.6320      0.46398
      9      -3.9819      0.00000
     10      -3.9819      0.00000
     11      -3.8831      0.00000
     12      -2.4062      0.00000
     13      -1.0713      0.00000
     14      -1.0713      0.00000


--------------------------------------------------------------------------------------------------------


 soft charge-density along one line, spin component           1
         0         1         2         3         4         5         6         7         8         9
 total charge-density along one line
 
 soft charge-density along one line, spin component           2
         0         1         2         3         4         5         6         7         8         9
 total charge-density along one line
 
 pseudopotential strength for first ion, spin component:           1
-10.334   0.000  -0.000   0.000   0.000   0.000  -0.000   0.000  -0.000   0.000 -10.052   0.000  -0.000   0.000   0.000   0.000
 -0.000   0.000 -10.654   0.000  -0.000   0.000  -0.000   0.000   0.000   0.000  -0.000   0.000 -10.351   0.000  -0.000   0.000
  0.000   0.000  -0.000   0.000 -10.734   0.000  -0.000   0.000   0.000   0.000   0.000   0.000  -0.000   0.000 -10.426   0.000
 -0.000   0.000  -0.000   0.000  -0.000   0.000 -10.654   0.000  -0.000   0.000  -0.000   0.000  -0.000   0.000  -0.000   0.000
 -0.000   0.000   0.000   0.000   0.000   0.000  -0.000   0.000 -10.323   0.000  -0.000   0.000   0.000   0.000   0.000   0.000
-10.052   0.000  -0.000   0.000   0.000   0.000  -0.000   0.000  -0.000   0.000  -9.758   0.000  -0.000   0.000   0.000   0.000
 -0.000   0.000 -10.351   0.000  -0.000   0.000  -0.000   0.000   0.000   0.000  -0.000   0.000 -10.039   0.000  -0.000   0.000
  0.000   0.000  -0.000   0.000 -10.426   0.000  -0.000   0.000   0.000   0.000   0.000   0.000  -0.000   0.000 -10.109   0.000
 -0.000   0.000  -0.000   0.000  -0.000   0.000 -10.351   0.000  -0.000   0.000  -0.000   0.000  -0.000   0.000  -0.000   0.000
 -0.000   0.000   0.000   0.000   0.000   0.000  -0.000   0.000 -10.041   0.000  -0.000   0.000   0.000   0.000   0.000   0.000
  0.000   0.000   0.000   0.000   0.103   0.000   0.000   0.000   0.000   0.000   0.000   0.000   0.000   0.000   0.098   0.000
 -0.000   0.000  -0.000   0.000  -0.160   0.000  -0.000   0.000  -0.000   0.000  -0.000   0.000  -0.000   0.000  -0.152   0.000
  0.000   0.000  -0.011   0.000  -0.000   0.000   0.000   0.000   0.000   0.000   0.000   0.000  -0.011   0.000  -0.000   0.000
  0.000   0.000  -0.000   0.000   0.019   0.000  -0.000   0.000  -0.000   0.000   0.000   0.000  -0.000   0.000   0.020   0.000
  0.000   0.000   0.000   0.000  -0.000   0.000  -0.011   0.000  -0.000   0.000   0.000   0.000   0.000   0.000  -0.000   0.000
  0.000   0.000  -0.018   0.000   0.000   0.000  -0.000   0.000  -0.000   0.000   0.000   0.000  -0.017   0.000   0.000   0.000
 -0.000   0.000   0.000   0.000  -0.032   0.000   0.000   0.000   0.000   0.000  -0.000   0.000   0.000   0.000  -0.031   0.000
  0.000   0.000  -0.000   0.000   0.000   0.000  -0.018   0.000   0.000   0.000   0.000   0.000  -0.000   0.000   0.000   0.000
 -0.000   0.000   0.000   0.000  -0.000   0.000  -0.000   0.000   0.000   0.000  -0.000   0.000   0.000   0.000  -0.000   0.000
  0.042   0.000   0.000   0.000   0.000   0.000   0.000   0.000  -0.000   0.000   0.040   0.000   0.000   0.000   0.000   0.000
  0.000   0.000   0.035   0.000   0.000   0.000   0.000   0.000  -0.000   0.000   0.000   0.000   0.034   0.000   0.000   0.000
  0.000   0.000  -0.000   0.000   0.019   0.000  -0.000   0.000  -0.000   0.000   0.000   0.000  -0.000   0.000   0.019   0.000
  0.000   0.000   0.000   0.000   0.000   0.000   0.035   0.000   0.000   0.000   0.000   0.000   0.000   0.000   0.000   0.000
 -0.000   0.000  -0.000   0.000   0.000   0.000   0.000   0.000   0.042   0.000  -0.000   0.000  -0.000   0.000   0.000   0.000
  0.000   0.000   0.000   0.000   0.000   0.000  -0.000   0.000   0.000   0.000   0.000   0.000   0.000   0.000   0.000   0.000
 -0.000   0.000  -0.000   0.000  -0.000   0.000   0.000   0.000  -0.000   0.000  -0.000   0.000  -0.000   0.000  -0.000   0.000
 -0.036   0.000  -0.000   0.000   0.000   0.000  -0.000   0.000  -0.000   0.000  -0.034   0.000  -0.000   0.000   0.000   0.000
 -0.000   0.000  -0.038   0.000  -0.000   0.000   0.000   0.000  -0.000   0.000  -0.000   0.000  -0.037   0.000  -0.000   0.000
 -0.000   0.000   0.000   0.000  -0.040   0.000   0.000   0.000   0.000   0.000   0.000   0.000   0.000   0.000  -0.040   0.000
 -0.000   0.000   0.000   0.000  -0.000   0.000  -0.038   0.000   0.000   0.000  -0.000   0.000   0.000   0.000  -0.000   0.000
 -0.000   0.000   0.000   0.000  -0.000   0.000  -0.000   0.000  -0.036   0.000  -0.000   0.000   0.000   0.000  -0.000   0.000
  0.000   0.000  -0.000   0.000   0.000   0.000   0.000   0.000  -0.000   0.000   0.000   0.000  -0.000   0.000   0.000   0.000
 pseudopotential strength for first ion, spin component:           2
 -9.801   0.000  -0.000   0.000   0.000   0.000  -0.000   0.000  -0.000   0.000  -9.551   0.000  -0.000   0.000   0.000   0.000
 -0.000   0.000  -9.987   0.000  -0.000   0.000  -0.000   0.000   0.000   0.000  -0.000   0.000  -9.727   0.000  -0.000   0.000
  0.000   0.000  -0.000   0.000 -10.109   0.000  -0.000   0.000   0.000   0.000   0.000   0.000  -0.000   0.000  -9.841   0.000
 -0.000   0.000  -0.000   0.000  -0.000   0.000  -9.987   0.000  -0.000   0.000  -0.000   0.000  -0.000   0.000  -0.000   0.000
 -0.000   0.000   0.000   0.000   0.000   0.000  -0.000   0.000  -9.801   0.000  -0.000   0.000   0.000   0.000   0.000   0.000
 -9.551   0.000  -0.000   0.000   0.000   0.000  -0.000   0.000  -0.000   0.000  -9.289   0.000  -0.000   0.000   0.000   0.000
 -0.000   0.000  -9.727   0.000  -0.000   0.000  -0.000   0.000   0.000   0.000  -0.000   0.000  -9.454   0.000  -0.000   0.000
  0.000   0.000  -0.000   0.000  -9.841   0.000  -0.000   0.000   0.000   0.000   0.000   0.000  -0.000   0.000  -9.562   0.000
 -0.000   0.000  -0.000   0.000  -0.000   0.000  -9.727   0.000  -0.000   0.000  -0.000   0.000  -0.000   0.000  -0.000   0.000
 -0.000   0.000   0.000   0.000   0.000   0.000  -0.000   0.000  -9.551   0.000  -0.000   0.000   0.000   0.000   0.000   0.000
  0.000   0.000   0.000   0.000   0.046   0.000   0.000   0.000   0.000   0.000   0.000   0.000   0.000   0.000   0.044   0.000
 -0.000   0.000  -0.000   0.000  -0.052   0.000  -0.000   0.000  -0.000   0.000  -0.000   0.000  -0.000   0.000  -0.050   0.000
  0.000   0.000  -0.020   0.000  -0.000   0.000   0.000   0.000   0.000   0.000   0.000   0.000  -0.018   0.000  -0.000   0.000
  0.000   0.000  -0.000   0.000   0.022   0.000  -0.000   0.000   0.000   0.000   0.000   0.000  -0.000   0.000   0.024   0.000
  0.000   0.000   0.000   0.000  -0.000   0.000  -0.020   0.000  -0.000   0.000   0.000   0.000   0.000   0.000  -0.000   0.000
  0.000   0.000   0.022   0.000   0.000   0.000  -0.000   0.000  -0.000   0.000   0.000   0.000   0.020   0.000   0.000   0.000
 -0.000   0.000   0.000   0.000   0.001   0.000   0.000   0.000  -0.000   0.000  -0.000   0.000   0.000   0.000  -0.001   0.000
  0.000   0.000  -0.000   0.000   0.000   0.000   0.022   0.000   0.000   0.000   0.000   0.000  -0.000   0.000   0.000   0.000
 -0.000   0.000   0.000   0.000  -0.000   0.000  -0.000   0.000   0.000   0.000  -0.000   0.000   0.000   0.000  -0.000   0.000
  0.042   0.000  -0.000   0.000   0.000   0.000  -0.000   0.000  -0.000   0.000   0.040   0.000  -0.000   0.000   0.000   0.000
  0.000   0.000   0.032   0.000   0.000   0.000   0.000   0.000  -0.000   0.000   0.000   0.000   0.031   0.000   0.000   0.000
  0.000   0.000  -0.000   0.000   0.015   0.000  -0.000   0.000   0.000   0.000   0.000   0.000  -0.000   0.000   0.015   0.000
  0.000   0.000   0.000   0.000   0.000   0.000   0.032   0.000   0.000   0.000   0.000   0.000   0.000   0.000   0.000   0.000
 -0.000   0.000  -0.000   0.000  -0.000   0.000   0.000   0.000   0.042   0.000  -0.000   0.000  -0.000   0.000  -0.000   0.000
  0.000   0.000   0.000   0.000   0.000   0.000  -0.000   0.000   0.000   0.000   0.000   0.000   0.000   0.000   0.000   0.000
 -0.000   0.000  -0.000   0.000  -0.000   0.000   0.000   0.000  -0.000   0.000  -0.000   0.000  -0.000   0.000  -0.000   0.000
 -0.057   0.000  -0.000   0.000   0.000   0.000  -0.000   0.000  -0.000   0.000  -0.054   0.000  -0.000   0.000   0.000   0.000
 -0.000   0.000  -0.065   0.000  -0.000   0.000   0.000   0.000  -0.000   0.000  -0.000   0.000  -0.063   0.000  -0.000   0.000
 -0.000   0.000   0.000   0.000  -0.067   0.000   0.000   0.000  -0.000   0.000  -0.000   0.000   0.000   0.000  -0.066   0.000
 -0.000   0.000   0.000   0.000  -0.000   0.000  -0.065   0.000   0.000   0.000  -0.000   0.000   0.000   0.000  -0.000   0.000
 -0.000   0.000   0.000   0.000  -0.000   0.000  -0.000   0.000  -0.057   0.000  -0.000   0.000   0.000   0.000  -0.000   0.000
  0.000   0.000  -0.000   0.000   0.000   0.000   0.000   0.000  -0.000   0.000   0.000   0.000  -0.000   0.000   0.000   0.000
 total augmentation occupancy for first ion, spin component:           1
  1.918   0.000   0.000   0.000  -0.000  -0.185   0.000   0.000  -0.000  -0.000  -0.000   0.000   0.000  -0.000   0.000  -0.000
  0.000   2.497  -0.000   0.000   0.000  -0.000  -1.573   0.000   0.000   0.000  -0.000   0.000  -0.240  -0.000   0.000   0.003
  0.000  -0.000   3.610  -0.000  -0.000   0.000  -0.000  -2.984   0.000   0.000  -1.229  -0.022  -0.000  -0.495   0.000  -0.000
  0.000   0.000  -0.000   2.497   0.000   0.000   0.000   0.000  -1.573  -0.000  -0.000   0.000   0.000  -0.000  -0.240   0.000
 -0.000   0.000  -0.000   0.000   1.967   0.000   0.000  -0.000  -0.000  -0.192  -0.000   0.000  -0.000   0.000   0.000   0.000
 -0.185  -0.000   0.000   0.000  -0.000   0.175  -0.000   0.000   0.000   0.000   0.000   0.000   0.000  -0.000  -0.000   0.000
  0.000  -1.573  -0.000   0.000  -0.000  -0.000   2.172  -0.000   0.000   0.000   0.000   0.000   0.319   0.000   0.000   0.004
  0.000   0.000  -2.984   0.000  -0.000   0.000  -0.000   3.959   0.000   0.000   1.318   0.002   0.000   0.662  -0.000   0.000
 -0.000   0.000   0.000  -1.573   0.000   0.000   0.000   0.000   2.172   0.000  -0.000   0.000   0.000   0.000   0.319   0.000
 -0.000   0.000   0.000  -0.000  -0.192   0.000   0.000   0.000   0.000   0.177   0.000  -0.000   0.000   0.000  -0.000   0.000
 -0.000  -0.000  -1.229  -0.000   0.000   0.000   0.000   1.318  -0.000   0.000   1.463   0.006  -0.000   0.310  -0.000   0.000
  0.000   0.000  -0.022   0.000   0.000   0.000   0.000   0.002   0.000  -0.000   0.006   0.000   0.000   0.001   0.000  -0.000
 -0.000  -0.240  -0.000   0.000  -0.000   0.000   0.319   0.000   0.000   0.000  -0.000   0.000   0.047   0.000   0.000   0.000
  0.000  -0.000  -0.495  -0.000   0.000  -0.000   0.000   0.662   0.000   0.000   0.310   0.001   0.000   0.120   0.000   0.000
 -0.000   0.000   0.000  -0.240   0.000   0.000   0.000  -0.000   0.319  -0.000  -0.000   0.000   0.000   0.000   0.047   0.000
 -0.000   0.003  -0.000   0.000   0.000   0.000   0.004   0.000   0.000   0.000   0.000  -0.000   0.000   0.000   0.000   0.000
 -0.000  -0.000   0.006   0.000   0.000   0.000  -0.000  -0.007  -0.000   0.000   0.000  -0.000  -0.000  -0.001   0.000   0.000
  0.000   0.000   0.000   0.003   0.000   0.000   0.000  -0.000   0.004   0.000   0.000   0.000   0.000   0.000   0.000   0.000
 -0.000  -0.000   0.000  -0.000  -0.000  -0.000   0.000  -0.000   0.000   0.000   0.000   0.000   0.000   0.000  -0.000  -0.000
 -0.016   0.000  -0.000   0.000  -0.000   0.023   0.000   0.000   0.000   0.000   0.000   0.000  -0.000   0.000  -0.000   0.000
  0.000  -0.148  -0.000   0.000   0.000  -0.000   0.220  -0.000   0.000   0.000   0.000   0.000   0.032  -0.000   0.000   0.000
  0.000   0.000  -0.246   0.000   0.000   0.000   0.000   0.341  -0.000   0.000   0.067  -0.000  -0.000   0.053   0.000   0.000
  0.000   0.000  -0.000  -0.148   0.000   0.000   0.000  -0.000   0.220   0.000   0.000   0.000   0.000  -0.000   0.032   0.000
  0.000   0.000   0.000   0.000  -0.018  -0.000  -0.000   0.000  -0.000   0.023   0.000   0.000  -0.000   0.000  -0.000   0.000
  0.000   0.000  -0.000   0.000  -0.000  -0.000   0.000   0.000  -0.000  -0.000   0.000  -0.000  -0.000  -0.000  -0.000   0.000
 -0.000  -0.000   0.000  -0.000   0.000   0.000   0.000   0.000   0.000   0.000   0.000  -0.000   0.000  -0.000   0.000  -0.000
 -0.001  -0.000   0.000  -0.000  -0.000   0.008  -0.000   0.000  -0.000  -0.000   0.000   0.000  -0.000   0.000   0.000   0.000
  0.000  -0.048   0.000   0.000   0.000   0.000   0.076  -0.000  -0.000  -0.000  -0.000   0.000   0.011  -0.000   0.000   0.000
  0.000   0.000  -0.079   0.000   0.000  -0.000   0.000   0.113   0.000   0.000   0.022  -0.000   0.000   0.018   0.000   0.000
 -0.000  -0.000   0.000  -0.048  -0.000   0.000   0.000   0.000   0.076  -0.000   0.000   0.000   0.000   0.000   0.011   0.000
  0.000  -0.000   0.000  -0.000  -0.002   0.000   0.000   0.000  -0.000   0.008   0.000   0.000  -0.000   0.000  -0.000   0.000
 -0.000  -0.000   0.000   0.000   0.000  -0.000   0.000   0.000  -0.000  -0.000   0.000   0.000   0.000  -0.000  -0.000  -0.000
 total augmentation occupancy for first ion, spin component:           2
  0.660  -0.000   0.000   0.000  -0.000  -0.199  -0.000   0.000  -0.000  -0.000  -0.000   0.000   0.000  -0.000   0.000   0.000
 -0.000   2.417   0.000   0.000   0.000   0.000  -1.203  -0.000   0.000   0.000   0.000  -0.000  -0.187  -0.000   0.000   0.004
  0.000   0.000   3.017   0.000   0.000   0.000   0.000  -1.753  -0.000  -0.000  -0.508  -0.024   0.000  -0.242  -0.000   0.000
 -0.000   0.000   0.000   2.417   0.000   0.000   0.000   0.000  -1.203  -0.000   0.000   0.000   0.000  -0.000  -0.187   0.000
  0.000   0.000   0.000   0.000   0.572  -0.000   0.000  -0.000   0.000  -0.171  -0.000   0.000  -0.000   0.000   0.000  -0.000
 -0.199   0.000   0.000   0.000   0.000   0.018   0.000   0.000   0.000   0.000  -0.000   0.000  -0.000   0.000  -0.000  -0.000
 -0.000  -1.203   0.000   0.000   0.000   0.000   0.459   0.000   0.000   0.000   0.000  -0.000   0.074   0.000   0.000  -0.001
 -0.000  -0.000  -1.753   0.000  -0.000   0.000   0.000   0.897   0.000  -0.000   0.306   0.015  -0.000   0.123  -0.000   0.000
 -0.000   0.000  -0.000  -1.203  -0.000   0.000   0.000   0.000   0.459   0.000   0.000   0.000   0.000   0.000   0.074   0.000
 -0.000   0.000  -0.000  -0.000  -0.171   0.000   0.000  -0.000   0.000   0.013   0.000  -0.000  -0.000   0.000   0.000   0.000
 -0.000   0.000  -0.508   0.000  -0.000  -0.000   0.000   0.306   0.000   0.000   0.114   0.003   0.000   0.017  -0.000   0.000
  0.000  -0.000  -0.024   0.000   0.000   0.000  -0.000   0.015   0.000  -0.000   0.003   0.000   0.000   0.002  -0.000  -0.000
  0.000  -0.187   0.000   0.000  -0.000  -0.000   0.074  -0.000   0.000  -0.000   0.000   0.000   0.012   0.000   0.000  -0.000
  0.000  -0.000  -0.242  -0.000   0.000   0.000   0.000   0.123   0.000   0.000   0.017   0.002   0.000   0.012   0.000  -0.000
  0.000   0.000  -0.000  -0.187   0.000  -0.000   0.000  -0.000   0.074   0.000  -0.000  -0.000   0.000   0.000   0.012   0.000
  0.000   0.004   0.000   0.000  -0.000  -0.000  -0.001   0.000   0.000   0.000   0.000  -0.000  -0.000  -0.000   0.000   0.000
  0.000   0.000   0.004   0.000   0.000   0.000  -0.000   0.001   0.000   0.000   0.000  -0.000   0.000   0.000   0.000   0.000
 -0.000   0.000  -0.000   0.004   0.000  -0.000   0.000  -0.000  -0.001   0.000   0.000  -0.000   0.000  -0.000  -0.000   0.000
  0.000  -0.000  -0.000  -0.000   0.000   0.000   0.000  -0.000   0.000   0.000  -0.000  -0.000   0.000   0.000  -0.000   0.000
 -0.021   0.000   0.000  -0.000  -0.000   0.002  -0.000   0.000   0.000   0.000   0.000   0.000   0.000   0.000   0.000   0.000
  0.000  -0.110   0.000   0.000   0.000  -0.000   0.046   0.000   0.000  -0.000   0.000   0.000   0.007   0.000   0.000  -0.000
  0.000   0.000  -0.156   0.000   0.000   0.000   0.000   0.085   0.000   0.000   0.028   0.001  -0.000   0.013   0.000   0.000
  0.000   0.000   0.000  -0.110  -0.000  -0.000   0.000   0.000   0.046   0.000   0.000  -0.000   0.000   0.000   0.007   0.000
 -0.000   0.000   0.000   0.000  -0.019   0.000   0.000   0.000  -0.000   0.001  -0.000   0.000  -0.000   0.000  -0.000   0.000
  0.000   0.000  -0.000   0.000  -0.000  -0.000   0.000   0.000  -0.000  -0.000  -0.000  -0.000  -0.000   0.000  -0.000   0.000
  0.000  -0.000  -0.000  -0.000   0.000   0.000   0.000  -0.000   0.000  -0.000  -0.000  -0.000   0.000  -0.000   0.000   0.000
 -0.006  -0.000   0.000  -0.000   0.000   0.000  -0.000   0.000   0.000   0.000   0.000   0.000  -0.000   0.000  -0.000   0.000
  0.000  -0.035  -0.000   0.000  -0.000  -0.000   0.014   0.000  -0.000  -0.000  -0.000   0.000   0.002   0.000   0.000  -0.000
  0.000  -0.000  -0.050   0.000   0.000  -0.000  -0.000   0.027  -0.000   0.000   0.009   0.000   0.000   0.004  -0.000   0.000
 -0.000  -0.000  -0.000  -0.035  -0.000   0.000   0.000   0.000   0.014  -0.000  -0.000  -0.000   0.000   0.000   0.002   0.000
  0.000  -0.000   0.000   0.000  -0.005  -0.000   0.000  -0.000  -0.000   0.000   0.000   0.000  -0.000   0.000   0.000  -0.000
  0.000  -0.000   0.000   0.000   0.000   0.000   0.000  -0.000  -0.000   0.000  -0.000   0.000   0.000  -0.000  -0.000  -0.000


------------------------ aborting loop because EDIFF is reached ----------------------------------------


 


 total charge     
 
# of ion     s       p       d       f       tot
------------------------------------------------
  1        0.620   0.137   7.622   0.060   8.439
  2        0.620   0.137   7.622   0.060   8.439
------------------------------------------------
tot        1.240   0.274  15.244   0.120  16.878

 


 magnetization (x)
 
# of ion     s       p       d       f       tot
------------------------------------------------
  1        0.048   0.023   1.789   0.013   1.873
  2        0.048   0.023   1.789   0.013   1.873
------------------------------------------------
tot        0.095   0.046   3.579   0.026   3.746

 
    CHARGE:  cpu time    3.96: real time    8.10
    FORLOC:  cpu time    0.09: real time    0.21
    FORNL :  cpu time   20.35: real time   41.21
    FORCOR:  cpu time    9.63: real time   19.30
    FORHAR:  cpu time    0.55: real time    1.11
    MIXING:  cpu time    1.67: real time    3.34
    OFIELD:  cpu time    0.00: real time    0.00

 VOLUME and BASIS-vectors are now :
 -----------------------------------------------------------------------------
  energy-cutoff  :      500.00
  volume of cell :     4913.00
      direct lattice vectors                 reciprocal lattice vectors
    17.000000000  0.000000000  0.000000000     0.058823529  0.000000000  0.000000000
     0.000000000 17.000000000  0.000000000     0.000000000  0.058823529  0.000000000
     0.000000000  0.000000000 17.000000000     0.000000000  0.000000000  0.058823529

  length of vectors
    17.000000000 17.000000000 17.000000000     0.058823529  0.058823529  0.058823529


 FORCES acting on ions
    electron-ion (+dipol)            ewald-force                    non-local-force                 convergence-correction
 -----------------------------------------------------------------------------------------------
   0.877E-13 0.945E-12 0.255E+03   0.357E-16 0.116E-16 -.252E+03   -.207E-24 -.517E-25 -.423E+01   -.218E-11 -.219E-11 0.390E-02
   0.770E-13 -.737E-12 -.255E+03   -.607E-17 -.632E-16 0.252E+03   -.155E-24 -.517E-25 0.423E+01   -.143E-11 -.219E-11 -.390E-02
 -----------------------------------------------------------------------------------------------
   0.165E-12 0.208E-12 0.108E-11   0.297E-16 -.516E-16 0.000E+00   -.362E-24 -.103E-24 -.888E-15   -.361E-11 -.438E-11 -.396E-11
 
 
 POSITION                                       TOTAL-FORCE (eV/Angst)
 -----------------------------------------------------------------------------------
      0.00000      0.00000     15.92812         0.000000      0.000000     -0.904240
      0.00000      0.00000      1.07188        -0.000000     -0.000000      0.904240
 -----------------------------------------------------------------------------------
    total drift:                               -0.000000     -0.000000     -0.000000


--------------------------------------------------------------------------------------------------------



  FREE ENERGIE OF THE ION-ELECTRON SYSTEM (eV)
  ---------------------------------------------------
  free  energy   TOTEN  =        -6.35502336 eV

  energy  without entropy=       -6.35221392  energy(sigma->0) =       -6.35361864
 
 d Force = 0.2915563E-01[-0.118E+00, 0.176E+00]  d Energy = 0.4435709E-01-0.152E-01
 d Force =-0.3094947E+02[-0.328E+02,-0.291E+02]  d Ewald  =-0.3089510E+02-0.544E-01


--------------------------------------------------------------------------------------------------------


    POTLOK:  cpu time    9.49: real time   19.04


--------------------------------------------------------------------------------------------------------


 Steepest descent step on ions:
 trial-energy change:   -0.044357  1 .order   -0.029156   -0.176218    0.117907
  (g-gl).g = 0.176E+00      g.g   = 0.176E+00  gl.gl    = 0.000E+00
 g(Force)  = 0.176E+00   g(Stress)= 0.000E+00 ortho     = 0.000E+00
 gamma     =   0.00000
 trial     =   1.00000
 opt step  =   0.66791  (harmonic =   0.59913) maximal distance =0.04354552
 next E    =    -6.374045   (d E  =  -0.06338)


--------------------------------------------------------------------------------------------------------


    WAVPRE:  cpu time    0.40: real time    0.84
 FEWALD executed in parallel
    FEWALD:  cpu time    0.03: real time    0.09

 real space projection operators:
  total allocation   :       1406.50 KBytes
  max/ min on nodes  :        360.00        347.50

    ORTHCH:  cpu time    0.44: real time    0.90
     LOOP+:  cpu time 1257.30: real time 2532.42


----------------------------------------- Iteration    3(   1)  ---------------------------------------


    POTLOK:  cpu time    4.99: real time   10.10
    SETDIJ:  cpu time    4.81: real time    9.79
     EDDAV:  cpu time    2.50: real time    5.01
       DOS:  cpu time    0.00: real time    0.00
    CHARGE:  cpu time    4.07: real time    8.09
    MIXING:  cpu time    0.18: real time    0.37
    --------------------------------------------
      LOOP:  cpu time   16.56: real time   33.36

 eigenvalue-minimisations  :    56
 total energy-change (2. order) :-0.9166677E-02  (-0.7429672E+00)
 number of electron      18.0000000 magnetization       4.0000000
 augmentation part        6.6606465 magnetization       1.8922929

  free energy =  -0.636418972218E+01  energy without entropy=  -0.636137826162E+01


--------------------------------------------------------------------------------------------------------




----------------------------------------- Iteration    3(   2)  ---------------------------------------


    POTLOK:  cpu time    5.67: real time   11.48
    SETDIJ:  cpu time    4.51: real time    9.04
     EDDAV:  cpu time    2.37: real time    4.78
       DOS:  cpu time    0.00: real time    0.00
    CHARGE:  cpu time    4.48: real time    9.04
    MIXING:  cpu time    0.16: real time    0.32
    --------------------------------------------
      LOOP:  cpu time   17.20: real time   34.68

 eigenvalue-minimisations  :    56
 total energy-change (2. order) :-0.7746279E-02  (-0.7178911E-02)
 number of electron      18.0000000 magnetization       4.0000000
 augmentation part        6.6607128 magnetization       1.8944942

 eigenvalues of (default mixing * dielectric matrix)
  average eigenvalue GAMMA=   0.3491
  0.3491

  free energy =  -0.637193600087E+01  energy without entropy=  -0.636929134092E+01


--------------------------------------------------------------------------------------------------------




----------------------------------------- Iteration    3(   3)  ---------------------------------------


    POTLOK:  cpu time    4.83: real time    9.78
    SETDIJ:  cpu time    4.86: real time    9.79
     EDDAV:  cpu time    2.50: real time    5.02
       DOS:  cpu time    0.00: real time    0.02
    CHARGE:  cpu time    4.61: real time    9.28
    MIXING:  cpu time    0.17: real time    0.34
    --------------------------------------------
      LOOP:  cpu time   16.96: real time   34.25

 eigenvalue-minimisations  :    56
 total energy-change (2. order) : 0.7409928E-03  (-0.4324808E-03)
 number of electron      18.0000000 magnetization       4.0000000
 augmentation part        6.6603495 magnetization       1.8948386

 eigenvalues of (default mixing * dielectric matrix)
  average eigenvalue GAMMA=   1.0551
  1.9183  0.1919

  free energy =  -0.637119500810E+01  energy without entropy=  -0.636838781615E+01


--------------------------------------------------------------------------------------------------------




----------------------------------------- Iteration    3(   4)  ---------------------------------------


    POTLOK:  cpu time    4.66: real time    9.34
    SETDIJ:  cpu time    5.06: real time   10.17
     EDDAV:  cpu time    2.56: real time    5.12
       DOS:  cpu time    0.00: real time    0.00
    CHARGE:  cpu time    4.03: real time    8.30
    MIXING:  cpu time    0.14: real time    0.30
    --------------------------------------------
      LOOP:  cpu time   16.46: real time   33.25

 eigenvalue-minimisations  :    56
 total energy-change (2. order) :-0.5177674E-03  (-0.2377151E-03)
 number of electron      18.0000000 magnetization       4.0000000
 augmentation part        6.6604836 magnetization       1.8949619

 eigenvalues of (default mixing * dielectric matrix)
  average eigenvalue GAMMA=   4.0095
 10.9778  0.8915  0.1591

  free energy =  -0.637171277553E+01  energy without entropy=  -0.636895081201E+01


--------------------------------------------------------------------------------------------------------




----------------------------------------- Iteration    3(   5)  ---------------------------------------


    POTLOK:  cpu time    4.73: real time    9.49
    SETDIJ:  cpu time    5.14: real time   10.37
     EDDAV:  cpu time    2.60: real time    5.21
       DOS:  cpu time    0.00: real time    0.00
    CHARGE:  cpu time    4.37: real time    8.74
    MIXING:  cpu time    0.12: real time    0.26
    --------------------------------------------
      LOOP:  cpu time   16.97: real time   34.09

 eigenvalue-minimisations  :    56
 total energy-change (2. order) :-0.1213086E-01  (-0.5183546E-03)
 number of electron      17.9999999 magnetization       4.0000000
 augmentation part        6.6618699 magnetization       1.8958290

 eigenvalues of (default mixing * dielectric matrix)
  average eigenvalue GAMMA=   3.5956
 12.5539  0.1603  0.8340  0.8340

  free energy =  -0.638384363162E+01  energy without entropy=  -0.638383982439E+01


--------------------------------------------------------------------------------------------------------




----------------------------------------- Iteration    3(   6)  ---------------------------------------


    POTLOK:  cpu time    4.69: real time    8.87
    SETDIJ:  cpu time    5.25: real time   10.59
     EDDAV:  cpu time    2.47: real time    5.08
       DOS:  cpu time    0.00: real time    0.00
    CHARGE:  cpu time    3.78: real time    7.75
    MIXING:  cpu time    0.14: real time    0.31
    --------------------------------------------
      LOOP:  cpu time   16.33: real time   32.60

 eigenvalue-minimisations  :    56
 total energy-change (2. order) : 0.5327052E-02  (-0.6672100E-03)
 number of electron      17.9999999 magnetization       4.0000000
 augmentation part        6.6625607 magnetization       1.8956465

 eigenvalues of (default mixing * dielectric matrix)
  average eigenvalue GAMMA=   5.4526
 18.5394  6.7219  0.1605  0.9918  0.8495

  free energy =  -0.637851657944E+01  energy without entropy=  -0.637850190993E+01


--------------------------------------------------------------------------------------------------------




----------------------------------------- Iteration    3(   7)  ---------------------------------------


    POTLOK:  cpu time    5.09: real time   10.05
    SETDIJ:  cpu time    5.47: real time   10.69
     EDDAV:  cpu time    2.73: real time    5.44
       DOS:  cpu time    0.00: real time    0.00
    CHARGE:  cpu time    3.53: real time    7.00
    MIXING:  cpu time    0.21: real time    0.48
    --------------------------------------------
      LOOP:  cpu time   17.03: real time   33.67

 eigenvalue-minimisations  :    56
 total energy-change (2. order) : 0.4242951E-02  (-0.2690256E-01)
 number of electron      18.0000000 magnetization       4.0000000
 augmentation part        6.6617207 magnetization       1.8973615

 eigenvalues of (default mixing * dielectric matrix)
  average eigenvalue GAMMA=   7.6132
 31.8394 11.0252  0.1605  0.9770  0.8386  0.8386

  free energy =  -0.637427362842E+01  energy without entropy=  -0.637427143169E+01


--------------------------------------------------------------------------------------------------------




----------------------------------------- Iteration    3(   8)  ---------------------------------------


    POTLOK:  cpu time    5.28: real time   10.71
    SETDIJ:  cpu time    5.26: real time   10.60
     EDDAV:  cpu time    2.20: real time    4.41
       DOS:  cpu time    0.00: real time    0.00
    CHARGE:  cpu time    3.85: real time    7.68
    MIXING:  cpu time    0.34: real time    0.61
    --------------------------------------------
      LOOP:  cpu time   16.92: real time   34.02

 eigenvalue-minimisations  :    56
 total energy-change (2. order) :-0.3008399E-01  (-0.3308770E-02)
 number of electron      18.0000000 magnetization       4.0000000
 augmentation part        6.6627280 magnetization       1.8972705

 eigenvalues of (default mixing * dielectric matrix)
  average eigenvalue GAMMA=   6.9960
 34.1583 10.4439  0.1605  1.3618  0.9175  0.9175  1.0125

  free energy =  -0.640435762320E+01  energy without entropy=  -0.640435762320E+01


--------------------------------------------------------------------------------------------------------




----------------------------------------- Iteration    3(   9)  ---------------------------------------


    POTLOK:  cpu time    5.04: real time    9.99
    SETDIJ:  cpu time    5.37: real time   10.95
     EDDAV:  cpu time    1.46: real time    3.01
       DOS:  cpu time    0.00: real time    0.01
    CHARGE:  cpu time    3.36: real time    6.72
    MIXING:  cpu time    0.30: real time    0.61
    --------------------------------------------
      LOOP:  cpu time   15.55: real time   31.30

 eigenvalue-minimisations  :    56
 total energy-change (2. order) : 0.6506069E-02  (-0.7396270E-04)
 number of electron      18.0000000 magnetization       4.0000000
 augmentation part        6.6630721 magnetization       1.8972733

 eigenvalues of (default mixing * dielectric matrix)
  average eigenvalue GAMMA=   8.7930
 46.1363 10.1365 10.1365  0.1605  0.8680  0.8680  1.0605  0.9779

  free energy =  -0.639785155409E+01  energy without entropy=  -0.639785155409E+01


--------------------------------------------------------------------------------------------------------




----------------------------------------- Iteration    3(  10)  ---------------------------------------


    POTLOK:  cpu time    5.03: real time   10.25
    SETDIJ:  cpu time    5.30: real time   10.57
     EDDAV:  cpu time    2.01: real time    3.94
       DOS:  cpu time    0.00: real time    0.00
    CHARGE:  cpu time    3.79: real time    7.60
    MIXING:  cpu time    0.23: real time    0.47
    --------------------------------------------
      LOOP:  cpu time   16.36: real time   32.84

 eigenvalue-minimisations  :    56
 total energy-change (2. order) : 0.2863746E-01  (-0.2839299E-03)
 number of electron      18.0000000 magnetization       4.0000000
 augmentation part        6.6629469 magnetization       1.8962736

 eigenvalues of (default mixing * dielectric matrix)
  average eigenvalue GAMMA=   7.9468
 46.8920  9.9853  9.9853  0.1605  1.1457  0.9670  0.8672  0.8672  0.6511

  free energy =  -0.636921409418E+01  energy without entropy=  -0.636795159306E+01


--------------------------------------------------------------------------------------------------------




----------------------------------------- Iteration    3(  11)  ---------------------------------------


    POTLOK:  cpu time    5.40: real time   10.84
    SETDIJ:  cpu time    5.01: real time   10.07
     EDDAV:  cpu time    1.80: real time    3.70
       DOS:  cpu time    0.00: real time    0.00
    CHARGE:  cpu time    3.80: real time    7.60
    MIXING:  cpu time    0.25: real time    0.51
    --------------------------------------------
      LOOP:  cpu time   16.27: real time   32.73

 eigenvalue-minimisations  :    56
 total energy-change (2. order) :-0.1441803E-02  (-0.4109127E-04)
 number of electron      18.0000000 magnetization       4.0000000
 augmentation part        6.6628657 magnetization       1.8962251

 eigenvalues of (default mixing * dielectric matrix)
  average eigenvalue GAMMA=   7.7003
 48.3646 10.5924  6.5256  6.5256  0.1605  0.8665  0.8665  1.0661  1.0661  0.9690

  free energy =  -0.637065589732E+01  energy without entropy=  -0.636973385183E+01


--------------------------------------------------------------------------------------------------------




----------------------------------------- Iteration    3(  12)  ---------------------------------------


    POTLOK:  cpu time    5.18: real time   10.57
    SETDIJ:  cpu time    4.72: real time    9.70
     EDDAV:  cpu time    1.81: real time    3.63
       DOS:  cpu time    0.00: real time    0.00
    CHARGE:  cpu time    3.78: real time    7.56
    MIXING:  cpu time    0.34: real time    0.68
    --------------------------------------------
      LOOP:  cpu time   15.83: real time   32.16

 eigenvalue-minimisations  :    56
 total energy-change (2. order) : 0.3148442E-02  (-0.5923714E-05)
 number of electron      18.0000000 magnetization       4.0000000
 augmentation part        6.6626715 magnetization       1.8963688

 eigenvalues of (default mixing * dielectric matrix)
  average eigenvalue GAMMA=   7.8065
 48.8397 11.0253 10.1131 10.1131  0.1605  1.0974  1.0974  0.9707  0.8686  0.8686
  0.7173

  free energy =  -0.636750745509E+01  energy without entropy=  -0.636516261374E+01


--------------------------------------------------------------------------------------------------------




----------------------------------------- Iteration    3(  13)  ---------------------------------------


    POTLOK:  cpu time    5.22: real time   10.47
    SETDIJ:  cpu time    4.93: real time    9.88
     EDDAV:  cpu time    2.14: real time    4.29
       DOS:  cpu time    0.00: real time    0.00
    CHARGE:  cpu time    4.03: real time    8.36
    MIXING:  cpu time    0.49: real time    0.99
    --------------------------------------------
      LOOP:  cpu time   16.82: real time   34.00

 eigenvalue-minimisations  :    56
 total energy-change (2. order) :-0.1852929E-02  (-0.1693244E-03)
 number of electron      18.0000000 magnetization       4.0000000
 augmentation part        6.6625276 magnetization       1.8964850

 eigenvalues of (default mixing * dielectric matrix)
  average eigenvalue GAMMA=   7.3664
 48.6414 11.1117 10.5656 10.5656  0.1605  1.8177  1.0740  0.9699  0.8673  0.8673
  0.8780  0.8780

  free energy =  -0.636936038380E+01  energy without entropy=  -0.636656002982E+01


--------------------------------------------------------------------------------------------------------




----------------------------------------- Iteration    3(  14)  ---------------------------------------


    POTLOK:  cpu time    4.98: real time    9.99
    SETDIJ:  cpu time    4.77: real time    9.51
     EDDAV:  cpu time    2.20: real time    4.41
       DOS:  cpu time    0.00: real time    0.00
    CHARGE:  cpu time    3.77: real time    7.62
    MIXING:  cpu time    0.59: real time    1.21
    --------------------------------------------
      LOOP:  cpu time   16.31: real time   32.76

 eigenvalue-minimisations  :    56
 total energy-change (2. order) :-0.3693121E-02  (-0.2241586E-03)
 number of electron      18.0000000 magnetization       4.0000000
 augmentation part        6.6625291 magnetization       1.8964633

 eigenvalues of (default mixing * dielectric matrix)
  average eigenvalue GAMMA=   7.4621
 49.3549 11.5144 11.5144 11.2408  7.1342  0.1605  0.9982  0.9982  1.0040  0.8664
  0.8664  0.8053  0.5493

  free energy =  -0.637305350510E+01  energy without entropy=  -0.637024349416E+01


--------------------------------------------------------------------------------------------------------




----------------------------------------- Iteration    3(  15)  ---------------------------------------


    POTLOK:  cpu time    5.54: real time   11.05
    SETDIJ:  cpu time    4.60: real time    9.26
     EDDAV:  cpu time    2.60: real time    5.21
       DOS:  cpu time    0.00: real time    0.00
    CHARGE:  cpu time    4.48: real time    8.85
    MIXING:  cpu time    0.36: real time    0.76
    --------------------------------------------
      LOOP:  cpu time   17.59: real time   35.13

 eigenvalue-minimisations  :    56
 total energy-change (2. order) :-0.1084623E-02  (-0.6407179E-04)
 number of electron      18.0000000 magnetization       4.0000000
 augmentation part        6.6625481 magnetization       1.8964417

 eigenvalues of (default mixing * dielectric matrix)
  average eigenvalue GAMMA=   7.4060
 50.3690 11.7102 11.7102 11.1853 10.4774  0.1605  1.2581  1.2581  0.9993  0.9993
  0.8750  0.8750  0.9031  0.9031

  free energy =  -0.637413812783E+01  energy without entropy=  -0.637132012373E+01


--------------------------------------------------------------------------------------------------------




----------------------------------------- Iteration    3(  16)  ---------------------------------------


    POTLOK:  cpu time    4.76: real time    9.57
    SETDIJ:  cpu time    5.02: real time   10.02
     EDDAV:  cpu time    2.30: real time    4.70
       DOS:  cpu time    0.00: real time    0.02
    CHARGE:  cpu time    4.13: real time    8.38
    MIXING:  cpu time    0.80: real time    1.65
    --------------------------------------------
      LOOP:  cpu time   17.03: real time   34.35

 eigenvalue-minimisations  :    56
 total energy-change (2. order) : 0.1160463E-04  (-0.1012501E-04)
 number of electron      18.0000000 magnetization       4.0000000
 augmentation part        6.6625642 magnetization       1.8964381

 eigenvalues of (default mixing * dielectric matrix)
  average eigenvalue GAMMA=   6.9936
 50.7598 11.5110 11.5110 10.9563 10.9563  0.1605  1.4173  1.2788  1.0087  1.0087
  0.8919  0.8919  0.8914  0.8914  0.7687

  free energy =  -0.637412652319E+01  energy without entropy=  -0.637130718524E+01


--------------------------------------------------------------------------------------------------------




----------------------------------------- Iteration    3(  17)  ---------------------------------------


    POTLOK:  cpu time    4.54: real time    9.04
    SETDIJ:  cpu time    5.49: real time   10.92
     EDDAV:  cpu time    2.49: real time    5.17
       DOS:  cpu time    0.00: real time    0.01
    CHARGE:  cpu time    4.11: real time    7.69
    MIXING:  cpu time    0.44: real time    0.93
    --------------------------------------------
      LOOP:  cpu time   17.08: real time   33.76

 eigenvalue-minimisations  :    56
 total energy-change (2. order) : 0.1476557E-04  (-0.5676525E-06)
 number of electron      18.0000000 magnetization       4.0000000
 augmentation part        6.6626055 magnetization       1.8964074

 eigenvalues of (default mixing * dielectric matrix)
  average eigenvalue GAMMA=   6.7642
 50.6341 13.5194 10.8232 10.8232 10.6497  2.8808  0.1605  1.1046  1.1046  1.1064
  0.9812  0.9812  0.8705  0.8705  0.9408  0.7771

  free energy =  -0.637411175762E+01  energy without entropy=  -0.637129229689E+01


--------------------------------------------------------------------------------------------------------




----------------------------------------- Iteration    3(  18)  ---------------------------------------


    POTLOK:  cpu time    4.74: real time    9.60
    SETDIJ:  cpu time    5.05: real time   10.31
     EDDAV:  cpu time    2.42: real time    4.73
       DOS:  cpu time    0.00: real time    0.00
    CHARGE:  cpu time    4.05: real time    8.04
    MIXING:  cpu time    0.40: real time    0.86
    --------------------------------------------
      LOOP:  cpu time   16.66: real time   33.54

 eigenvalue-minimisations  :    48
 total energy-change (2. order) : 0.2259932E-05  (-0.1471481E-04)
 number of electron      18.0000000 magnetization       4.0000000
 augmentation part        6.6626190 magnetization       1.8963870

 eigenvalues of (default mixing * dielectric matrix)
  average eigenvalue GAMMA=   7.0309
 50.4817 16.8975 10.5477 10.5477 11.3910  9.4144  0.1605  1.5643  0.9841  0.9841
  1.0584  1.0584  0.8744  0.8744  0.9444  0.9444  0.7975

  free energy =  -0.637410949769E+01  energy without entropy=  -0.637129743372E+01


--------------------------------------------------------------------------------------------------------




----------------------------------------- Iteration    3(  19)  ---------------------------------------


    POTLOK:  cpu time    4.76: real time    9.59
    SETDIJ:  cpu time    5.57: real time   11.17
     EDDAV:  cpu time    2.41: real time    4.73
       DOS:  cpu time    0.00: real time    0.00
    CHARGE:  cpu time    3.58: real time    7.01
    MIXING:  cpu time    0.71: real time    1.44
    --------------------------------------------
      LOOP:  cpu time   17.03: real time   33.93

 eigenvalue-minimisations  :    56
 total energy-change (2. order) : 0.9708431E-05  (-0.7853411E-05)
 number of electron      18.0000000 magnetization       4.0000000
 augmentation part        6.6626249 magnetization       1.8963818

 eigenvalues of (default mixing * dielectric matrix)
  average eigenvalue GAMMA=   6.8712
 50.4531 19.4927 10.8528 10.8528 11.4733  9.6290  0.1605  1.3261  1.3261  1.0366
  0.9824  0.9824  0.9400  0.8809  0.8809  0.8901  0.8901  0.6315

  free energy =  -0.637409978926E+01  energy without entropy=  -0.637127903799E+01


--------------------------------------------------------------------------------------------------------




----------------------------------------- Iteration    3(  20)  ---------------------------------------


    POTLOK:  cpu time    4.99: real time   10.10
    SETDIJ:  cpu time    5.67: real time   11.10
     EDDAV:  cpu time    2.39: real time    4.62
       DOS:  cpu time    0.01: real time    0.01
    CHARGE:  cpu time    3.18: real time    6.32
    MIXING:  cpu time    0.52: real time    1.12
    --------------------------------------------
      LOOP:  cpu time   16.77: real time   33.28

 eigenvalue-minimisations  :    56
 total energy-change (2. order) :-0.2268850E-04  (-0.2691196E-05)
 number of electron      18.0000000 magnetization       4.0000000
 augmentation part        6.6626313 magnetization       1.8963789

 eigenvalues of (default mixing * dielectric matrix)
  average eigenvalue GAMMA=   6.6231
 50.5819 20.2864 10.9558 10.9558 11.5860  9.5260  0.1605  1.4592  1.4592  0.9691
  0.9691  1.0234  0.9757  0.9757  0.8717  0.8717  0.9514  0.7847  0.4764

  free energy =  -0.637412247776E+01  energy without entropy=  -0.637131055589E+01


--------------------------------------------------------------------------------------------------------




----------------------------------------- Iteration    3(  21)  ---------------------------------------


    POTLOK:  cpu time    5.29: real time   10.51
    SETDIJ:  cpu time    5.18: real time   10.50
     EDDAV:  cpu time    2.23: real time    4.40
       DOS:  cpu time    0.00: real time    0.00
    CHARGE:  cpu time    4.34: real time    8.65
    MIXING:  cpu time    0.45: real time    0.96
    --------------------------------------------
      LOOP:  cpu time   17.50: real time   35.04

 eigenvalue-minimisations  :    56
 total energy-change (2. order) : 0.5975363E-04  (-0.3096265E-05)
 number of electron      18.0000000 magnetization       4.0000000
 augmentation part        6.6626362 magnetization       1.8963766

 eigenvalues of (default mixing * dielectric matrix)
  average eigenvalue GAMMA=   6.4240
 50.5046 20.0763 10.9740 10.9740 11.5497  8.9686  3.4091  0.1605  1.8087  1.0437
  1.0437  1.0227  1.0188  1.0188  0.9238  0.8646  0.8646  0.8070  0.8070  0.6388

  free energy =  -0.637406272413E+01  energy without entropy=  -0.637124180711E+01


--------------------------------------------------------------------------------------------------------




----------------------------------------- Iteration    3(  22)  ---------------------------------------


    POTLOK:  cpu time    5.49: real time   10.91
    SETDIJ:  cpu time    5.09: real time   10.21
     EDDAV:  cpu time    1.68: real time    3.36
       DOS:  cpu time    0.00: real time    0.01
    CHARGE:  cpu time    3.70: real time    7.47
    MIXING:  cpu time    0.61: real time    1.26
    --------------------------------------------
      LOOP:  cpu time   16.59: real time   33.22

 eigenvalue-minimisations  :    56
 total energy-change (2. order) :-0.5379064E-04  (-0.3697816E-05)
 number of electron      18.0000000 magnetization       4.0000000
 augmentation part        6.6626467 magnetization       1.8963731

 eigenvalues of (default mixing * dielectric matrix)
  average eigenvalue GAMMA=   6.9183
 50.3149 29.9220 11.0820 11.0820 12.4995  9.6537  7.8737  0.1605  1.3566  1.3566
  1.0532  1.0532  1.0496  1.0252  0.9393  0.9393  0.8694  0.8694  0.8967  0.7593
  0.5283

  free energy =  -0.637411651477E+01  energy without entropy=  -0.637129802255E+01


--------------------------------------------------------------------------------------------------------




----------------------------------------- Iteration    3(  23)  ---------------------------------------


    POTLOK:  cpu time    5.57: real time   11.11
    SETDIJ:  cpu time    4.87: real time    9.82
     EDDAV:  cpu time    2.31: real time    4.63
       DOS:  cpu time    0.00: real time    0.00
    CHARGE:  cpu time    4.10: real time    8.18
    MIXING:  cpu time    0.69: real time    1.40
    --------------------------------------------
      LOOP:  cpu time   17.55: real time   35.15

 eigenvalue-minimisations  :    56
 total energy-change (2. order) : 0.1393197E-04  (-0.1092098E-04)
 number of electron      18.0000000 magnetization       4.0000000
 augmentation part        6.6626584 magnetization       1.8963691

 eigenvalues of (default mixing * dielectric matrix)
  average eigenvalue GAMMA=   7.3994
 49.7852 42.8693 11.1962 11.1962 12.9990 10.2635 10.2635  0.1605  1.4276  1.4276
  1.2516  1.0033  1.0033  1.0237  1.0237  0.9889  0.8766  0.8766  0.9230  0.8364
  0.8364  0.5547

  free energy =  -0.637410258280E+01  energy without entropy=  -0.637128424182E+01


--------------------------------------------------------------------------------------------------------




----------------------------------------- Iteration    3(  24)  ---------------------------------------


    POTLOK:  cpu time    5.30: real time   10.71
    SETDIJ:  cpu time    4.74: real time    9.49
     EDDAV:  cpu time    2.31: real time    4.64
       DOS:  cpu time    0.00: real time    0.00
    CHARGE:  cpu time    4.17: real time    8.35
    MIXING:  cpu time    1.12: real time    2.25
    --------------------------------------------
      LOOP:  cpu time   17.65: real time   35.46

 eigenvalue-minimisations  :    56
 total energy-change (2. order) :-0.1316601E-04  (-0.4287286E-05)
 number of electron      18.0000000 magnetization       4.0000000
 augmentation part        6.6626657 magnetization       1.8963701

 eigenvalues of (default mixing * dielectric matrix)
  average eigenvalue GAMMA=   7.2763
 49.9759 45.5672 11.2523 11.2523 13.4497 10.9302 10.1353  0.1605  1.4988  1.4988
  0.9954  0.9954  1.0412  1.0412  1.0380  0.9718  0.9718  0.8745  0.8745  0.8142
  0.7312  0.7312  0.5526

  free energy =  -0.637411574881E+01  energy without entropy=  -0.637129493115E+01


--------------------------------------------------------------------------------------------------------




----------------------------------------- Iteration    3(  25)  ---------------------------------------


    POTLOK:  cpu time    5.25: real time   10.11
    SETDIJ:  cpu time    4.82: real time    9.66
     EDDAV:  cpu time    2.41: real time    4.88
       DOS:  cpu time    0.00: real time    0.00
    CHARGE:  cpu time    4.42: real time    8.86
    MIXING:  cpu time    0.68: real time    1.36
    --------------------------------------------
      LOOP:  cpu time   17.58: real time   34.89

 eigenvalue-minimisations  :    56
 total energy-change (2. order) :-0.1220384E-04  (-0.6029936E-06)
 number of electron      18.0000000 magnetization       4.0000000
 augmentation part        6.6626679 magnetization       1.8963691

 eigenvalues of (default mixing * dielectric matrix)
  average eigenvalue GAMMA=   6.9898
 50.0250 45.5967 11.2457 11.2457 13.4681 10.9468 10.1337  0.1605  1.5197  1.5197
  0.2338  0.9964  0.9964  1.0370  1.0370  1.0290  0.9712  0.9712  0.8737  0.8737
  0.8141  0.7525  0.7525  0.5554

  free energy =  -0.637412795265E+01  energy without entropy=  -0.637131326899E+01


--------------------------------------------------------------------------------------------------------




----------------------------------------- Iteration    3(  26)  ---------------------------------------


    POTLOK:  cpu time    4.72: real time    9.50
    SETDIJ:  cpu time    5.11: real time   10.15
     EDDAV:  cpu time    2.57: real time    5.13
       DOS:  cpu time    0.00: real time    0.00
    CHARGE:  cpu time    4.20: real time    8.56
    MIXING:  cpu time    0.78: real time    1.58
    --------------------------------------------
      LOOP:  cpu time   17.39: real time   34.95

 eigenvalue-minimisations  :    56
 total energy-change (2. order) : 0.4325398E-04  (-0.2318914E-05)
 number of electron      18.0000000 magnetization       4.0000000
 augmentation part        6.6626661 magnetization       1.8963742

 eigenvalues of (default mixing * dielectric matrix)
  average eigenvalue GAMMA=   6.7610
 50.0864 45.7093 11.2505 11.2505 13.5184 11.0126 10.1409  0.1605  1.5276  1.5276
  0.5980  0.5980  0.9841  0.9841  1.0207  1.0122  1.0122  0.9706  0.9706  0.8748
  0.8748  0.8163  0.7860  0.7860  0.5522

  free energy =  -0.637408469868E+01  energy without entropy=  -0.637126478559E+01


--------------------------------------------------------------------------------------------------------




----------------------------------------- Iteration    3(  27)  ---------------------------------------


    POTLOK:  cpu time    4.75: real time    9.62
    SETDIJ:  cpu time    5.11: real time   10.25
     EDDAV:  cpu time    2.67: real time    5.34
       DOS:  cpu time    0.00: real time    0.00
    CHARGE:  cpu time    4.18: real time    8.38
    MIXING:  cpu time    0.60: real time    1.19
    --------------------------------------------
      LOOP:  cpu time   17.31: real time   34.80

 eigenvalue-minimisations  :    56
 total energy-change (2. order) :-0.2065995E-04  (-0.1110327E-05)
 number of electron      18.0000000 magnetization       4.0000000
 augmentation part        6.6626650 magnetization       1.8963771

 eigenvalues of (default mixing * dielectric matrix)
  average eigenvalue GAMMA=   6.6073
 50.4437 45.4635 11.2573 11.2573 13.6613 11.1414 10.1576  0.1605  1.5948  1.5948
  1.4731  1.2284  1.2284  1.0104  1.0104  0.9993  0.9993  0.9717  0.9717  0.8744
  0.8744  0.8117  0.7813  0.7813  0.4809  0.5596

  free energy =  -0.637410535863E+01  energy without entropy=  -0.637128948245E+01


--------------------------------------------------------------------------------------------------------




----------------------------------------- Iteration    3(  28)  ---------------------------------------


    POTLOK:  cpu time    4.48: real time    8.97
    SETDIJ:  cpu time    5.69: real time   11.40
     EDDAV:  cpu time    2.33: real time    4.67
       DOS:  cpu time    0.00: real time    0.00
    CHARGE:  cpu time    3.72: real time    7.45
    MIXING:  cpu time    0.72: real time    1.46
    --------------------------------------------
      LOOP:  cpu time   16.95: real time   33.94

 eigenvalue-minimisations  :    56
 total energy-change (2. order) : 0.1644117E-04  (-0.8342216E-06)
 number of electron      18.0000000 magnetization       4.0000000
 augmentation part        6.6626575 magnetization       1.8963847

 eigenvalues of (default mixing * dielectric matrix)
  average eigenvalue GAMMA=   6.4913
 50.0099 45.3792 14.5247 11.2621 11.2621 11.2317 10.1415  2.9828  2.0323  2.0323
  0.1605  1.0851  1.0851  1.0768  1.0768  0.9937  0.9937  0.9632  0.9632  0.8775
  0.8775  0.8233  0.7913  0.7913  0.6510  0.6510  0.5446

  free energy =  -0.637408891746E+01  energy without entropy=  -0.637126851780E+01


--------------------------------------------------------------------------------------------------------




----------------------------------------- Iteration    3(  29)  ---------------------------------------


    POTLOK:  cpu time    5.09: real time   10.20
    SETDIJ:  cpu time    5.45: real time   10.92
     EDDAV:  cpu time    2.40: real time    4.80
       DOS:  cpu time    0.00: real time    0.00
    CHARGE:  cpu time    3.22: real time    6.44
    MIXING:  cpu time    0.93: real time    1.83
    --------------------------------------------
      LOOP:  cpu time   17.09: real time   34.20

 eigenvalue-minimisations  :    56
 total energy-change (2. order) :-0.2379438E-04  (-0.1216820E-05)
 number of electron      18.0000000 magnetization       4.0000000
 augmentation part        6.6626524 magnetization       1.8963912

 eigenvalues of (default mixing * dielectric matrix)
  average eigenvalue GAMMA=   6.4836
 49.7121 45.5854 15.7265 11.1556 11.1556 11.0961 10.3454  8.0299  0.1605  1.7686
  1.7686  1.1181  1.1181  0.8557  0.8557  0.9939  0.9939  1.0042  1.0042  0.9127
  0.9127  0.8784  0.8784  0.8347  0.7834  0.7834  0.5288  0.5796

  free energy =  -0.637411271184E+01  energy without entropy=  -0.637129359355E+01


--------------------------------------------------------------------------------------------------------




----------------------------------------- Iteration    3(  30)  ---------------------------------------


    POTLOK:  cpu time    5.21: real time   10.44
    SETDIJ:  cpu time    5.27: real time   10.61
     EDDAV:  cpu time    2.17: real time    4.36
       DOS:  cpu time    0.00: real time    0.00
    CHARGE:  cpu time    3.94: real time    7.88
    MIXING:  cpu time    0.93: real time    1.88
    --------------------------------------------
      LOOP:  cpu time   17.53: real time   35.17

 eigenvalue-minimisations  :    56
 total energy-change (2. order) : 0.3112908E-05  (-0.1844733E-06)
 number of electron      18.0000000 magnetization       4.0000000
 augmentation part        6.6626447 magnetization       1.8963972

 eigenvalues of (default mixing * dielectric matrix)
  average eigenvalue GAMMA=   6.3105
 49.6230 45.1554 16.5052 11.1465 11.1465 11.0237 10.4079  8.6967  1.7593  1.7593
  0.1605  0.9170  0.9170  1.1324  1.1324  0.9709  0.9709  1.0081  1.0081  0.8964
  0.8964  0.8748  0.8748  0.8411  0.8131  0.8131  0.4989  0.4989  0.5563

  free energy =  -0.637410959893E+01  energy without entropy=  -0.637128867123E+01


--------------------------------------------------------------------------------------------------------




----------------------------------------- Iteration    3(  31)  ---------------------------------------


    POTLOK:  cpu time    5.11: real time   10.23
    SETDIJ:  cpu time    5.08: real time   10.47
     EDDAV:  cpu time    1.47: real time    2.94
       DOS:  cpu time    0.00: real time    0.00
    CHARGE:  cpu time    4.05: real time    8.11
    MIXING:  cpu time    0.78: real time    1.57
    --------------------------------------------
      LOOP:  cpu time   16.49: real time   33.33

 eigenvalue-minimisations  :    56
 total energy-change (2. order) :-0.1740589E-04  (-0.7064510E-06)
 number of electron      18.0000000 magnetization       4.0000000
 augmentation part        6.6626435 magnetization       1.8963982

 eigenvalues of (default mixing * dielectric matrix)
  average eigenvalue GAMMA=   6.1803
 49.0121 46.1073 16.0939 11.1114 11.1114 11.1696 10.5206  9.3527  0.1605  1.8012
  1.8012  1.1408  1.1408  1.1856  1.1856  0.9593  0.9593  0.6802  0.6802  0.8920
  0.8920  1.0147  1.0042  0.8628  0.8628  0.8590  0.8590  0.8518  0.5345  0.6031

  free energy =  -0.637412700483E+01  energy without entropy=  -0.637130684460E+01


--------------------------------------------------------------------------------------------------------




----------------------------------------- Iteration    3(  32)  ---------------------------------------


    POTLOK:  cpu time    5.51: real time   11.15
    SETDIJ:  cpu time    4.87: real time    9.80
     EDDAV:  cpu time    2.40: real time    4.77
       DOS:  cpu time    0.00: real time    0.01
    CHARGE:  cpu time    4.23: real time    8.47
    MIXING:  cpu time    1.06: real time    2.16
    --------------------------------------------
      LOOP:  cpu time   18.08: real time   36.38

 eigenvalue-minimisations  :    56
 total energy-change (2. order) : 0.3687016E-05  (-0.2257811E-06)
 number of electron      18.0000000 magnetization       4.0000000
 augmentation part        6.6626422 magnetization       1.8963988

 eigenvalues of (default mixing * dielectric matrix)
  average eigenvalue GAMMA=   6.0731
 49.4195 46.3253 16.0328 11.0731 11.0731 10.9544 10.9544  9.7801  2.0217  2.0217
  0.1605  1.4637  1.4637  1.1708  1.1708  0.9169  0.9169  0.9576  0.9576  1.0225
  0.9970  0.8558  0.8558  0.8507  0.8525  0.8525  0.7492  0.7492  0.5025  0.5337
  0.6104

  free energy =  -0.637412331781E+01  energy without entropy=  -0.637130238424E+01


--------------------------------------------------------------------------------------------------------




----------------------------------------- Iteration    3(  33)  ---------------------------------------


    POTLOK:  cpu time    5.51: real time   11.01
    SETDIJ:  cpu time    4.64: real time    9.27
     EDDAV:  cpu time    2.35: real time    4.70
       DOS:  cpu time    0.00: real time    0.00
    CHARGE:  cpu time    4.54: real time    9.08
    MIXING:  cpu time    1.53: real time    3.08
    --------------------------------------------
      LOOP:  cpu time   18.56: real time   37.15

 eigenvalue-minimisations  :    56
 total energy-change (2. order) :-0.4964791E-05  (-0.2568485E-06)
 number of electron      18.0000000 magnetization       4.0000000
 augmentation part        6.6626416 magnetization       1.8963986

 eigenvalues of (default mixing * dielectric matrix)
  average eigenvalue GAMMA=   5.9325
 50.1378 46.3024 15.8447 11.0523 11.0523 10.6567 10.6567  9.8724  2.4661  2.4661
  0.1605  1.5067  1.5067  1.1587  1.1587  0.9698  0.9698  1.0316  0.9969  0.9274
  0.9274  0.8711  0.8711  0.8660  0.8660  0.8498  0.7563  0.7563  0.5285  0.5285
  0.5321  0.5938

  free energy =  -0.637412828260E+01  energy without entropy=  -0.637130796650E+01


--------------------------------------------------------------------------------------------------------




----------------------------------------- Iteration    3(  34)  ---------------------------------------


    POTLOK:  cpu time    4.72: real time    9.82
    SETDIJ:  cpu time    4.94: real time    9.85
     EDDAV:  cpu time    2.41: real time    4.82
       DOS:  cpu time    0.00: real time    0.00
    CHARGE:  cpu time    4.65: real time    9.26
    MIXING:  cpu time    1.67: real time    3.37
    --------------------------------------------
      LOOP:  cpu time   18.39: real time   37.13

 eigenvalue-minimisations  :    56
 total energy-change (2. order) : 0.4181574E-05  (-0.1927268E-06)
 number of electron      18.0000000 magnetization       4.0000000
 augmentation part        6.6626407 magnetization       1.8963992

 eigenvalues of (default mixing * dielectric matrix)
  average eigenvalue GAMMA=   5.8021
 50.0174 46.6607 14.2695 11.0874 11.0874 10.6808 10.6808  8.7525  3.7673  3.7673
  0.1605  1.5363  1.5363  1.0015  1.0015  1.2722  0.8755  0.8755  0.9643  0.9643
  1.0511  1.0511  0.9985  0.8814  0.8814  0.8722  0.8722  0.8338  0.7060  0.7060
  0.4988  0.5406  0.6174

  free energy =  -0.637412410103E+01  energy without entropy=  -0.637130321433E+01


--------------------------------------------------------------------------------------------------------




----------------------------------------- Iteration    3(  35)  ---------------------------------------


    POTLOK:  cpu time    4.42: real time    8.78
    SETDIJ:  cpu time    5.25: real time   10.55
     EDDAV:  cpu time    2.12: real time    4.22
       DOS:  cpu time    0.00: real time    0.00
    CHARGE:  cpu time    4.15: real time    8.51
    MIXING:  cpu time    1.22: real time    2.46
    --------------------------------------------
      LOOP:  cpu time   17.16: real time   34.52

 eigenvalue-minimisations  :    48
 total energy-change (2. order) :-0.2993886E-05  (-0.1249810E-06)
 number of electron      18.0000000 magnetization       4.0000000
 augmentation part        6.6626413 magnetization       1.8963978

 eigenvalues of (default mixing * dielectric matrix)
  average eigenvalue GAMMA=   5.6127
 49.9320 46.2344 14.5835 11.0963 11.0963 10.6936 10.5709  8.7804  3.4987  3.4987
  0.1605  0.1304  1.5186  1.5186  1.3129  1.0324  1.0324  0.8550  0.8550  0.9773
  0.9773  1.0439  1.0439  0.9977  0.8799  0.8799  0.8712  0.8712  0.8316  0.6953
  0.6953  0.5087  0.5426  0.6167

  free energy =  -0.637412709491E+01  energy without entropy=  -0.637130678777E+01


--------------------------------------------------------------------------------------------------------




----------------------------------------- Iteration    3(  36)  ---------------------------------------


    POTLOK:  cpu time    5.08: real time    9.72
    SETDIJ:  cpu time    5.12: real time   10.73
     EDDAV:  cpu time    2.05: real time    4.37
       DOS:  cpu time    0.00: real time    0.00
    CHARGE:  cpu time    3.61: real time    7.52
    MIXING:  cpu time    0.83: real time    1.69
    --------------------------------------------
      LOOP:  cpu time   16.69: real time   34.04

 eigenvalue-minimisations  :    56
 total energy-change (2. order) : 0.3153573E-05  (-0.1322331E-06)
 number of electron      18.0000000 magnetization       4.0000000
 augmentation part        6.6626393 magnetization       1.8963995

 eigenvalues of (default mixing * dielectric matrix)
  average eigenvalue GAMMA=   5.9664
 49.0404 46.0891 21.5814 15.2228 11.2063 11.2063 11.3202 10.1313  8.5215  1.9490
  1.9490  0.1605  1.3083  1.3083  1.1687  1.1687  0.8791  0.8791  1.0201  1.0201
  0.7339  0.7339  1.0277  0.9867  0.9331  0.9331  0.8803  0.8803  0.8877  0.7976
  0.4638  0.6600  0.6600  0.5357  0.5790

  free energy =  -0.637412394134E+01  energy without entropy=  -0.637130313289E+01


--------------------------------------------------------------------------------------------------------




----------------------------------------- Iteration    3(  37)  ---------------------------------------


    POTLOK:  cpu time    4.59: real time    9.86
    SETDIJ:  cpu time    5.36: real time   10.96
     EDDAV:  cpu time    1.69: real time    3.56
       DOS:  cpu time    0.00: real time    0.00
    CHARGE:  cpu time    3.46: real time    6.79
    MIXING:  cpu time    1.48: real time    2.98
    --------------------------------------------
      LOOP:  cpu time   16.58: real time   34.17

 eigenvalue-minimisations  :    40
 total energy-change (2. order) :-0.2330976E-05  (-0.7306959E-07)
 number of electron      18.0000000 magnetization       4.0000000
 augmentation part        6.6626394 magnetization       1.8963982

 eigenvalues of (default mixing * dielectric matrix)
  average eigenvalue GAMMA=   5.8102
 48.9120 46.3592 21.3496 15.5132 11.2000 11.2000 11.2635 10.1317  8.7171  1.9473
  1.9473  0.1605  0.0193  1.3096  1.3096  1.1656  1.1656  0.8839  0.8839  1.0197
  1.0197  0.7356  0.7356  1.0231  0.9926  0.9375  0.9375  0.8811  0.8811  0.8677
  0.7888  0.4622  0.6647  0.6647  0.5359  0.5811

  free energy =  -0.637412627232E+01  energy without entropy=  -0.637130603742E+01


--------------------------------------------------------------------------------------------------------




----------------------------------------- Iteration    3(  38)  ---------------------------------------


    POTLOK:  cpu time    4.99: real time   10.09
    SETDIJ:  cpu time    5.30: real time   10.87
     EDDAV:  cpu time    1.63: real time    3.41
       DOS:  cpu time    0.00: real time    0.00
    CHARGE:  cpu time    3.30: real time    6.33
    MIXING:  cpu time    1.59: real time    3.00
    --------------------------------------------
      LOOP:  cpu time   16.81: real time   33.72

 eigenvalue-minimisations  :    40
 total energy-change (2. order) : 0.3267829E-05  (-0.8974920E-07)
 number of electron      18.0000000 magnetization       4.0000000
 augmentation part        6.6626372 magnetization       1.8964003

 eigenvalues of (default mixing * dielectric matrix)
  average eigenvalue GAMMA=   5.6508
 48.9463 45.7559 21.6549 14.5875 11.2020 11.2020 11.3949 10.1126  8.8480  1.9543
  1.9543  0.1605  1.3723  1.3723  0.4731  0.4731  1.1109  1.1109  0.8661  0.8661
  1.0203  1.0203  1.0275  0.9768  0.9387  0.9230  0.9230  0.8748  0.8748  0.7313
  0.7313  0.8136  0.4240  0.6432  0.6432  0.5296  0.5653

  free energy =  -0.637412300449E+01  energy without entropy=  -0.637130239596E+01


--------------------------------------------------------------------------------------------------------




----------------------------------------- Iteration    3(  39)  ---------------------------------------


    POTLOK:  cpu time    5.69: real time   10.35
    SETDIJ:  cpu time    5.22: real time   10.90
     EDDAV:  cpu time    1.49: real time    2.99
       DOS:  cpu time    0.00: real time    0.00
    --------------------------------------------
      LOOP:  cpu time   12.39: real time   24.24

 eigenvalue-minimisations  :    34
 total energy-change (2. order) :-0.8480370E-06  (-0.2281509E-07)
 number of electron      18.0000000 magnetization       4.0000000
 augmentation part        6.6626372 magnetization       1.8964003

  free energy =  -0.637412385252E+01  energy without entropy=  -0.637130345910E+01


--------------------------------------------------------------------------------------------------------




 average (electrostatic) potential at core
  the test charge radii are     1.1806
  (the norm of the test charge is              1.0000)
       1 -76.9535       2 -76.9535
 
 
 
 E-fermi :  -4.6524     XC(G=0):  -0.3191     alpha+bet : -0.0947


 spin component 1

 k-point     1 :       0.0000    0.0000    0.0000
  band No.  band energies     occupation 
      1      -8.9819      1.00000
      2      -8.2467      1.00000
      3      -8.2467      1.00000
      4      -6.5377      1.00000
      5      -6.5358      1.00000
      6      -5.8655      1.00000
      7      -5.8634      1.00000
      8      -5.5958      1.00000
      9      -5.5958      1.00000
     10      -5.3422      1.00000
     11      -5.2569      1.00000
     12      -3.1299      0.00000
     13      -1.2717      0.00000
     14      -1.2717      0.00000

 spin component 2

 k-point     1 :       0.0000    0.0000    0.0000
  band No.  band energies     occupation 
      1      -7.8318      1.00000
      2      -7.0032      1.00000
      3      -7.0032      1.00000
      4      -5.4131      1.00000
      5      -5.4130      1.00000
      6      -4.7940      1.00000
      7      -4.6525      0.50791
      8      -4.6524      0.49209
      9      -4.0597      0.00000
     10      -4.0597      0.00000
     11      -3.9733      0.00000
     12      -2.4388      0.00000
     13      -1.0664      0.00000
     14      -1.0664      0.00000


--------------------------------------------------------------------------------------------------------


 soft charge-density along one line, spin component           1
         0         1         2         3         4         5         6         7         8         9
 total charge-density along one line
 
 soft charge-density along one line, spin component           2
         0         1         2         3         4         5         6         7         8         9
 total charge-density along one line
 
 pseudopotential strength for first ion, spin component:           1
-10.324   0.000  -0.000   0.000   0.000   0.000  -0.000   0.000  -0.000   0.000 -10.042   0.000  -0.000   0.000   0.000   0.000
 -0.000   0.000 -10.640   0.000  -0.000   0.000  -0.000   0.000   0.000   0.000  -0.000   0.000 -10.338   0.000  -0.000   0.000
  0.000   0.000  -0.000   0.000 -10.712   0.000  -0.000   0.000   0.000   0.000   0.000   0.000  -0.000   0.000 -10.406   0.000
 -0.000   0.000  -0.000   0.000  -0.000   0.000 -10.640   0.000  -0.000   0.000  -0.000   0.000  -0.000   0.000  -0.000   0.000
 -0.000   0.000   0.000   0.000   0.000   0.000  -0.000   0.000 -10.326   0.000  -0.000   0.000   0.000   0.000   0.000   0.000
-10.042   0.000  -0.000   0.000   0.000   0.000  -0.000   0.000  -0.000   0.000  -9.749   0.000  -0.000   0.000   0.000   0.000
 -0.000   0.000 -10.338   0.000  -0.000   0.000  -0.000   0.000   0.000   0.000  -0.000   0.000 -10.027   0.000  -0.000   0.000
  0.000   0.000  -0.000   0.000 -10.406   0.000  -0.000   0.000   0.000   0.000   0.000   0.000  -0.000   0.000 -10.090   0.000
 -0.000   0.000  -0.000   0.000  -0.000   0.000 -10.338   0.000  -0.000   0.000  -0.000   0.000  -0.000   0.000  -0.000   0.000
 -0.000   0.000   0.000   0.000   0.000   0.000  -0.000   0.000 -10.044   0.000  -0.000   0.000   0.000   0.000   0.000   0.000
  0.000   0.000   0.000   0.000   0.100   0.000   0.000   0.000   0.000   0.000   0.000   0.000   0.000   0.000   0.095   0.000
 -0.000   0.000  -0.000   0.000  -0.156   0.000  -0.000   0.000  -0.000   0.000  -0.000   0.000  -0.000   0.000  -0.148   0.000
  0.000   0.000  -0.018   0.000  -0.000   0.000   0.000   0.000   0.000   0.000   0.000   0.000  -0.017   0.000  -0.000   0.000
  0.000   0.000  -0.000   0.000   0.006   0.000  -0.000   0.000  -0.000   0.000   0.000   0.000  -0.000   0.000   0.006   0.000
  0.000   0.000   0.000   0.000  -0.000   0.000  -0.018   0.000  -0.000   0.000   0.000   0.000   0.000   0.000  -0.000   0.000
  0.000   0.000  -0.011   0.000   0.000   0.000  -0.000   0.000  -0.000   0.000   0.000   0.000  -0.010   0.000   0.000   0.000
 -0.000   0.000   0.000   0.000  -0.020   0.000   0.000   0.000   0.000   0.000  -0.000   0.000   0.000   0.000  -0.020   0.000
  0.000   0.000  -0.000   0.000   0.000   0.000  -0.011   0.000   0.000   0.000   0.000   0.000  -0.000   0.000   0.000   0.000
 -0.000   0.000  -0.000   0.000  -0.000   0.000  -0.000   0.000   0.000   0.000  -0.000   0.000  -0.000   0.000  -0.000   0.000
  0.045   0.000  -0.000   0.000   0.000   0.000  -0.000   0.000  -0.000   0.000   0.043   0.000  -0.000   0.000   0.000   0.000
 -0.000   0.000   0.042   0.000   0.000   0.000   0.000   0.000  -0.000   0.000  -0.000   0.000   0.041   0.000   0.000   0.000
  0.000   0.000  -0.000   0.000   0.030   0.000  -0.000   0.000  -0.000   0.000   0.000   0.000  -0.000   0.000   0.029   0.000
 -0.000   0.000   0.000   0.000   0.000   0.000   0.042   0.000   0.000   0.000  -0.000   0.000   0.000   0.000   0.000   0.000
 -0.000   0.000  -0.000   0.000   0.000   0.000   0.000   0.000   0.045   0.000  -0.000   0.000  -0.000   0.000   0.000   0.000
  0.000   0.000   0.000   0.000   0.000   0.000   0.000   0.000   0.000   0.000   0.000   0.000   0.000   0.000   0.000   0.000
 -0.000   0.000   0.000   0.000  -0.000   0.000   0.000   0.000  -0.000   0.000  -0.000   0.000   0.000   0.000  -0.000   0.000
 -0.038   0.000  -0.000   0.000   0.000   0.000  -0.000   0.000   0.000   0.000  -0.036   0.000  -0.000   0.000   0.000   0.000
 -0.000   0.000  -0.042   0.000  -0.000   0.000   0.000   0.000  -0.000   0.000  -0.000   0.000  -0.040   0.000  -0.000   0.000
 -0.000   0.000   0.000   0.000  -0.044   0.000   0.000   0.000  -0.000   0.000  -0.000   0.000   0.000   0.000  -0.043   0.000
 -0.000   0.000   0.000   0.000  -0.000   0.000  -0.042   0.000   0.000   0.000  -0.000   0.000   0.000   0.000  -0.000   0.000
  0.000   0.000   0.000   0.000   0.000   0.000  -0.000   0.000  -0.038   0.000   0.000   0.000   0.000   0.000   0.000   0.000
  0.000   0.000  -0.000   0.000   0.000   0.000  -0.000   0.000  -0.000   0.000   0.000   0.000  -0.000   0.000   0.000   0.000
 pseudopotential strength for first ion, spin component:           2
 -9.796   0.000  -0.000   0.000   0.000   0.000  -0.000   0.000  -0.000   0.000  -9.547   0.000  -0.000   0.000   0.000   0.000
 -0.000   0.000  -9.972   0.000  -0.000   0.000  -0.000   0.000   0.000   0.000  -0.000   0.000  -9.713   0.000  -0.000   0.000
  0.000   0.000  -0.000   0.000 -10.085   0.000  -0.000   0.000   0.000   0.000   0.000   0.000  -0.000   0.000  -9.818   0.000
 -0.000   0.000  -0.000   0.000  -0.000   0.000  -9.972   0.000  -0.000   0.000  -0.000   0.000  -0.000   0.000  -0.000   0.000
 -0.000   0.000   0.000   0.000   0.000   0.000  -0.000   0.000  -9.796   0.000  -0.000   0.000   0.000   0.000   0.000   0.000
 -9.547   0.000  -0.000   0.000   0.000   0.000  -0.000   0.000  -0.000   0.000  -9.285   0.000  -0.000   0.000   0.000   0.000
 -0.000   0.000  -9.713   0.000  -0.000   0.000  -0.000   0.000   0.000   0.000  -0.000   0.000  -9.441   0.000  -0.000   0.000
  0.000   0.000  -0.000   0.000  -9.818   0.000  -0.000   0.000   0.000   0.000   0.000   0.000  -0.000   0.000  -9.540   0.000
 -0.000   0.000  -0.000   0.000  -0.000   0.000  -9.713   0.000  -0.000   0.000  -0.000   0.000  -0.000   0.000  -0.000   0.000
 -0.000   0.000   0.000   0.000   0.000   0.000  -0.000   0.000  -9.547   0.000  -0.000   0.000   0.000   0.000   0.000   0.000
  0.000   0.000   0.000   0.000   0.043   0.000   0.000   0.000   0.000   0.000   0.000   0.000   0.000   0.000   0.041   0.000
 -0.000   0.000  -0.000   0.000  -0.049   0.000  -0.000   0.000  -0.000   0.000  -0.000   0.000  -0.000   0.000  -0.046   0.000
  0.000   0.000  -0.025   0.000  -0.000   0.000   0.000   0.000   0.000   0.000   0.000   0.000  -0.023   0.000  -0.000   0.000
  0.000   0.000  -0.000   0.000   0.008   0.000  -0.000   0.000  -0.000   0.000   0.000   0.000  -0.000   0.000   0.011   0.000
  0.000   0.000   0.000   0.000  -0.000   0.000  -0.025   0.000  -0.000   0.000   0.000   0.000   0.000   0.000  -0.000   0.000
  0.000   0.000   0.027   0.000   0.000   0.000  -0.000   0.000  -0.000   0.000   0.000   0.000   0.025   0.000   0.000   0.000
 -0.000   0.000   0.000   0.000   0.012   0.000   0.000   0.000   0.000   0.000  -0.000   0.000   0.000   0.000   0.009   0.000
  0.000   0.000  -0.000   0.000   0.000   0.000   0.027   0.000   0.000   0.000   0.000   0.000  -0.000   0.000   0.000   0.000
 -0.000   0.000  -0.000   0.000  -0.000   0.000  -0.000   0.000   0.000   0.000  -0.000   0.000  -0.000   0.000  -0.000   0.000
  0.046   0.000  -0.000   0.000   0.000   0.000  -0.000   0.000  -0.000   0.000   0.043   0.000  -0.000   0.000   0.000   0.000
  0.000   0.000   0.040   0.000   0.000   0.000   0.000   0.000  -0.000   0.000   0.000   0.000   0.039   0.000   0.000   0.000
  0.000   0.000  -0.000   0.000   0.027   0.000  -0.000   0.000  -0.000   0.000   0.000   0.000  -0.000   0.000   0.026   0.000
  0.000   0.000   0.000   0.000   0.000   0.000   0.040   0.000   0.000   0.000   0.000   0.000   0.000   0.000   0.000   0.000
 -0.000   0.000  -0.000   0.000   0.000   0.000   0.000   0.000   0.046   0.000  -0.000   0.000  -0.000   0.000   0.000   0.000
  0.000   0.000   0.000   0.000   0.000   0.000   0.000   0.000   0.000   0.000   0.000   0.000   0.000   0.000   0.000   0.000
 -0.000   0.000   0.000   0.000  -0.000   0.000   0.000   0.000  -0.000   0.000  -0.000   0.000   0.000   0.000  -0.000   0.000
 -0.058   0.000  -0.000   0.000   0.000   0.000  -0.000   0.000  -0.000   0.000  -0.055   0.000  -0.000   0.000   0.000   0.000
 -0.000   0.000  -0.068   0.000  -0.000   0.000   0.000   0.000  -0.000   0.000  -0.000   0.000  -0.065   0.000  -0.000   0.000
 -0.000   0.000   0.000   0.000  -0.071   0.000   0.000   0.000   0.000   0.000  -0.000   0.000   0.000   0.000  -0.069   0.000
 -0.000   0.000   0.000   0.000  -0.000   0.000  -0.068   0.000   0.000   0.000  -0.000   0.000   0.000   0.000  -0.000   0.000
 -0.000   0.000   0.000   0.000  -0.000   0.000  -0.000   0.000  -0.058   0.000  -0.000   0.000   0.000   0.000  -0.000   0.000
  0.000   0.000  -0.000   0.000   0.000   0.000  -0.000   0.000  -0.000   0.000   0.000   0.000  -0.000   0.000   0.000   0.000
 total augmentation occupancy for first ion, spin component:           1
  1.944  -0.000   0.000   0.000   0.000  -0.173   0.000   0.000   0.000  -0.000   0.000   0.000  -0.000  -0.000   0.000   0.000
 -0.000   2.294   0.000   0.000   0.000  -0.000  -1.303   0.000   0.000  -0.000   0.000  -0.000  -0.201  -0.000   0.000   0.004
  0.000   0.000   3.308   0.000   0.000   0.000   0.000  -2.609   0.000   0.000  -1.180  -0.022  -0.000  -0.454  -0.000   0.000
  0.000   0.000   0.000   2.294   0.000  -0.000   0.000   0.000  -1.303  -0.000   0.000   0.000   0.000   0.000  -0.201   0.000
  0.000   0.000   0.000   0.000   1.937  -0.000   0.000  -0.000  -0.000  -0.173   0.000  -0.000  -0.000   0.000   0.000  -0.000
 -0.173  -0.000   0.000  -0.000  -0.000   0.146  -0.000   0.000   0.000   0.000   0.000   0.000  -0.000   0.000   0.000  -0.000
  0.000  -1.303   0.000   0.000  -0.000  -0.000   1.826   0.000   0.000  -0.000   0.000  -0.000   0.274   0.000   0.000   0.004
  0.000   0.000  -2.609   0.000  -0.000   0.000   0.000   3.497  -0.000   0.000   1.261   0.004  -0.000   0.616   0.000  -0.000
  0.000   0.000   0.000  -1.303  -0.000   0.000   0.000  -0.000   1.826  -0.000   0.000  -0.000   0.000  -0.000   0.274   0.000
 -0.000  -0.000   0.000  -0.000  -0.173   0.000  -0.000   0.000  -0.000   0.146   0.000   0.000  -0.000   0.000  -0.000  -0.000
  0.000   0.000  -1.180   0.000   0.000   0.000   0.000   1.261   0.000   0.000   1.433   0.006  -0.000   0.303   0.000   0.000
  0.000  -0.000  -0.022   0.000  -0.000  -0.000  -0.000   0.004  -0.000   0.000   0.006   0.000   0.000   0.001  -0.000   0.000
 -0.000  -0.201  -0.000   0.000  -0.000  -0.000   0.274  -0.000   0.000  -0.000  -0.000   0.000   0.041  -0.000   0.000   0.001
 -0.000  -0.000  -0.454   0.000   0.000   0.000   0.000   0.616  -0.000   0.000   0.303   0.001  -0.000   0.116   0.000  -0.000
  0.000   0.000  -0.000  -0.201   0.000   0.000   0.000   0.000   0.274  -0.000   0.000  -0.000   0.000   0.000   0.041   0.000
 -0.000   0.004   0.000   0.000  -0.000  -0.000   0.004  -0.000   0.000  -0.000   0.000   0.000   0.001  -0.000   0.000   0.000
 -0.000   0.000   0.004   0.000   0.000  -0.000  -0.000  -0.001   0.000   0.000   0.002  -0.000  -0.000  -0.000   0.000   0.000
  0.000   0.000   0.000   0.004   0.000  -0.000   0.000   0.000   0.004   0.000   0.000   0.000   0.000  -0.000   0.001   0.000
 -0.000   0.000   0.000  -0.000  -0.000  -0.000  -0.000   0.000   0.000   0.000  -0.000  -0.000  -0.000   0.000   0.000  -0.000
 -0.015   0.000   0.000   0.000  -0.000   0.019  -0.000   0.000  -0.000   0.000   0.000   0.000  -0.000   0.000   0.000   0.000
 -0.000  -0.119  -0.000   0.000  -0.000   0.000   0.182   0.000   0.000   0.000   0.000   0.000   0.027  -0.000   0.000   0.000
  0.000  -0.000  -0.209   0.000   0.000   0.000  -0.000   0.295   0.000   0.000   0.063   0.000   0.000   0.048   0.000  -0.000
  0.000   0.000  -0.000  -0.119   0.000   0.000   0.000   0.000   0.182   0.000  -0.000   0.000   0.000  -0.000   0.027   0.000
  0.000   0.000   0.000   0.000  -0.015   0.000   0.000   0.000   0.000   0.019   0.000  -0.000  -0.000  -0.000  -0.000   0.000
 -0.000  -0.000   0.000  -0.000  -0.000  -0.000   0.000   0.000   0.000   0.000   0.000  -0.000   0.000   0.000   0.000   0.000
  0.000   0.000   0.000   0.000  -0.000  -0.000  -0.000  -0.000   0.000   0.000   0.000   0.000  -0.000   0.000   0.000  -0.000
 -0.000   0.000   0.000   0.000   0.000   0.006   0.000   0.000   0.000  -0.000   0.000  -0.000   0.000   0.000   0.000   0.000
 -0.000  -0.038   0.000   0.000  -0.000  -0.000   0.063   0.000   0.000   0.000  -0.000   0.000   0.009  -0.000   0.000   0.000
  0.000   0.000  -0.068   0.000   0.000   0.000   0.000   0.100   0.000   0.000   0.021   0.000   0.000   0.016   0.000  -0.000
  0.000   0.000   0.000  -0.038   0.000   0.000   0.000  -0.000   0.063   0.000   0.000  -0.000   0.000   0.000   0.009   0.000
  0.000  -0.000   0.000   0.000  -0.000   0.000   0.000   0.000   0.000   0.006   0.000   0.000  -0.000  -0.000   0.000  -0.000
  0.000  -0.000  -0.000  -0.000   0.000  -0.000   0.000  -0.000   0.000  -0.000   0.000   0.000   0.000   0.000   0.000   0.000
 total augmentation occupancy for first ion, spin component:           2
  0.598  -0.000   0.000   0.000  -0.000  -0.177   0.000   0.000   0.000   0.000   0.000   0.000  -0.000   0.000   0.000  -0.000
 -0.000   2.261  -0.000   0.000   0.000   0.000  -1.084   0.000   0.000   0.000   0.000   0.000  -0.169   0.000   0.000   0.005
  0.000  -0.000   2.786   0.000   0.000   0.000   0.000  -1.557   0.000   0.000  -0.460  -0.023   0.000  -0.221   0.000   0.000
  0.000   0.000   0.000   2.261   0.000   0.000   0.000   0.000  -1.084   0.000   0.000   0.000   0.000   0.000  -0.169   0.000
 -0.000   0.000   0.000   0.000   0.614   0.000   0.000   0.000   0.000  -0.182   0.000   0.000  -0.000   0.000  -0.000   0.000
 -0.177   0.000   0.000   0.000   0.000   0.014  -0.000   0.000   0.000  -0.000   0.000   0.000  -0.000   0.000  -0.000   0.000
  0.000  -1.084   0.000   0.000   0.000  -0.000   0.382   0.000   0.000  -0.000   0.000  -0.000   0.062   0.000   0.000  -0.002
  0.000   0.000  -1.557   0.000   0.000   0.000   0.000   0.746   0.000  -0.000   0.268   0.013   0.000   0.103  -0.000   0.000
  0.000   0.000   0.000  -1.084   0.000   0.000   0.000   0.000   0.382  -0.000   0.000   0.000   0.000   0.000   0.062   0.000
  0.000   0.000   0.000   0.000  -0.182  -0.000  -0.000   0.000  -0.000   0.015   0.000  -0.000   0.000   0.000   0.000   0.000
  0.000   0.000  -0.460   0.000   0.000   0.000   0.000   0.268   0.000   0.000   0.106   0.002   0.000   0.013   0.000  -0.000
  0.000   0.000  -0.023   0.000   0.000   0.000  -0.000   0.013   0.000   0.000   0.002   0.000  -0.000   0.002  -0.000   0.000
  0.000  -0.169   0.000   0.000  -0.000   0.000   0.062   0.000   0.000  -0.000   0.000  -0.000   0.010   0.000   0.000  -0.000
  0.000   0.000  -0.221   0.000   0.000   0.000   0.000   0.103   0.000   0.000   0.013   0.002   0.000   0.009   0.000   0.000
  0.000   0.000   0.000  -0.169  -0.000  -0.000   0.000  -0.000   0.062  -0.000   0.000  -0.000   0.000   0.000   0.010   0.000
 -0.000   0.005   0.000   0.000   0.000   0.000  -0.002   0.000   0.000   0.000  -0.000   0.000  -0.000   0.000   0.000   0.000
  0.000   0.000   0.004  -0.000   0.000   0.000   0.000   0.001  -0.000  -0.000   0.000  -0.000  -0.000   0.000   0.000  -0.000
  0.000   0.000   0.000   0.005   0.000  -0.000   0.000   0.000  -0.002   0.000  -0.000  -0.000   0.000   0.000  -0.000   0.000
  0.000   0.000  -0.000   0.000   0.000   0.000  -0.000   0.000   0.000   0.000   0.000   0.000  -0.000  -0.000   0.000  -0.000
 -0.018   0.000   0.000  -0.000   0.000   0.001   0.000   0.000   0.000  -0.000   0.000   0.000   0.000   0.000   0.000  -0.000
 -0.000  -0.097   0.000   0.000   0.000  -0.000   0.037  -0.000   0.000  -0.000   0.000   0.000   0.006   0.000   0.000  -0.000
  0.000   0.000  -0.137   0.000   0.000   0.000   0.000   0.070  -0.000  -0.000   0.024   0.001   0.000   0.011  -0.000   0.000
  0.000   0.000  -0.000  -0.097   0.000  -0.000   0.000   0.000   0.037   0.000  -0.000  -0.000   0.000  -0.000   0.006   0.000
 -0.000  -0.000   0.000   0.000  -0.018  -0.000   0.000   0.000   0.000   0.001   0.000   0.000  -0.000   0.000   0.000  -0.000
  0.000   0.000   0.000  -0.000   0.000  -0.000   0.000   0.000   0.000  -0.000   0.000  -0.000  -0.000  -0.000   0.000   0.000
  0.000   0.000  -0.000   0.000   0.000  -0.000  -0.000   0.000   0.000  -0.000  -0.000   0.000  -0.000   0.000   0.000  -0.000
 -0.005   0.000  -0.000   0.000  -0.000   0.000  -0.000   0.000  -0.000  -0.000   0.000  -0.000  -0.000   0.000   0.000  -0.000
  0.000  -0.030  -0.000   0.000  -0.000   0.000   0.011   0.000   0.000   0.000  -0.000   0.000   0.002   0.000   0.000  -0.000
  0.000   0.000  -0.043  -0.000   0.000  -0.000   0.000   0.022   0.000   0.000   0.008   0.000   0.000   0.004  -0.000   0.000
 -0.000   0.000  -0.000  -0.030   0.000   0.000   0.000  -0.000   0.011   0.000   0.000   0.000   0.000   0.000   0.002   0.000
 -0.000   0.000   0.000  -0.000  -0.005   0.000   0.000   0.000   0.000   0.000  -0.000   0.000  -0.000   0.000   0.000   0.000
  0.000   0.000   0.000  -0.000  -0.000  -0.000   0.000   0.000   0.000  -0.000  -0.000   0.000   0.000   0.000   0.000   0.000


------------------------ aborting loop because EDIFF is reached ----------------------------------------


 


 total charge     
 
# of ion     s       p       d       f       tot
------------------------------------------------
  1        0.607   0.127   7.586   0.050   8.370
  2        0.607   0.127   7.586   0.050   8.370
------------------------------------------------
tot        1.214   0.254  15.172   0.099  16.739

 


 magnetization (x)
 
# of ion     s       p       d       f       tot
------------------------------------------------
  1        0.044   0.019   1.806   0.011   1.880
  2        0.044   0.019   1.806   0.011   1.880
------------------------------------------------
tot        0.089   0.038   3.611   0.021   3.759

 
    CHARGE:  cpu time    3.75: real time    7.90
    FORLOC:  cpu time    0.07: real time    0.15
    FORNL :  cpu time   20.98: real time   42.65
    FORCOR:  cpu time    9.65: real time   19.99
    FORHAR:  cpu time    0.62: real time    1.40
    MIXING:  cpu time    1.20: real time    2.49
    OFIELD:  cpu time    0.00: real time    0.00

 VOLUME and BASIS-vectors are now :
 -----------------------------------------------------------------------------
  energy-cutoff  :      500.00
  volume of cell :     4913.00
      direct lattice vectors                 reciprocal lattice vectors
    17.000000000  0.000000000  0.000000000     0.058823529  0.000000000  0.000000000
     0.000000000 17.000000000  0.000000000     0.000000000  0.058823529  0.000000000
     0.000000000  0.000000000 17.000000000     0.000000000  0.000000000  0.058823529

  length of vectors
    17.000000000 17.000000000 17.000000000     0.058823529  0.058823529  0.058823529


 FORCES acting on ions
    electron-ion (+dipol)            ewald-force                    non-local-force                 convergence-correction
 -----------------------------------------------------------------------------------------------
   0.898E-13 -.287E-12 0.246E+03   0.262E-16 -.924E-17 -.242E+03   -.248E-23 0.827E-24 -.414E+01   -.237E-11 -.231E-11 0.894E-03
   0.985E-13 0.541E-12 -.246E+03   0.347E-17 -.424E-16 0.242E+03   0.827E-24 -.827E-24 0.414E+01   -.229E-11 -.234E-11 -.894E-03
 -----------------------------------------------------------------------------------------------
   0.188E-12 0.254E-12 0.252E-11   0.297E-16 -.516E-16 0.000E+00   -.165E-23 0.000E+00 0.000E+00   -.466E-11 -.465E-11 -.409E-11
 
 
 POSITION                                       TOTAL-FORCE (eV/Angst)
 -----------------------------------------------------------------------------------
      0.00000      0.00000     15.90647         0.000000      0.000000      0.005313
      0.00000      0.00000      1.09353         0.000000      0.000000     -0.005313
 -----------------------------------------------------------------------------------
    total drift:                               -0.000000     -0.000000     -0.000000


--------------------------------------------------------------------------------------------------------



  FREE ENERGIE OF THE ION-ELECTRON SYSTEM (eV)
  ---------------------------------------------------
  free  energy   TOTEN  =        -6.37412385 eV

  energy  without entropy=       -6.37130346  energy(sigma->0) =       -6.37271366
 
 d Force = 0.1946287E-01[-0.230E-03, 0.392E-01]  d Energy = 0.1910049E-01 0.362E-03
 d Force = 0.1067683E+02[ 0.105E+02, 0.109E+02]  d Ewald  = 0.1067468E+02 0.215E-02


--------------------------------------------------------------------------------------------------------


    POTLOK:  cpu time   10.29: real time   21.03


--------------------------------------------------------------------------------------------------------




--------------------------------------------------------------------------------------------------------


  
 reached required accuracy - stopping structural energy minimisation
     LOOP+:  cpu time  704.61: real time 1416.87
    4ORBIT:  cpu time    0.00: real time    0.00
 


 total charge     
 
# of ion     s       p       d       f       tot
------------------------------------------------
  1        0.607   0.127   7.586   0.050   8.370
  2        0.607   0.127   7.586   0.050   8.370
------------------------------------------------
tot        1.214   0.254  15.172   0.099  16.739

 


 magnetization (x)
 
# of ion     s       p       d       f       tot
------------------------------------------------
  1        0.044   0.019   1.806   0.011   1.880
  2        0.044   0.019   1.806   0.011   1.880
------------------------------------------------
tot        0.089   0.038   3.611   0.021   3.759

 

 total amount of memory used by VASP on root node   424449. kBytes
========================================================================

   base      :      30000. kBytes
   nonlr-proj:        427. kBytes
   fftplans  :     263088. kBytes
   grid      :     127401. kBytes
   one-center:         49. kBytes
   wavefun   :       3484. kBytes
 
  
  
 General timing and accounting informations for this job:
 ========================================================
  
                  Total CPU time used (sec):     3569.666
                            User time (sec):     3115.511
                          System time (sec):      454.155
                         Elapsed time (sec):     7188.872
  
                   Maximum memory used (kb):      852164.
                   Average memory used (kb):           0.
  
                          Minor page faults:       718384
                          Major page faults:            5
                 Voluntary context switches:          196
