CuRh                                    
   1.00000000000000     
    17.0000000000000000    0.0000000000000000    0.0000000000000000
     0.0000000000000000   17.0000000000000000    0.0000000000000000
     0.0000000000000000    0.0000000000000000   17.0000000000000000
   Rh
     2
Direct
  0.0000000000000000  0.0000000000000000  0.9356744421685963
  0.0000000000000000  0.0000000000000000  0.0643255578314036
 
  0.00000000E+00  0.00000000E+00  0.00000000E+00
  0.00000000E+00  0.00000000E+00  0.00000000E+00
