PROCAR new format
# of k-points:    1         # of bands:  14         # of ions:   2

 k-point    1 :    0.00000000 0.00000000 0.00000000     weight = 1.00000000

band   1 # energy   -8.98190241 # occ.  1.00000000
 
ion      s      p      d      f    tot
  1  0.037  0.020  0.528  0.006  0.591
  2  0.037  0.020  0.528  0.006  0.591
tot  0.073  0.040  1.057  0.012  1.182
 
band   2 # energy   -8.24671487 # occ.  1.00000000
 
ion      s      p      d      f    tot
  1  0.000  0.006  0.489  0.004  0.499
  2  0.000  0.006  0.489  0.004  0.499
tot  0.000  0.011  0.978  0.008  0.997
 
band   3 # energy   -8.24671487 # occ.  1.00000000
 
ion      s      p      d      f    tot
  1  0.000  0.006  0.489  0.004  0.499
  2  0.000  0.006  0.489  0.004  0.499
tot  0.000  0.011  0.978  0.008  0.997
 
band   4 # energy   -6.53771564 # occ.  1.00000000
 
ion      s      p      d      f    tot
  1  0.000  0.000  0.462  0.000  0.463
  2  0.000  0.000  0.462  0.000  0.463
tot  0.000  0.000  0.924  0.001  0.925
 
band   5 # energy   -6.53581410 # occ.  1.00000000
 
ion      s      p      d      f    tot
  1  0.000  0.000  0.462  0.000  0.463
  2  0.000  0.000  0.462  0.000  0.463
tot  0.000  0.000  0.924  0.001  0.925
 
band   6 # energy   -5.86547247 # occ.  1.00000000
 
ion      s      p      d      f    tot
  1  0.000  0.000  0.472  0.001  0.472
  2  0.000  0.000  0.472  0.001  0.472
tot  0.000  0.000  0.943  0.001  0.945
 
band   7 # energy   -5.86339273 # occ.  1.00000000
 
ion      s      p      d      f    tot
  1  0.000  0.000  0.472  0.001  0.472
  2  0.000  0.000  0.472  0.001  0.472
tot  0.000  0.000  0.943  0.001  0.945
 
band   8 # energy   -5.59582273 # occ.  1.00000000
 
ion      s      p      d      f    tot
  1  0.000  0.011  0.449  0.004  0.463
  2  0.000  0.011  0.449  0.004  0.463
tot  0.000  0.021  0.897  0.008  0.927
 
band   9 # energy   -5.59582273 # occ.  1.00000000
 
ion      s      p      d      f    tot
  1  0.000  0.011  0.449  0.004  0.463
  2  0.000  0.011  0.449  0.004  0.463
tot  0.000  0.021  0.897  0.008  0.927
 
band  10 # energy   -5.34223657 # occ.  1.00000000
 
ion      s      p      d      f    tot
  1  0.030  0.016  0.409  0.006  0.462
  2  0.030  0.016  0.409  0.006  0.462
tot  0.061  0.032  0.818  0.012  0.924
 
band  11 # energy   -5.25685959 # occ.  1.00000000
 
ion      s      p      d      f    tot
  1  0.259  0.004  0.015  0.000  0.278
  2  0.259  0.004  0.015  0.000  0.278
tot  0.517  0.008  0.030  0.000  0.556
 
band  12 # energy   -3.12990036 # occ.  0.00000000
 
ion      s      p      d      f    tot
  1  0.133  0.058  0.007  0.000  0.198
  2  0.133  0.058  0.007  0.000  0.198
tot  0.266  0.116  0.013  0.001  0.396
 
band  13 # energy   -1.27169301 # occ.  0.00000000
 
ion      s      p      d      f    tot
  1  0.000  0.099  0.002  0.000  0.102
  2  0.000  0.099  0.002  0.000  0.102
tot  0.000  0.199  0.004  0.000  0.203
 
band  14 # energy   -1.27169301 # occ.  0.00000000
 
ion      s      p      d      f    tot
  1  0.000  0.099  0.002  0.000  0.102
  2  0.000  0.099  0.002  0.000  0.102
tot  0.000  0.199  0.004  0.000  0.203
 
# of k-points:    1         # of bands:  14         # of ions:   2

 k-point    1 :    0.00000000 0.00000000 0.00000000     weight = 1.00000000

band   1 # energy   -7.83176625 # occ.  1.00000000
 
ion      s      p      d      f    tot
  1  0.053  0.028  0.520  0.007  0.608
  2  0.053  0.028  0.520  0.007  0.608
tot  0.105  0.057  1.040  0.014  1.216
 
band   2 # energy   -7.00319944 # occ.  1.00000000
 
ion      s      p      d      f    tot
  1  0.000  0.010  0.483  0.005  0.498
  2  0.000  0.010  0.483  0.005  0.498
tot  0.000  0.019  0.967  0.011  0.997
 
band   3 # energy   -7.00319944 # occ.  1.00000000
 
ion      s      p      d      f    tot
  1  0.000  0.010  0.483  0.005  0.498
  2  0.000  0.010  0.483  0.005  0.498
tot  0.000  0.019  0.967  0.011  0.997
 
band   4 # energy   -5.41309343 # occ.  1.00000000
 
ion      s      p      d      f    tot
  1  0.000  0.000  0.455  0.001  0.455
  2  0.000  0.000  0.455  0.001  0.455
tot  0.000  0.000  0.909  0.001  0.910
 
band   5 # energy   -5.41299088 # occ.  1.00000000
 
ion      s      p      d      f    tot
  1  0.000  0.000  0.455  0.001  0.455
  2  0.000  0.000  0.455  0.001  0.455
tot  0.000  0.000  0.909  0.001  0.910
 
band   6 # energy   -4.79402662 # occ.  1.00000000
 
ion      s      p      d      f    tot
  1  0.229  0.006  0.027  0.000  0.262
  2  0.229  0.006  0.027  0.000  0.262
tot  0.458  0.012  0.053  0.001  0.524
 
band   7 # energy   -4.65250984 # occ.  0.50790986
 
ion      s      p      d      f    tot
  1  0.000  0.000  0.468  0.001  0.468
  2  0.000  0.000  0.468  0.001  0.468
tot  0.000  0.000  0.936  0.001  0.937
 
band   8 # energy   -4.65236964 # occ.  0.49209014
 
ion      s      p      d      f    tot
  1  0.000  0.000  0.468  0.001  0.468
  2  0.000  0.000  0.468  0.001  0.468
tot  0.000  0.000  0.936  0.001  0.937
 
band   9 # energy   -4.05967185 # occ.  0.00000000
 
ion      s      p      d      f    tot
  1  0.000  0.012  0.440  0.004  0.455
  2  0.000  0.012  0.440  0.004  0.455
tot  0.000  0.023  0.880  0.008  0.911
 
band  10 # energy   -4.05967185 # occ.  0.00000000
 
ion      s      p      d      f    tot
  1  0.000  0.012  0.440  0.004  0.455
  2  0.000  0.012  0.440  0.004  0.455
tot  0.000  0.023  0.880  0.008  0.911
 
band  11 # energy   -3.97329170 # occ.  0.00000000
 
ion      s      p      d      f    tot
  1  0.044  0.011  0.387  0.005  0.448
  2  0.044  0.011  0.387  0.005  0.448
tot  0.088  0.023  0.774  0.011  0.895
 
band  12 # energy   -2.43882358 # occ.  0.00000000
 
ion      s      p      d      f    tot
  1  0.102  0.056  0.019  0.001  0.178
  2  0.102  0.056  0.019  0.001  0.178
tot  0.204  0.112  0.039  0.001  0.357
 
band  13 # energy   -1.06635322 # occ.  0.00000000
 
ion      s      p      d      f    tot
  1  0.000  0.083  0.005  0.000  0.088
  2  0.000  0.083  0.005  0.000  0.088
tot  0.000  0.167  0.010  0.000  0.177
 
band  14 # energy   -1.06635322 # occ.  0.00000000
 
ion      s      p      d      f    tot
  1  0.000  0.083  0.005  0.000  0.088
  2  0.000  0.083  0.005  0.000  0.088
tot  0.000  0.167  0.010  0.000  0.177
 
