    2    2  200    2
  0.2456500E+04  0.1700000E-08  0.1700000E-08  0.1700000E-08  0.5000000E-15
  1.000000000000000E-004
  CAR 
 CuRu                                    
     32      1     22
 
  0.0000000E+00  0.0000000E+00  0.0000000E+00  0.1000000E+01
    1      -76.147544    -77.420365
    2      -75.684862    -76.974262
    3      -47.713648    -48.758452
    4      -45.795594    -47.285026
    5      -45.795594    -47.285026
    6      -45.477195    -46.980670
    7      -45.477195    -46.980670
    8      -45.390250    -46.527933
    9       -7.573510     -8.256054
   10       -6.845636     -8.030396
   11       -6.845636     -8.030396
   12       -4.912652     -6.228528
   13       -4.912622     -6.228498
   14       -4.744221     -5.219869
   15       -3.746801     -5.219845
   16       -3.746776     -5.207312
   17       -3.079291     -4.421182
   18       -2.865709     -4.421182
   19       -2.865709     -3.960435
   20       -2.218047     -2.867873
   21       -1.137070     -1.396255
   22       -1.137070     -1.396255
