       N       E                     dE             d eps       ncg     rms          rms(c)
DAV:   1     0.514659174846E+03    0.51466E+03   -0.87912E+03   120   0.760E+02
DAV:   2     0.136614044563E+03   -0.37805E+03   -0.37264E+03   160   0.236E+02
DAV:   3     0.201769842186E+02   -0.11644E+03   -0.11044E+03   128   0.126E+02
DAV:   4    -0.525085701249E+01   -0.25428E+02   -0.24159E+02   136   0.449E+01
DAV:   5    -0.729226567190E+01   -0.20414E+01   -0.20122E+01   106   0.131E+01
DAV:   6    -0.818019489707E+01   -0.88793E+00   -0.88441E+00   116   0.284E+00
DAV:   7    -0.961119500391E+01   -0.14310E+01   -0.10296E+01   128   0.174E+00
DAV:   8    -0.991726714845E+01   -0.30607E+00   -0.22553E+00    86   0.250E+00    0.682E+01
DAV:   9    -0.977965241445E+01    0.13761E+00   -0.32461E-01   130   0.172E+00    0.667E+01
DAV:  10    -0.905205984304E+01    0.72759E+00   -0.25820E+01   100   0.350E+01    0.267E+01
DAV:  11    -0.947445460443E+01   -0.42239E+00   -0.13405E+00   102   0.764E+00    0.298E+01
DAV:  12    -0.764805530484E+01    0.18264E+01   -0.43054E+00    94   0.136E+01    0.506E+01
DAV:  13    -0.776277543603E+01   -0.11472E+00   -0.16014E-01   106   0.270E+00    0.458E+01
DAV:  14    -0.823207239287E+01   -0.46930E+00   -0.19663E+00    94   0.223E+00    0.257E+01
DAV:  15    -0.830554159582E+01   -0.73469E-01   -0.17747E-01    94   0.160E+00    0.246E+01
DAV:  16    -0.835522219513E+01   -0.49681E-01   -0.13438E-02    94   0.573E-01    0.246E+01
DAV:  17    -0.832693435235E+01    0.28288E-01   -0.30315E-01    88   0.447E+00    0.244E+01
DAV:  18    -0.835523630877E+01   -0.28302E-01   -0.10135E-01   100   0.220E+00    0.142E+01
DAV:  19    -0.827868827897E+01    0.76548E-01   -0.35514E-02    94   0.136E+00    0.136E+01
DAV:  20    -0.817176271731E+01    0.10693E+00   -0.59620E-01    94   0.602E+00    0.246E+00
DAV:  21    -0.816993255614E+01    0.18302E-02   -0.34632E-02    94   0.131E+00    0.329E+00
DAV:  22    -0.816820402953E+01    0.17285E-02   -0.11255E-02    88   0.929E-01    0.279E+00
DAV:  23    -0.815597300634E+01    0.12231E-01   -0.27763E-02    88   0.147E+00    0.219E+00
DAV:  24    -0.815615329517E+01   -0.18029E-03   -0.58320E-03   112   0.649E-01    0.673E-01
DAV:  25    -0.815705656186E+01   -0.90327E-03   -0.69981E-03   110   0.664E-01    0.543E-01
DAV:  26    -0.815715925597E+01   -0.10269E-03   -0.26240E-04    88   0.122E-01    0.491E-01
DAV:  27    -0.815721824657E+01   -0.58991E-04   -0.18815E-04    88   0.925E-02    0.606E-01
DAV:  28    -0.815790085848E+01   -0.68261E-03   -0.41770E-04    88   0.168E-01    0.447E-01
DAV:  29    -0.815794029736E+01   -0.39439E-04   -0.37221E-05   108   0.406E-02    0.440E-01
DAV:  30    -0.815798683027E+01   -0.46533E-04   -0.42568E-04    88   0.154E-01    0.418E-01
DAV:  31    -0.815812177018E+01   -0.13494E-03   -0.12586E-04    88   0.854E-02    0.167E-01
DAV:  32    -0.815812642864E+01   -0.46585E-05   -0.10936E-05   110   0.236E-02    0.155E-01
DAV:  33    -0.815812075291E+01    0.56757E-05   -0.35082E-05    88   0.499E-02    0.321E-02
DAV:  34    -0.815812223718E+01   -0.14843E-05   -0.49466E-06    72   0.184E-02    0.546E-02
DAV:  35    -0.815812286363E+01   -0.62645E-06   -0.16440E-06    64   0.104E-02
   1 F= -.81581229E+01 E0= -.81581229E+01  d E =-.815812E+01  mag=    -4.0027
       N       E                     dE             d eps       ncg     rms          rms(c)
DAV:   1    -0.815768894839E+01    0.43329E-03   -0.62040E-02    88   0.306E+00    0.160E-01
DAV:   2    -0.815805608676E+01   -0.36714E-03   -0.39785E-03    88   0.541E-01    0.168E-01
DAV:   3    -0.815807167989E+01   -0.15593E-04   -0.42754E-05   122   0.386E-02    0.164E-01
DAV:   4    -0.815809288582E+01   -0.21206E-04   -0.74006E-06    72   0.247E-02    0.149E-01
DAV:   5    -0.815801986783E+01    0.73018E-04   -0.11227E-04    88   0.954E-02    0.104E-01
DAV:   6    -0.815808722989E+01   -0.67362E-04   -0.25448E-05    88   0.578E-02    0.702E-02
DAV:   7    -0.815809654813E+01   -0.93182E-05   -0.16099E-05    88   0.300E-02    0.260E-02
DAV:   8    -0.815809624636E+01    0.30178E-06   -0.78165E-07    56   0.616E-03
   2 F= -.81580962E+01 E0= -.81580962E+01  d E =0.266173E-04  mag=    -4.0004
       N       E                     dE             d eps       ncg     rms          rms(c)
DAV:   1    -0.815803540533E+01    0.61143E-04   -0.18804E-02    88   0.168E+00    0.908E-02
DAV:   2    -0.815814423604E+01   -0.10883E-03   -0.12021E-03    88   0.297E-01    0.964E-02
DAV:   3    -0.815815069706E+01   -0.64610E-05   -0.11754E-05   116   0.197E-02    0.966E-02
DAV:   4    -0.815814872253E+01    0.19745E-05   -0.35271E-07    56   0.480E-03    0.985E-02
DAV:   5    -0.815814378981E+01    0.49327E-05   -0.54500E-05    88   0.543E-02    0.665E-02
DAV:   6    -0.815814354040E+01    0.24940E-06   -0.24572E-06    98   0.106E-02
   3 F= -.81581435E+01 E0= -.81581435E+01  d E =-.206768E-04  mag=    -3.9997
