CuRu                                    
   1.00000000000000     
    17.0000000000000000    0.0000000000000000    0.0000000000000000
     0.0000000000000000   17.0000000000000000    0.0000000000000000
     0.0000000000000000    0.0000000000000000   17.0000000000000000
   Ru
     2
Direct
  0.0000000000000000  0.0000000000000000  0.9387559842714478
  0.0000000000000000  0.0000000000000000  0.0612440157285522
 
  0.00000000E+00  0.00000000E+00  0.00000000E+00
  0.00000000E+00  0.00000000E+00  0.00000000E+00
