PROCAR new format
# of k-points:    1         # of bands:  22         # of ions:   2

 k-point    1 :    0.00000000 0.00000000 0.00000000     weight = 1.00000000

band   1 # energy  -76.14754386 # occ.  1.00000000
 
ion      s      p      d      f    tot
  1  0.508  0.000  0.001  0.000  0.509
  2  0.508  0.000  0.001  0.000  0.509
tot  1.017  0.000  0.001  0.000  1.018
 
band   2 # energy  -75.68486190 # occ.  1.00000000
 
ion      s      p      d      f    tot
  1  0.506  0.000  0.000  0.000  0.506
  2  0.506  0.000  0.000  0.000  0.506
tot  1.012  0.000  0.000  0.000  1.012
 
band   3 # energy  -47.71364772 # occ.  1.00000000
 
ion      s      p      d      f    tot
  1  0.002  0.488  0.003  0.001  0.495
  2  0.002  0.488  0.003  0.001  0.495
tot  0.004  0.976  0.006  0.003  0.989
 
band   4 # energy  -45.79559438 # occ.  1.00000000
 
ion      s      p      d      f    tot
  1  0.000  0.493  0.000  0.000  0.493
  2  0.000  0.493  0.000  0.000  0.493
tot  0.000  0.985  0.000  0.000  0.986
 
band   5 # energy  -45.79559438 # occ.  1.00000000
 
ion      s      p      d      f    tot
  1  0.000  0.493  0.000  0.000  0.493
  2  0.000  0.493  0.000  0.000  0.493
tot  0.000  0.985  0.000  0.000  0.986
 
band   6 # energy  -45.47719507 # occ.  1.00000000
 
ion      s      p      d      f    tot
  1  0.000  0.496  0.000  0.000  0.496
  2  0.000  0.496  0.000  0.000  0.496
tot  0.000  0.992  0.000  0.000  0.992
 
band   7 # energy  -45.47719507 # occ.  1.00000000
 
ion      s      p      d      f    tot
  1  0.000  0.496  0.000  0.000  0.496
  2  0.000  0.496  0.000  0.000  0.496
tot  0.000  0.992  0.000  0.000  0.992
 
band   8 # energy  -45.39024981 # occ.  1.00000000
 
ion      s      p      d      f    tot
  1  0.001  0.500  0.002  0.000  0.504
  2  0.001  0.500  0.002  0.000  0.504
tot  0.003  1.000  0.005  0.000  1.007
 
band   9 # energy   -7.57351015 # occ.  1.00000000
 
ion      s      p      d      f    tot
  1  0.057  0.005  0.460  0.005  0.527
  2  0.057  0.005  0.460  0.005  0.527
tot  0.115  0.010  0.919  0.011  1.054
 
band  10 # energy   -6.84563646 # occ.  1.00000000
 
ion      s      p      d      f    tot
  1  0.000  0.003  0.410  0.005  0.417
  2  0.000  0.003  0.410  0.005  0.417
tot  0.000  0.005  0.820  0.009  0.834
 
band  11 # energy   -6.84563646 # occ.  1.00000000
 
ion      s      p      d      f    tot
  1  0.000  0.003  0.410  0.005  0.417
  2  0.000  0.003  0.410  0.005  0.417
tot  0.000  0.005  0.820  0.009  0.834
 
band  12 # energy   -4.91265203 # occ.  1.00000000
 
ion      s      p      d      f    tot
  1  0.000  0.000  0.391  0.001  0.392
  2  0.000  0.000  0.391  0.001  0.392
tot  0.000  0.000  0.783  0.001  0.784
 
band  13 # energy   -4.91262159 # occ.  1.00000000
 
ion      s      p      d      f    tot
  1  0.000  0.000  0.391  0.001  0.392
  2  0.000  0.000  0.391  0.001  0.392
tot  0.000  0.000  0.783  0.001  0.784
 
band  14 # energy   -4.74422146 # occ.  1.00000000
 
ion      s      p      d      f    tot
  1  0.315  0.001  0.009  0.000  0.325
  2  0.315  0.001  0.009  0.000  0.325
tot  0.629  0.002  0.018  0.001  0.650
 
band  15 # energy   -3.74680097 # occ.  0.00000000
 
ion      s      p      d      f    tot
  1  0.000  0.000  0.424  0.001  0.425
  2  0.000  0.000  0.424  0.001  0.425
tot  0.000  0.000  0.848  0.001  0.849
 
band  16 # energy   -3.74677584 # occ.  0.00000000
 
ion      s      p      d      f    tot
  1  0.000  0.000  0.424  0.001  0.425
  2  0.000  0.000  0.424  0.001  0.425
tot  0.000  0.000  0.848  0.001  0.849
 
band  17 # energy   -3.07929127 # occ.  0.00000000
 
ion      s      p      d      f    tot
  1  0.111  0.001  0.299  0.004  0.416
  2  0.111  0.001  0.299  0.004  0.416
tot  0.223  0.003  0.598  0.009  0.832
 
band  18 # energy   -2.86570921 # occ.  0.00000000
 
ion      s      p      d      f    tot
  1  0.000  0.004  0.383  0.003  0.390
  2  0.000  0.004  0.383  0.003  0.390
tot  0.000  0.008  0.766  0.007  0.781
 
band  19 # energy   -2.86570921 # occ.  0.00000000
 
ion      s      p      d      f    tot
  1  0.000  0.004  0.383  0.003  0.390
  2  0.000  0.004  0.383  0.003  0.390
tot  0.000  0.008  0.766  0.007  0.781
 
band  20 # energy   -2.21804724 # occ.  0.00000000
 
ion      s      p      d      f    tot
  1  0.080  0.014  0.058  0.001  0.153
  2  0.080  0.014  0.058  0.001  0.153
tot  0.160  0.027  0.117  0.003  0.306
 
band  21 # energy   -1.13706960 # occ.  0.00000000
 
ion      s      p      d      f    tot
  1  0.000  0.014  0.006  0.000  0.020
  2  0.000  0.014  0.006  0.000  0.020
tot  0.000  0.029  0.012  0.000  0.041
 
band  22 # energy   -1.13706960 # occ.  0.00000000
 
ion      s      p      d      f    tot
  1  0.000  0.014  0.006  0.000  0.020
  2  0.000  0.014  0.006  0.000  0.020
tot  0.000  0.029  0.012  0.000  0.041
 
# of k-points:    1         # of bands:  22         # of ions:   2

 k-point    1 :    0.00000000 0.00000000 0.00000000     weight = 1.00000000

band   1 # energy  -77.42036465 # occ.  1.00000000
 
ion      s      p      d      f    tot
  1  0.504  0.000  0.001  0.000  0.504
  2  0.504  0.000  0.001  0.000  0.504
tot  1.007  0.000  0.001  0.000  1.009
 
band   2 # energy  -76.97426226 # occ.  1.00000000
 
ion      s      p      d      f    tot
  1  0.502  0.000  0.000  0.000  0.502
  2  0.502  0.000  0.000  0.000  0.502
tot  1.004  0.000  0.000  0.000  1.004
 
band   3 # energy  -48.75845227 # occ.  1.00000000
 
ion      s      p      d      f    tot
  1  0.002  0.489  0.003  0.001  0.495
  2  0.002  0.489  0.003  0.001  0.495
tot  0.004  0.979  0.006  0.001  0.989
 
band   4 # energy  -47.28502606 # occ.  1.00000000
 
ion      s      p      d      f    tot
  1  0.000  0.494  0.000  0.000  0.494
  2  0.000  0.494  0.000  0.000  0.494
tot  0.000  0.988  0.000  0.000  0.988
 
band   5 # energy  -47.28502606 # occ.  1.00000000
 
ion      s      p      d      f    tot
  1  0.000  0.494  0.000  0.000  0.494
  2  0.000  0.494  0.000  0.000  0.494
tot  0.000  0.988  0.000  0.000  0.988
 
band   6 # energy  -46.98066984 # occ.  1.00000000
 
ion      s      p      d      f    tot
  1  0.000  0.497  0.000  0.000  0.497
  2  0.000  0.497  0.000  0.000  0.497
tot  0.000  0.994  0.000  0.000  0.994
 
band   7 # energy  -46.98066984 # occ.  1.00000000
 
ion      s      p      d      f    tot
  1  0.000  0.497  0.000  0.000  0.497
  2  0.000  0.497  0.000  0.000  0.497
tot  0.000  0.994  0.000  0.000  0.994
 
band   8 # energy  -46.52793308 # occ.  1.00000000
 
ion      s      p      d      f    tot
  1  0.002  0.500  0.002  0.000  0.504
  2  0.002  0.500  0.002  0.000  0.504
tot  0.003  1.000  0.005  0.000  1.009
 
band   9 # energy   -8.25605423 # occ.  1.00000000
 
ion      s      p      d      f    tot
  1  0.047  0.004  0.466  0.005  0.522
  2  0.047  0.004  0.466  0.005  0.522
tot  0.094  0.008  0.932  0.010  1.044
 
band  10 # energy   -8.03039591 # occ.  1.00000000
 
ion      s      p      d      f    tot
  1  0.000  0.001  0.424  0.003  0.428
  2  0.000  0.001  0.424  0.003  0.428
tot  0.000  0.003  0.847  0.007  0.857
 
band  11 # energy   -8.03039591 # occ.  1.00000000
 
ion      s      p      d      f    tot
  1  0.000  0.001  0.424  0.003  0.428
  2  0.000  0.001  0.424  0.003  0.428
tot  0.000  0.003  0.847  0.007  0.857
 
band  12 # energy   -6.22852773 # occ.  1.00000000
 
ion      s      p      d      f    tot
  1  0.000  0.000  0.406  0.000  0.406
  2  0.000  0.000  0.406  0.000  0.406
tot  0.000  0.000  0.812  0.001  0.813
 
band  13 # energy   -6.22849772 # occ.  1.00000000
 
ion      s      p      d      f    tot
  1  0.000  0.000  0.406  0.000  0.406
  2  0.000  0.000  0.406  0.000  0.406
tot  0.000  0.000  0.812  0.001  0.813
 
band  14 # energy   -5.21986912 # occ.  1.00000000
 
ion      s      p      d      f    tot
  1  0.000  0.000  0.431  0.001  0.431
  2  0.000  0.000  0.431  0.001  0.431
tot  0.000  0.000  0.861  0.002  0.863
 
band  15 # energy   -5.21984456 # occ.  1.00000000
 
ion      s      p      d      f    tot
  1  0.000  0.000  0.431  0.001  0.431
  2  0.000  0.000  0.431  0.001  0.431
tot  0.000  0.000  0.861  0.002  0.863
 
band  16 # energy   -5.20731169 # occ.  1.00000000
 
ion      s      p      d      f    tot
  1  0.355  0.000  0.006  0.000  0.361
  2  0.355  0.000  0.006  0.000  0.361
tot  0.709  0.001  0.012  0.000  0.722
 
band  17 # energy   -4.42118223 # occ.  1.00000000
 
ion      s      p      d      f    tot
  1  0.000  0.004  0.398  0.004  0.406
  2  0.000  0.004  0.398  0.004  0.406
tot  0.000  0.008  0.797  0.008  0.813
 
band  18 # energy   -4.42118223 # occ.  1.00000000
 
ion      s      p      d      f    tot
  1  0.000  0.004  0.398  0.004  0.406
  2  0.000  0.004  0.398  0.004  0.406
tot  0.000  0.008  0.797  0.008  0.813
 
band  19 # energy   -3.96043503 # occ.  0.00000000
 
ion      s      p      d      f    tot
  1  0.121  0.001  0.304  0.005  0.431
  2  0.121  0.001  0.304  0.005  0.431
tot  0.243  0.002  0.608  0.009  0.862
 
band  20 # energy   -2.86787341 # occ.  0.00000000
 
ion      s      p      d      f    tot
  1  0.097  0.015  0.061  0.001  0.174
  2  0.097  0.015  0.061  0.001  0.174
tot  0.194  0.031  0.121  0.002  0.348
 
band  21 # energy   -1.39625519 # occ.  0.00000000
 
ion      s      p      d      f    tot
  1  0.000  0.018  0.002  0.000  0.020
  2  0.000  0.018  0.002  0.000  0.020
tot  0.000  0.037  0.004  0.000  0.041
 
band  22 # energy   -1.39625519 # occ.  0.00000000
 
ion      s      p      d      f    tot
  1  0.000  0.018  0.002  0.000  0.020
  2  0.000  0.018  0.002  0.000  0.020
tot  0.000  0.037  0.004  0.000  0.041
 
