    6    6  200    2
  0.8188333E+03  0.1700000E-08  0.1700000E-08  0.1700000E-08  0.5000000E-15
  1.000000000000000E-004
  CAR 
 Ag                                      
     66      1     42
 
  0.0000000E+00  0.0000000E+00  0.0000000E+00  0.1000000E+01
    1       -8.762213     -8.762213   1.000000   1.000000
    2       -8.686534     -8.686534   1.000000   1.000000
    3       -8.685264     -8.685264   1.000000   1.000000
    4       -8.348151     -8.348151   1.000000   1.000000
    5       -8.023620     -8.023620   1.000000   1.000000
    6       -8.021191     -8.021191   1.000000   1.000000
    7       -7.984354     -7.984354   1.000000   1.000000
    8       -7.981903     -7.981903   1.000000   1.000000
    9       -7.827252     -7.827252   1.000000   1.000000
   10       -7.566333     -7.566333   1.000000   1.000000
   11       -7.512247     -7.512247   1.000000   1.000000
   12       -7.284582     -7.284582   1.000000   1.000000
   13       -7.283697     -7.283697   1.000000   1.000000
   14       -7.275922     -7.275922   1.000000   1.000000
   15       -7.248996     -7.248996   1.000000   1.000000
   16       -7.226758     -7.226758   1.000000   1.000000
   17       -7.226366     -7.226366   1.000000   1.000000
   18       -7.114973     -7.114973   1.000000   1.000000
   19       -7.113310     -7.113310   1.000000   1.000000
   20       -6.956585     -6.956585   1.000000   1.000000
   21       -6.955104     -6.955104   1.000000   1.000000
   22       -6.809225     -6.809225   1.000000   1.000000
   23       -6.808484     -6.808484   1.000000   1.000000
   24       -6.758096     -6.758096   1.000000   1.000000
   25       -6.688961     -6.688961   1.000000   1.000000
   26       -6.688930     -6.688930   1.000000   1.000000
   27       -6.680671     -6.680671   1.000000   1.000000
   28       -6.528006     -6.528006   1.000000   1.000000
   29       -6.381689     -6.381689   1.000000   1.000000
   30       -6.368056     -6.368056   1.000000   1.000000
   31       -6.367710     -6.367710   1.000000   1.000000
   32       -4.886583     -4.886583   1.000000   1.000000
   33       -4.885373     -4.885373   1.000000   1.000000
   34       -2.684482     -2.684482   0.000000   0.000000
   35       -2.427330     -2.427330   0.000000   0.000000
   36       -2.425986     -2.425986   0.000000   0.000000
   37       -1.778954     -1.778954   0.000000   0.000000
   38       -0.789524     -0.789524   0.000000   0.000000
   39       -0.785348     -0.785348   0.000000   0.000000
   40       -0.435103     -0.435103   0.000000   0.000000
   41       -0.429132     -0.429132   0.000000   0.000000
   42       -0.157058     -0.157058   0.000000   0.000000
