SYSTEM = Ag

Electronic relaxation:
ENCUT   = 500.000   ! Cutoff energy for plane waves basis set in eV (determines NGX,Y,Z).
ALGO    = NORMAL    !
NELMIN  = 6         ! Minimum number of eletronic selfconsistency (SC) steps
NELM    = 120       ! Maximum number of electronic SC steps
NELMDL  = -8        ! Number of NON-selfconsistency steps
EDIFF   = 1.0E-6    ! Global-break condition for the electronic SC-loop (ELM)
AMIX    = 0.020000
BMIX    = 0.000010
AMIX_MAG= 0.100000
BMIX_MAG= 0.000010

Calculation mode:
PREC    = Normal    ! Calcululation level (Changes FFT-grids)
ISPIN   = 2         ! spin-polarized calculations
ADDGRID = .TRUE.    ! PAW flag
LASPH   = .TRUE.    ! non-spherical elements in the PAW method
LREAL   = AUTO

#####van der Waals correction:
#####IVDW = 11
#####
#####Spin-Orbit Coupling calculation:
#####LSORBIT = .TRUE.
#####LMAXMIX = 6
#####NBANDS  = 286

Ionic relaxation:
NSW     = 200       ! Number of ionic steps
EDIFFG  = -0.0100   ! stop if all forces are smaller than |EDIFFG|
IBRION  = 2         !
ISIF    = 0         ! Calculate FORCE and Relaxa Ions
POTIM   = 0.50

Integration over the Brillouin zone (BZ):
ISMEAR  = 0         ! Fermi smearing
SIGMA   = 0.0050

DOS calculation:
LORBIT  = 10        ! Calculate the DOS without providing the Wigner Seitz radius
####NEDOS   = 61        ! Number of points to calculate the DOS

OUTCAR size:
NWRITE  = 1         ! Determines how much information will be written in OUTCAR
LWAVE   = .FALSE.
LCHARG  = .FALSE.

Key for parallel mode calculation:
NCORE  = 4
LPLANE = .TRUE.

EOF
