       N       E                     dE             d eps       ncg     rms          rms(c)
DAV:   1     0.573060869767E+03    0.57306E+03   -0.13531E+04   168   0.916E+02
DAV:   2     0.235072908187E+03   -0.33799E+03   -0.30669E+03   328   0.112E+02
DAV:   3     0.247862409524E+02   -0.21029E+03   -0.19804E+03   272   0.101E+02
DAV:   4    -0.780446514070E+01   -0.32591E+02   -0.28530E+02   200   0.575E+01
DAV:   5    -0.906681009822E+01   -0.12623E+01   -0.12565E+01   206   0.154E+01
DAV:   6    -0.915505694518E+01   -0.88247E-01   -0.88241E-01   280   0.341E+00
DAV:   7    -0.915678718031E+01   -0.17302E-02   -0.17302E-02   262   0.409E-01
DAV:   8    -0.915689939435E+01   -0.11221E-03   -0.11221E-03   288   0.110E-01    0.124E+01
DAV:   9    -0.923551461744E+01   -0.78615E-01   -0.11152E-02   168   0.580E-01    0.114E+01
DAV:  10    -0.937456312922E+01   -0.13905E+00   -0.11365E+00   170   0.549E+00    0.407E+00
DAV:  11    -0.938466509759E+01   -0.10102E-01   -0.45054E-02   214   0.138E+00    0.412E+00
DAV:  12    -0.936149191628E+01    0.23173E-01   -0.12242E-02   220   0.565E-01    0.394E+00
DAV:  13    -0.926109489440E+01    0.10040E+00   -0.64273E-01   172   0.475E+00    0.281E+00
DAV:  14    -0.929860021565E+01   -0.37505E-01   -0.14885E-01   216   0.190E+00    0.251E+00
DAV:  15    -0.925674663031E+01    0.41854E-01   -0.10903E-01   170   0.186E+00    0.201E+00
DAV:  16    -0.925149955343E+01    0.52471E-02   -0.11217E-02   256   0.506E-01    0.205E+00
DAV:  17    -0.925319103776E+01   -0.16915E-02   -0.23329E-03   188   0.269E-01    0.188E+00
DAV:  18    -0.925660334031E+01   -0.34123E-02   -0.48595E-03   174   0.407E-01    0.160E+00
DAV:  19    -0.925420392731E+01    0.23994E-02   -0.26848E-03   214   0.286E-01    0.129E+00
DAV:  20    -0.925059660152E+01    0.36073E-02   -0.44972E-03   170   0.341E-01    0.108E+00
DAV:  21    -0.925016033285E+01    0.43627E-03   -0.37373E-04   256   0.962E-02    0.982E-01
DAV:  22    -0.924979177857E+01    0.36855E-03   -0.43295E-04   204   0.108E-01    0.753E-01
DAV:  23    -0.924951474000E+01    0.27704E-03   -0.44520E-04   204   0.119E-01    0.512E-01
DAV:  24    -0.924942841946E+01    0.86321E-04   -0.31507E-04   204   0.897E-02    0.362E-01
DAV:  25    -0.924933603806E+01    0.92381E-04   -0.62117E-04   170   0.133E-01    0.144E-01
DAV:  26    -0.924933614782E+01   -0.10976E-06   -0.74309E-05   336   0.381E-02    0.124E-01
DAV:  27    -0.924933820686E+01   -0.20590E-05   -0.14712E-05   170   0.208E-02    0.100E-01
DAV:  28    -0.924934568168E+01   -0.74748E-05   -0.14722E-05   172   0.261E-02    0.495E-02
DAV:  29    -0.924934741195E+01   -0.17303E-05   -0.31044E-06   190   0.104E-02    0.448E-02
DAV:  30    -0.924935109395E+01   -0.36820E-05   -0.16175E-05   170   0.240E-02    0.121E-02
DAV:  31    -0.924935091578E+01    0.17817E-06   -0.83495E-07   110   0.790E-03
   1 F= -.92493509E+01 E0= -.92493509E+01  d E =-.924935E+01  mag=     0.0000
       N       E                     dE             d eps       ncg     rms          rms(c)
DAV:   1    -0.929538518628E+01   -0.46034E-01   -0.41135E+01   168   0.337E+01    0.438E-01
DAV:   2    -0.932733768216E+01   -0.31952E-01   -0.32204E-01   256   0.403E+00    0.240E-01
DAV:   3    -0.932741455445E+01   -0.76872E-04   -0.10443E-03   172   0.176E-01    0.232E-01
DAV:   4    -0.932705466720E+01    0.35989E-03   -0.50836E-04   272   0.289E-01    0.204E-01
DAV:   5    -0.932693679440E+01    0.11787E-03   -0.20020E-03   204   0.604E-01    0.171E-01
DAV:   6    -0.932695533181E+01   -0.18537E-04   -0.52670E-04   172   0.206E-01    0.152E-01
DAV:   7    -0.932693969644E+01    0.15635E-04   -0.61681E-05   184   0.563E-02    0.119E-01
DAV:   8    -0.932694664896E+01   -0.69525E-05   -0.48311E-04   188   0.296E-01    0.528E-02
DAV:   9    -0.932694669945E+01   -0.50495E-07   -0.10022E-04   172   0.829E-02    0.413E-02
DAV:  10    -0.932694424935E+01    0.24501E-05   -0.56679E-06   256   0.116E-02    0.403E-02
DAV:  11    -0.932692095237E+01    0.23297E-04   -0.23564E-05   168   0.387E-02    0.276E-02
DAV:  12    -0.932690281364E+01    0.18139E-04   -0.50388E-05   176   0.708E-02    0.221E-02
DAV:  13    -0.932690488258E+01   -0.20689E-05   -0.85712E-06   184   0.210E-02    0.197E-02
DAV:  14    -0.932690218298E+01    0.26996E-05   -0.20974E-06    84   0.125E-02    0.154E-02
DAV:  15    -0.932689904274E+01    0.31402E-05   -0.16126E-05   170   0.285E-02    0.605E-03
DAV:  16    -0.932689905621E+01   -0.13474E-07   -0.97948E-07    90   0.800E-03
   2 F= -.93268991E+01 E0= -.93268991E+01  d E =-.775481E-01  mag=     0.0000
       N       E                     dE             d eps       ncg     rms          rms(c)
DAV:   1    -0.904087361458E+01    0.28603E+00   -0.37484E+02   168   0.104E+02    0.319E+00
DAV:   2    -0.943774435565E+01   -0.39687E+00   -0.39981E+00   240   0.153E+01    0.710E-01
DAV:   3    -0.944454535022E+01   -0.68010E-02   -0.67570E-02   284   0.128E+00    0.781E-01
DAV:   4    -0.944498008772E+01   -0.43474E-03   -0.82323E-03   240   0.296E-01    0.748E-01
DAV:   5    -0.944087336825E+01    0.41067E-02   -0.59888E-03   204   0.114E+00    0.628E-01
DAV:   6    -0.944027577038E+01    0.59760E-03   -0.14939E-02   204   0.147E+00    0.548E-01
DAV:   7    -0.944161442018E+01   -0.13386E-02   -0.52590E-03   208   0.510E-01    0.584E-01
DAV:   8    -0.943976452486E+01    0.18499E-02   -0.42407E-03   172   0.115E+00    0.377E-01
DAV:   9    -0.944030552713E+01   -0.54100E-03   -0.39467E-03   172   0.414E-01    0.259E-01
DAV:  10    -0.944031888275E+01   -0.13356E-04   -0.32817E-04   252   0.119E-01    0.249E-01
DAV:  11    -0.944027555768E+01    0.43325E-04   -0.68409E-05   188   0.130E-01    0.259E-01
DAV:  12    -0.943971179905E+01    0.56376E-03   -0.14747E-03   168   0.259E-01    0.128E-01
DAV:  13    -0.943967997633E+01    0.31823E-04   -0.30317E-04   224   0.148E-01    0.844E-02
DAV:  14    -0.943968444471E+01   -0.44684E-05   -0.37838E-05   172   0.852E-02    0.834E-02
DAV:  15    -0.943966095756E+01    0.23487E-04   -0.41190E-05   172   0.604E-02    0.620E-02
DAV:  16    -0.943965538539E+01    0.55722E-05   -0.51013E-05   200   0.485E-02    0.442E-02
DAV:  17    -0.943965555462E+01   -0.16923E-06   -0.90336E-06   176   0.343E-02
   3 F= -.94396556E+01 E0= -.94396556E+01  d E =-.190305E+00  mag=    -0.0000
       N       E                     dE             d eps       ncg     rms          rms(c)
DAV:   1    -0.943785768888E+01    0.17977E-02   -0.37415E+00   168   0.101E+01    0.134E-01
DAV:   2    -0.944060229513E+01   -0.27446E-02   -0.27780E-02   240   0.118E+00    0.110E-01
DAV:   3    -0.944063028140E+01   -0.27986E-04   -0.31339E-04   168   0.857E-02    0.106E-01
DAV:   4    -0.944059402553E+01    0.36256E-04   -0.75245E-05   220   0.123E-01    0.867E-02
DAV:   5    -0.944062581270E+01   -0.31787E-04   -0.36198E-04   236   0.263E-01    0.610E-02
DAV:   6    -0.944060805226E+01    0.17760E-04   -0.10646E-04   172   0.152E-01    0.413E-02
DAV:   7    -0.944061836547E+01   -0.10313E-04   -0.23848E-05   172   0.289E-02    0.208E-02
DAV:   8    -0.944061335460E+01    0.50109E-05   -0.93706E-06   176   0.493E-02    0.148E-02
DAV:   9    -0.944060712903E+01    0.62256E-05   -0.14262E-05   176   0.386E-02    0.117E-02
DAV:  10    -0.944060694655E+01    0.18248E-06   -0.30587E-06   116   0.163E-02
   4 F= -.94406069E+01 E0= -.94406069E+01  d E =-.191256E+00  mag=     0.0000
       N       E                     dE             d eps       ncg     rms          rms(c)
DAV:   1    -0.944270659499E+01   -0.20995E-02   -0.30424E+01   168   0.289E+01    0.335E-01
DAV:   2    -0.946631705011E+01   -0.23610E-01   -0.23815E-01   256   0.345E+00    0.246E-01
DAV:   3    -0.946637886509E+01   -0.61815E-04   -0.79180E-04   172   0.148E-01    0.238E-01
DAV:   4    -0.946601470115E+01    0.36416E-03   -0.28517E-04   172   0.249E-01    0.214E-01
DAV:   5    -0.946585387066E+01    0.16083E-03   -0.18421E-03   220   0.533E-01    0.169E-01
DAV:   6    -0.946578862007E+01    0.65251E-04   -0.77427E-04   172   0.509E-01    0.110E-01
DAV:   7    -0.946585385420E+01   -0.65234E-04   -0.60429E-04   168   0.131E-01    0.345E-02
DAV:   8    -0.946585775634E+01   -0.39021E-05   -0.34688E-05   288   0.375E-02    0.358E-02
DAV:   9    -0.946585723259E+01    0.52375E-06   -0.80666E-07   144   0.854E-03
   5 F= -.94658572E+01 E0= -.94658572E+01  d E =-.252503E-01  mag=    -0.0000
       N       E                     dE             d eps       ncg     rms          rms(c)
DAV:   1    -0.945628341105E+01    0.95743E-02   -0.26206E+01   168   0.268E+01    0.308E-01
DAV:   2    -0.947654560292E+01   -0.20262E-01   -0.20434E-01   272   0.320E+00    0.229E-01
DAV:   3    -0.947659959047E+01   -0.53988E-04   -0.66914E-04   172   0.136E-01    0.223E-01
DAV:   4    -0.947631184853E+01    0.28774E-03   -0.25935E-04   204   0.247E-01    0.201E-01
DAV:   5    -0.947622980088E+01    0.82048E-04   -0.15960E-03   220   0.549E-01    0.163E-01
DAV:   6    -0.947619436110E+01    0.35440E-04   -0.11639E-03   168   0.686E-01    0.101E-01
DAV:   7    -0.947620837072E+01   -0.14010E-04   -0.52474E-04   168   0.259E-01    0.279E-02
DAV:   8    -0.947622511541E+01   -0.16745E-04   -0.10617E-04   192   0.740E-02    0.329E-02
DAV:   9    -0.947622692264E+01   -0.18072E-05   -0.10344E-05   252   0.232E-02    0.347E-02
DAV:  10    -0.947621269816E+01    0.14224E-04   -0.12200E-05   168   0.355E-02    0.345E-02
DAV:  11    -0.947618572232E+01    0.26976E-04   -0.71521E-05   176   0.563E-02    0.234E-02
DAV:  12    -0.947618318373E+01    0.25386E-05   -0.84139E-06   168   0.394E-02    0.155E-02
DAV:  13    -0.947618099122E+01    0.21925E-05   -0.60191E-06   172   0.176E-02    0.112E-02
DAV:  14    -0.947618094172E+01    0.49501E-07   -0.82853E-07    84   0.107E-02
   6 F= -.94761809E+01 E0= -.94761809E+01  d E =-.355740E-01  mag=    -0.0000
       N       E                     dE             d eps       ncg     rms          rms(c)
DAV:   1    -0.947253313699E+01    0.36479E-02   -0.40137E+01   168   0.332E+01    0.333E-01
DAV:   2    -0.950317079972E+01   -0.30638E-01   -0.30906E-01   256   0.394E+00    0.209E-01
DAV:   3    -0.950325996219E+01   -0.89162E-04   -0.10725E-03   188   0.174E-01    0.196E-01
DAV:   4    -0.950276883047E+01    0.49113E-03   -0.41132E-04   176   0.143E-01    0.158E-01
DAV:   5    -0.950230045708E+01    0.46837E-03   -0.17517E-03   184   0.271E-01    0.927E-02
DAV:   6    -0.950239180348E+01   -0.91346E-04   -0.80875E-04   188   0.152E-01    0.618E-02
DAV:   7    -0.950232516731E+01    0.66636E-04   -0.14737E-04   176   0.144E-01    0.446E-02
DAV:   8    -0.950236003251E+01   -0.34865E-04   -0.14702E-04   184   0.153E-01    0.499E-02
DAV:   9    -0.950236133782E+01   -0.13053E-05   -0.46335E-05   176   0.628E-02    0.383E-02
DAV:  10    -0.950236597164E+01   -0.46338E-05   -0.13045E-05   336   0.181E-02    0.423E-02
DAV:  11    -0.950234997378E+01    0.15998E-04   -0.15086E-05   172   0.190E-02    0.367E-02
DAV:  12    -0.950232814674E+01    0.21827E-04   -0.52329E-05   176   0.863E-02    0.139E-02
DAV:  13    -0.950232737161E+01    0.77513E-06   -0.17769E-05   184   0.246E-02    0.873E-03
DAV:  14    -0.950232712651E+01    0.24511E-06   -0.25481E-06   120   0.237E-02
   7 F= -.95023271E+01 E0= -.95023271E+01  d E =-.261462E-01  mag=    -0.0000
       N       E                     dE             d eps       ncg     rms          rms(c)
DAV:   1    -0.916903046806E+01    0.33330E+00   -0.36589E+02   168   0.102E+02    0.273E+00
DAV:   2    -0.956382738323E+01   -0.39480E+00   -0.39816E+00   256   0.152E+01    0.647E-01
DAV:   3    -0.956658121353E+01   -0.27538E-02   -0.27506E-02   320   0.696E-01    0.615E-01
DAV:   4    -0.956283661432E+01    0.37446E-02   -0.26343E-03   192   0.348E-01    0.518E-01
DAV:   5    -0.955768148350E+01    0.51551E-02   -0.27029E-02   168   0.107E+00    0.260E-01
DAV:   6    -0.955771586533E+01   -0.34382E-04   -0.20922E-03   176   0.491E-01    0.188E-01
DAV:   7    -0.955789201171E+01   -0.17615E-03   -0.89327E-04   208   0.150E-01    0.144E-01
DAV:   8    -0.955775740593E+01    0.13461E-03   -0.16777E-03   168   0.584E-01    0.128E-01
DAV:   9    -0.955794375304E+01   -0.18635E-03   -0.57711E-04   172   0.153E-01    0.108E-01
DAV:  10    -0.955786900206E+01    0.74751E-04   -0.14024E-04   208   0.185E-01    0.721E-02
DAV:  11    -0.955777879814E+01    0.90204E-04   -0.49179E-04   172   0.135E-01    0.366E-02
DAV:  12    -0.955778368653E+01   -0.48884E-05   -0.28055E-05   208   0.524E-02    0.379E-02
DAV:  13    -0.955777518475E+01    0.85018E-05   -0.11719E-05   172   0.405E-02    0.301E-02
DAV:  14    -0.955776465229E+01    0.10532E-04   -0.76984E-05   176   0.766E-02    0.162E-02
DAV:  15    -0.955776530693E+01   -0.65464E-06   -0.12443E-05   172   0.299E-02    0.144E-02
DAV:  16    -0.955776524489E+01    0.62043E-07   -0.82363E-07    96   0.658E-03
   8 F= -.95577652E+01 E0= -.95577652E+01  d E =-.815843E-01  mag=     0.0000
       N       E                     dE             d eps       ncg     rms          rms(c)
DAV:   1    -0.682741195524E+01    0.27304E+01   -0.15281E+03   168   0.222E+02    0.139E+01
DAV:   2    -0.945229465486E+01   -0.26249E+01   -0.26543E+01   192   0.426E+01    0.222E+00
DAV:   3    -0.956602594435E+01   -0.11373E+00   -0.11259E+00   224   0.679E+00    0.130E+00
DAV:   4    -0.957989191473E+01   -0.13866E-01   -0.17502E-01   336   0.157E+00    0.129E+00
DAV:   5    -0.956693199349E+01    0.12960E-01   -0.11609E-02   176   0.763E-01    0.106E+00
DAV:   6    -0.955180266131E+01    0.15129E-01   -0.87837E-02   176   0.209E+00    0.530E-01
DAV:   7    -0.955208209744E+01   -0.27944E-03   -0.11861E-02   176   0.121E+00    0.315E-01
DAV:   8    -0.955247404760E+01   -0.39195E-03   -0.16990E-03   224   0.221E-01    0.268E-01
DAV:   9    -0.955178384467E+01    0.69020E-03   -0.28511E-03   192   0.685E-01    0.270E-01
DAV:  10    -0.955256342479E+01   -0.77958E-03   -0.21836E-03   192   0.350E-01    0.251E-01
DAV:  11    -0.955213939873E+01    0.42403E-03   -0.12067E-03   176   0.560E-01    0.124E-01
DAV:  12    -0.955203962889E+01    0.99770E-04   -0.46743E-04   176   0.110E-01    0.101E-01
DAV:  13    -0.955206376650E+01   -0.24138E-04   -0.55148E-05   272   0.772E-02    0.116E-01
DAV:  14    -0.955201986232E+01    0.43904E-04   -0.47467E-05   176   0.608E-02    0.893E-02
DAV:  15    -0.955193917469E+01    0.80688E-04   -0.35735E-04   176   0.139E-01    0.163E-02
DAV:  16    -0.955194207532E+01   -0.29006E-05   -0.30082E-05   288   0.375E-02    0.190E-02
DAV:  17    -0.955194211486E+01   -0.39537E-07   -0.50603E-07    96   0.379E-03
   9 F= -.95519421E+01 E0= -.95519421E+01  d E =-.757612E-01  mag=     0.0000
       N       E                     dE             d eps       ncg     rms          rms(c)
DAV:   1    -0.910446431573E+01    0.44748E+00   -0.42796E+02   168   0.111E+02    0.369E+00
DAV:   2    -0.957622585556E+01   -0.47176E+00   -0.47573E+00   232   0.167E+01    0.613E-01
DAV:   3    -0.958409718363E+01   -0.78713E-02   -0.78469E-02   288   0.135E+00    0.581E-01
DAV:   4    -0.958323245446E+01    0.86473E-03   -0.87398E-03   224   0.345E-01    0.532E-01
DAV:   5    -0.957553519951E+01    0.76973E-02   -0.26144E-02   168   0.122E+00    0.307E-01
DAV:   6    -0.957566236448E+01   -0.12716E-03   -0.50109E-03   208   0.422E-01    0.263E-01
DAV:   7    -0.957567076046E+01   -0.83960E-05   -0.28356E-04   256   0.120E-01    0.229E-01
DAV:   8    -0.957580772462E+01   -0.13696E-03   -0.23187E-03   168   0.593E-01    0.137E-01
DAV:   9    -0.957572143828E+01    0.86286E-04   -0.77634E-04   200   0.217E-01    0.136E-01
DAV:  10    -0.957587184580E+01   -0.15041E-03   -0.16813E-04   256   0.923E-02    0.148E-01
DAV:  11    -0.957564670934E+01    0.22514E-03   -0.46807E-04   184   0.297E-01    0.779E-02
DAV:  12    -0.957550415436E+01    0.14255E-03   -0.72608E-04   168   0.136E-01    0.405E-02
DAV:  13    -0.957550285024E+01    0.13041E-05   -0.56102E-05   256   0.516E-02    0.348E-02
DAV:  14    -0.957549967557E+01    0.31747E-05   -0.89588E-06   172   0.383E-02    0.311E-02
DAV:  15    -0.957548427979E+01    0.15396E-04   -0.81735E-05   168   0.950E-02    0.148E-02
DAV:  16    -0.957548494778E+01   -0.66799E-06   -0.99238E-06   208   0.240E-02
  10 F= -.95754849E+01 E0= -.95754849E+01  d E =-.993040E-01  mag=     0.0000
       N       E                     dE             d eps       ncg     rms          rms(c)
DAV:   1    -0.957066207490E+01    0.48222E-02   -0.28417E+01   168   0.278E+01    0.273E-01
DAV:   2    -0.959107275651E+01   -0.20411E-01   -0.20604E-01   220   0.320E+00    0.180E-01
DAV:   3    -0.959158291654E+01   -0.51016E-03   -0.53737E-03   204   0.362E-01    0.145E-01
DAV:   4    -0.959140684147E+01    0.17608E-03   -0.27487E-04   304   0.784E-02    0.130E-01
DAV:   5    -0.959086544473E+01    0.54140E-03   -0.30258E-03   168   0.283E-01    0.481E-02
DAV:   6    -0.959088113298E+01   -0.15688E-04   -0.99546E-05   240   0.662E-02    0.408E-02
DAV:   7    -0.959088769949E+01   -0.65665E-05   -0.50773E-06   208   0.131E-02    0.372E-02
DAV:   8    -0.959089315958E+01   -0.54601E-05   -0.10322E-04   168   0.111E-01    0.206E-02
DAV:   9    -0.959089483971E+01   -0.16801E-05   -0.33735E-05   208   0.319E-02    0.187E-02
DAV:  10    -0.959089355125E+01    0.12885E-05   -0.27238E-06   144   0.220E-02    0.140E-02
DAV:  11    -0.959089191553E+01    0.16357E-05   -0.13961E-05   184   0.493E-02    0.664E-03
DAV:  12    -0.959089209952E+01   -0.18400E-06   -0.33055E-06   128   0.141E-02
  11 F= -.95908921E+01 E0= -.95908921E+01  d E =-.154072E-01  mag=    -0.0000
       N       E                     dE             d eps       ncg     rms          rms(c)
DAV:   1    -0.937971433442E+01    0.21118E+00   -0.25864E+02   168   0.851E+01    0.195E+00
DAV:   2    -0.963063018078E+01   -0.25092E+00   -0.25308E+00   220   0.118E+01    0.569E-01
DAV:   3    -0.963641686912E+01   -0.57867E-02   -0.59861E-02   252   0.133E+00    0.449E-01
DAV:   4    -0.963523018853E+01    0.11867E-02   -0.66444E-03   256   0.351E-01    0.405E-01
DAV:   5    -0.963030657441E+01    0.49236E-02   -0.19376E-02   168   0.724E-01    0.169E-01
DAV:   6    -0.963036962184E+01   -0.63047E-04   -0.17820E-03   204   0.222E-01    0.132E-01
DAV:   7    -0.963042966113E+01   -0.60039E-04   -0.11231E-04   272   0.602E-02    0.118E-01
DAV:   8    -0.963052006262E+01   -0.90401E-04   -0.75938E-04   168   0.327E-01    0.693E-02
DAV:   9    -0.963049061360E+01    0.29449E-04   -0.24712E-04   208   0.853E-02    0.642E-02
DAV:  10    -0.963050115989E+01   -0.10546E-04   -0.18861E-05   304   0.209E-02    0.666E-02
DAV:  11    -0.963047833618E+01    0.22824E-04   -0.37653E-05   200   0.983E-02    0.457E-02
DAV:  12    -0.963044732673E+01    0.31009E-04   -0.17909E-04   168   0.143E-01    0.147E-02
DAV:  13    -0.963045044202E+01   -0.31153E-05   -0.29794E-05   176   0.466E-02    0.173E-02
DAV:  14    -0.963045114897E+01   -0.70696E-06   -0.92815E-07    84   0.627E-03
  12 F= -.96304511E+01 E0= -.96304511E+01  d E =-.549662E-01  mag=     0.0000
       N       E                     dE             d eps       ncg     rms          rms(c)
DAV:   1    -0.797491057645E+01    0.16555E+01   -0.10739E+03   168   0.181E+02    0.924E+00
DAV:   2    -0.963677570273E+01   -0.16619E+01   -0.16791E+01   220   0.325E+01    0.132E+00
DAV:   3    -0.968764064714E+01   -0.50865E-01   -0.50210E-01   284   0.372E+00    0.104E+00
DAV:   4    -0.968742755092E+01    0.21310E-03   -0.45685E-02   268   0.803E-01    0.966E-01
DAV:   5    -0.966659567252E+01    0.20832E-01   -0.88762E-02   168   0.168E+00    0.358E-01
DAV:   6    -0.966714485012E+01   -0.54918E-03   -0.87052E-03   224   0.510E-01    0.271E-01
DAV:   7    -0.966746919507E+01   -0.32434E-03   -0.51114E-04   304   0.118E-01    0.251E-01
DAV:   8    -0.966757131055E+01   -0.10212E-03   -0.29412E-03   168   0.714E-01    0.153E-01
DAV:   9    -0.966733699094E+01    0.23432E-03   -0.20215E-03   188   0.278E-01    0.168E-01
DAV:  10    -0.966761299055E+01   -0.27600E-03   -0.31082E-04   268   0.156E-01    0.195E-01
DAV:  11    -0.966711078607E+01    0.50220E-03   -0.15537E-03   184   0.586E-01    0.582E-02
DAV:  12    -0.966713208132E+01   -0.21295E-04   -0.49565E-04   204   0.122E-01    0.445E-02
DAV:  13    -0.966713533242E+01   -0.32511E-05   -0.14681E-05   256   0.197E-02    0.452E-02
DAV:  14    -0.966713490244E+01    0.42998E-06   -0.63582E-06   176   0.273E-02
  13 F= -.96671349E+01 E0= -.96671349E+01  d E =-.916500E-01  mag=     0.0000
       N       E                     dE             d eps       ncg     rms          rms(c)
DAV:   1    -0.962696702063E+01    0.40168E-01   -0.11560E+02   168   0.562E+01    0.106E+00
DAV:   2    -0.972482083106E+01   -0.97854E-01   -0.98649E-01   236   0.713E+00    0.372E-01
DAV:   3    -0.972705797811E+01   -0.22371E-02   -0.23963E-02   268   0.806E-01    0.335E-01
DAV:   4    -0.972624002842E+01    0.81795E-03   -0.19708E-03   220   0.201E-01    0.296E-01
DAV:   5    -0.972439838326E+01    0.18416E-02   -0.11030E-02   168   0.607E-01    0.166E-01
DAV:   6    -0.972456735907E+01   -0.16898E-03   -0.92805E-04   220   0.210E-01    0.150E-01
DAV:   7    -0.972462222575E+01   -0.54867E-04   -0.82006E-05   256   0.492E-02    0.140E-01
DAV:   8    -0.972456671509E+01    0.55511E-04   -0.88296E-04   204   0.411E-01    0.936E-02
DAV:   9    -0.972460228495E+01   -0.35570E-04   -0.19374E-04   200   0.973E-02    0.805E-02
DAV:  10    -0.972460901514E+01   -0.67302E-05   -0.94732E-06   240   0.215E-02    0.834E-02
DAV:  11    -0.972456957718E+01    0.39438E-04   -0.68683E-05   168   0.453E-02    0.652E-02
DAV:  12    -0.972450882987E+01    0.60747E-04   -0.19195E-04   168   0.175E-01    0.236E-02
DAV:  13    -0.972451139168E+01   -0.25618E-05   -0.60007E-05   208   0.466E-02    0.211E-02
DAV:  14    -0.972450931717E+01    0.20745E-05   -0.76553E-06   168   0.156E-02    0.196E-02
DAV:  15    -0.972450709551E+01    0.22217E-05   -0.98270E-06   200   0.263E-02    0.961E-03
DAV:  16    -0.972450728784E+01   -0.19234E-06   -0.80395E-07    84   0.850E-03
  14 F= -.97245073E+01 E0= -.97245073E+01  d E =-.573724E-01  mag=     0.0000
       N       E                     dE             d eps       ncg     rms          rms(c)
DAV:   1    -0.800215056783E+01    0.17224E+01   -0.10994E+03   168   0.183E+02    0.103E+01
DAV:   2    -0.975457678096E+01   -0.17524E+01   -0.17695E+01   220   0.328E+01    0.133E+00
DAV:   3    -0.983578670377E+01   -0.81210E-01   -0.80888E-01   304   0.468E+00    0.992E-01
DAV:   4    -0.983312260117E+01    0.26641E-02   -0.24270E-02   232   0.689E-01    0.913E-01
DAV:   5    -0.981150618684E+01    0.21616E-01   -0.11408E-01   168   0.181E+00    0.487E-01
DAV:   6    -0.981251556320E+01   -0.10094E-02   -0.72182E-03   272   0.497E-01    0.489E-01
DAV:   7    -0.981268434263E+01   -0.16878E-03   -0.50935E-04   252   0.958E-02    0.472E-01
DAV:   8    -0.981210295565E+01    0.58139E-03   -0.48766E-03   168   0.773E-01    0.225E-01
DAV:   9    -0.981231339435E+01   -0.21044E-03   -0.17541E-03   252   0.257E-01    0.169E-01
DAV:  10    -0.981240368175E+01   -0.90287E-04   -0.96736E-05   208   0.636E-02    0.169E-01
DAV:  11    -0.981199641125E+01    0.40727E-03   -0.13186E-03   184   0.515E-01    0.686E-02
DAV:  12    -0.981193374165E+01    0.62670E-04   -0.14132E-03   168   0.196E-01    0.658E-02
DAV:  13    -0.981193902738E+01   -0.52857E-05   -0.48265E-05   288   0.404E-02    0.648E-02
DAV:  14    -0.981193835784E+01    0.66954E-06   -0.86478E-07   124   0.428E-03
  15 F= -.98119384E+01 E0= -.98119384E+01  d E =-.144803E+00  mag=    -0.0000
       N       E                     dE             d eps       ncg     rms          rms(c)
DAV:   1    -0.978368170954E+01    0.28257E-01   -0.41972E+01   168   0.336E+01    0.408E-01
DAV:   2    -0.981523231324E+01   -0.31551E-01   -0.31823E-01   236   0.396E+00    0.239E-01
DAV:   3    -0.981583783000E+01   -0.60552E-03   -0.68538E-03   240   0.422E-01    0.209E-01
DAV:   4    -0.981541620350E+01    0.42163E-03   -0.57317E-04   248   0.126E-01    0.180E-01
DAV:   5    -0.981463479059E+01    0.78141E-03   -0.39957E-03   184   0.362E-01    0.110E-01
DAV:   6    -0.981469083300E+01   -0.56042E-04   -0.36990E-04   240   0.119E-01    0.957E-02
DAV:   7    -0.981474963264E+01   -0.58800E-04   -0.76607E-05   168   0.522E-02    0.815E-02
DAV:   8    -0.981475047928E+01   -0.84663E-06   -0.17890E-04   184   0.165E-01    0.519E-02
DAV:   9    -0.981475189903E+01   -0.14198E-05   -0.75091E-05   204   0.518E-02    0.456E-02
DAV:  10    -0.981471776380E+01    0.34135E-04   -0.65775E-05   168   0.113E-01    0.190E-02
DAV:  11    -0.981471293578E+01    0.48280E-05   -0.69758E-05   168   0.428E-02    0.155E-02
DAV:  12    -0.981471310784E+01   -0.17207E-06   -0.23316E-06   152   0.116E-02
  16 F= -.98147131E+01 E0= -.98147131E+01  d E =-.147578E+00  mag=     0.0000
       N       E                     dE             d eps       ncg     rms          rms(c)
DAV:   1    -0.973334458415E+01    0.81368E-01   -0.10754E+02   168   0.544E+01    0.885E-01
DAV:   2    -0.982831248912E+01   -0.94968E-01   -0.95727E-01   268   0.702E+00    0.467E-01
DAV:   3    -0.982873114505E+01   -0.41866E-03   -0.52686E-03   304   0.326E-01    0.453E-01
DAV:   4    -0.982718630079E+01    0.15448E-02   -0.14698E-03   204   0.466E-01    0.401E-01
DAV:   5    -0.982623363260E+01    0.95267E-03   -0.13190E-02   184   0.135E+00    0.307E-01
DAV:   6    -0.982627702937E+01   -0.43397E-04   -0.25395E-03   188   0.457E-01    0.247E-01
DAV:   7    -0.982589753286E+01    0.37950E-03   -0.76615E-04   232   0.465E-01    0.186E-01
DAV:   8    -0.982605025983E+01   -0.15273E-03   -0.17974E-03   172   0.528E-01    0.752E-02
DAV:   9    -0.982607629987E+01   -0.26040E-04   -0.45815E-04   176   0.248E-01    0.594E-02
DAV:  10    -0.982608628045E+01   -0.99806E-05   -0.28332E-05   240   0.273E-02    0.629E-02
DAV:  11    -0.982607795556E+01    0.83249E-05   -0.72384E-05   200   0.133E-01    0.606E-02
DAV:  12    -0.982592352031E+01    0.15444E-03   -0.54393E-04   172   0.216E-01    0.519E-02
DAV:  13    -0.982592984011E+01   -0.63198E-05   -0.68138E-05   240   0.571E-02    0.474E-02
DAV:  14    -0.982592667089E+01    0.31692E-05   -0.34050E-06   156   0.181E-02    0.431E-02
DAV:  15    -0.982591468448E+01    0.11986E-04   -0.18309E-05   176   0.675E-02    0.338E-02
DAV:  16    -0.982591319267E+01    0.14918E-05   -0.10523E-05   200   0.303E-02    0.324E-02
DAV:  17    -0.982591331168E+01   -0.11901E-06   -0.16195E-06    84   0.104E-02
  17 F= -.98259133E+01 E0= -.98259133E+01  d E =-.112002E-01  mag=     0.0000
       N       E                     dE             d eps       ncg     rms          rms(c)
DAV:   1    -0.982170334569E+01    0.42098E-02   -0.87651E+00   168   0.154E+01    0.164E-01
DAV:   2    -0.982818847986E+01   -0.64851E-02   -0.65655E-02   256   0.179E+00    0.156E-01
DAV:   3    -0.982826873508E+01   -0.80255E-04   -0.80750E-04   188   0.130E-01    0.145E-01
DAV:   4    -0.982816124393E+01    0.10749E-03   -0.10774E-04   176   0.100E-01    0.136E-01
DAV:   5    -0.982799923622E+01    0.16201E-03   -0.75446E-04   168   0.300E-01    0.101E-01
DAV:   6    -0.982803466874E+01   -0.35433E-04   -0.36552E-04   236   0.113E-01    0.695E-02
DAV:   7    -0.982799035128E+01    0.44317E-04   -0.16877E-04   168   0.201E-01    0.408E-02
DAV:   8    -0.982800598138E+01   -0.15630E-04   -0.73511E-05   176   0.557E-02    0.182E-02
DAV:   9    -0.982800686930E+01   -0.88792E-06   -0.61101E-06   204   0.207E-02
  18 F= -.98280069E+01 E0= -.98280069E+01  d E =-.132938E-01  mag=     0.0000
       N       E                     dE             d eps       ncg     rms          rms(c)
DAV:   1    -0.981780259788E+01    0.10203E-01   -0.22742E+01   168   0.248E+01    0.228E-01
DAV:   2    -0.983503786513E+01   -0.17235E-01   -0.17407E-01   264   0.292E+00    0.188E-01
DAV:   3    -0.983509523367E+01   -0.57369E-04   -0.56096E-04   192   0.124E-01    0.180E-01
DAV:   4    -0.983479375894E+01    0.30147E-03   -0.23746E-04   204   0.133E-01    0.150E-01
DAV:   5    -0.983450036517E+01    0.29339E-03   -0.14458E-03   168   0.304E-01    0.920E-02
DAV:   6    -0.983453614085E+01   -0.35776E-04   -0.40758E-04   208   0.139E-01    0.580E-02
DAV:   7    -0.983454214189E+01   -0.60010E-05   -0.41070E-05   268   0.481E-02    0.468E-02
DAV:   8    -0.983452224357E+01    0.19898E-04   -0.19923E-04   200   0.213E-01    0.431E-02
DAV:   9    -0.983452175095E+01    0.49263E-06   -0.51505E-05   168   0.553E-02    0.330E-02
DAV:  10    -0.983450773035E+01    0.14021E-04   -0.24667E-05   184   0.754E-02    0.167E-02
DAV:  11    -0.983450070965E+01    0.70207E-05   -0.50421E-05   200   0.363E-02    0.113E-02
DAV:  12    -0.983450089380E+01   -0.18416E-06   -0.12685E-06   104   0.963E-03
  19 F= -.98345009E+01 E0= -.98345009E+01  d E =-.649402E-02  mag=    -0.0000
       N       E                     dE             d eps       ncg     rms          rms(c)
DAV:   1    -0.982838476945E+01    0.61159E-02   -0.93035E+00   168   0.159E+01    0.130E-01
DAV:   2    -0.983511248263E+01   -0.67277E-02   -0.68022E-02   236   0.183E+00    0.122E-01
DAV:   3    -0.983526144970E+01   -0.14897E-03   -0.14647E-03   192   0.188E-01    0.108E-01
DAV:   4    -0.983522599678E+01    0.35453E-04   -0.11507E-04   300   0.619E-02    0.101E-01
DAV:   5    -0.983508952353E+01    0.13647E-03   -0.53706E-04   168   0.218E-01    0.635E-02
DAV:   6    -0.983510737166E+01   -0.17848E-04   -0.19458E-04   204   0.814E-02    0.535E-02
DAV:   7    -0.983510028865E+01    0.70830E-05   -0.14958E-05   172   0.476E-02    0.447E-02
DAV:   8    -0.983511250936E+01   -0.12221E-04   -0.42828E-05   168   0.429E-02    0.307E-02
DAV:   9    -0.983509943384E+01    0.13076E-04   -0.26581E-05   200   0.706E-02    0.245E-02
DAV:  10    -0.983509089874E+01    0.85351E-05   -0.46239E-05   168   0.540E-02    0.173E-02
DAV:  11    -0.983508839670E+01    0.25020E-05   -0.17663E-05   200   0.580E-02    0.539E-03
DAV:  12    -0.983508861199E+01   -0.21529E-06   -0.54633E-06   164   0.143E-02
  20 F= -.98350886E+01 E0= -.98350886E+01  d E =-.708174E-02  mag=     0.0000
       N       E                     dE             d eps       ncg     rms          rms(c)
DAV:   1    -0.983476398907E+01    0.32441E-03   -0.61292E-01   168   0.407E+00    0.354E-02
DAV:   2    -0.983519847768E+01   -0.43449E-03   -0.44209E-03   232   0.464E-01    0.301E-02
DAV:   3    -0.983520802847E+01   -0.95508E-05   -0.84425E-05   192   0.469E-02    0.275E-02
DAV:   4    -0.983520327393E+01    0.47545E-05   -0.68859E-06   204   0.172E-02    0.242E-02
DAV:   5    -0.983519651299E+01    0.67609E-05   -0.52467E-05   168   0.543E-02    0.125E-02
DAV:   6    -0.983519968147E+01   -0.31685E-05   -0.13440E-05   204   0.218E-02    0.923E-03
DAV:   7    -0.983519935473E+01    0.32674E-06   -0.43697E-07    84   0.716E-03
  21 F= -.98351994E+01 E0= -.98351994E+01  d E =-.719249E-02  mag=     0.0000
       N       E                     dE             d eps       ncg     rms          rms(c)
DAV:   1    -0.983446691110E+01    0.73277E-03   -0.33270E+00   168   0.936E+00    0.788E-02
DAV:   2    -0.983678294144E+01   -0.23160E-02   -0.23474E-02   220   0.106E+00    0.690E-02
DAV:   3    -0.983684604338E+01   -0.63102E-04   -0.64463E-04   192   0.135E-01    0.593E-02
DAV:   4    -0.983682215030E+01    0.23893E-04   -0.51451E-05   256   0.425E-02    0.533E-02
DAV:   5    -0.983675819438E+01    0.63956E-04   -0.20354E-04   168   0.994E-02    0.334E-02
DAV:   6    -0.983676404902E+01   -0.58546E-05   -0.95974E-05   204   0.528E-02    0.264E-02
DAV:   7    -0.983676259077E+01    0.14583E-05   -0.10901E-05   168   0.519E-02    0.150E-02
DAV:   8    -0.983676687077E+01   -0.42800E-05   -0.82775E-06   188   0.266E-02    0.127E-02
DAV:   9    -0.983676691111E+01   -0.40345E-07   -0.12853E-06    84   0.100E-02
  22 F= -.98367669E+01 E0= -.98367669E+01  d E =-.156756E-02  mag=     0.0000
       N       E                     dE             d eps       ncg     rms          rms(c)
DAV:   1    -0.983408954486E+01    0.26773E-02   -0.55492E+00   168   0.121E+01    0.102E-01
DAV:   2    -0.983797797582E+01   -0.38884E-02   -0.39321E-02   220   0.138E+00    0.831E-02
DAV:   3    -0.983808248362E+01   -0.10451E-03   -0.10955E-03   192   0.181E-01    0.722E-02
DAV:   4    -0.983805630233E+01    0.26181E-04   -0.83177E-05   268   0.588E-02    0.652E-02
DAV:   5    -0.983798701756E+01    0.69285E-04   -0.27738E-04   168   0.160E-01    0.437E-02
DAV:   6    -0.983798988370E+01   -0.28661E-05   -0.44307E-05   224   0.444E-02    0.387E-02
DAV:   7    -0.983799649009E+01   -0.66064E-05   -0.24109E-05   168   0.262E-02    0.310E-02
DAV:   8    -0.983800487246E+01   -0.83824E-05   -0.51420E-05   184   0.110E-01    0.165E-02
DAV:   9    -0.983800612992E+01   -0.12575E-05   -0.11313E-05   192   0.395E-02    0.134E-02
DAV:  10    -0.983799874431E+01    0.73856E-05   -0.12545E-05   172   0.218E-02    0.643E-03
DAV:  11    -0.983799776322E+01    0.98109E-06   -0.27997E-06   148   0.161E-02
  23 F= -.98379978E+01 E0= -.98379978E+01  d E =-.279841E-02  mag=    -0.0000
       N       E                     dE             d eps       ncg     rms          rms(c)
DAV:   1    -0.982154523046E+01    0.16454E-01   -0.22222E+01   168   0.244E+01    0.255E-01
DAV:   2    -0.983764122483E+01   -0.16096E-01   -0.16248E-01   220   0.282E+00    0.176E-01
DAV:   3    -0.983810445070E+01   -0.46323E-03   -0.49431E-03   192   0.383E-01    0.148E-01
DAV:   4    -0.983797561136E+01    0.12884E-03   -0.44183E-04   284   0.117E-01    0.133E-01
DAV:   5    -0.983758319363E+01    0.39242E-03   -0.13296E-03   168   0.250E-01    0.831E-02
DAV:   6    -0.983761093866E+01   -0.27745E-04   -0.42291E-04   204   0.113E-01    0.691E-02
DAV:   7    -0.983760002480E+01    0.10914E-04   -0.49284E-05   172   0.107E-01    0.434E-02
DAV:   8    -0.983762815507E+01   -0.28130E-04   -0.63685E-05   184   0.915E-02    0.302E-02
DAV:   9    -0.983762774600E+01    0.40907E-06   -0.15626E-05   192   0.284E-02    0.274E-02
DAV:  10    -0.983762218739E+01    0.55586E-05   -0.28240E-06   160   0.147E-02    0.269E-02
DAV:  11    -0.983760785073E+01    0.14337E-04   -0.25254E-05   168   0.533E-02    0.217E-02
DAV:  12    -0.983760395365E+01    0.38971E-05   -0.46371E-05   200   0.456E-02    0.205E-02
DAV:  13    -0.983760389414E+01    0.59512E-07   -0.46126E-06   168   0.250E-02
  24 F= -.98376039E+01 E0= -.98376039E+01  d E =-.240454E-02  mag=     0.0000
       N       E                     dE             d eps       ncg     rms          rms(c)
DAV:   1    -0.983294415199E+01    0.46598E-02   -0.76632E+00   168   0.142E+01    0.122E-01
DAV:   2    -0.983827416871E+01   -0.53300E-02   -0.53929E-02   204   0.162E+00    0.113E-01
DAV:   3    -0.983847754522E+01   -0.20338E-03   -0.20615E-03   224   0.261E-01    0.928E-02
DAV:   4    -0.983844040485E+01    0.37140E-04   -0.82997E-05   264   0.504E-02    0.876E-02
DAV:   5    -0.983828807547E+01    0.15233E-03   -0.35166E-04   168   0.152E-01    0.607E-02
DAV:   6    -0.983828015891E+01    0.79166E-05   -0.22158E-04   204   0.902E-02    0.478E-02
DAV:   7    -0.983827138023E+01    0.87787E-05   -0.51051E-05   168   0.117E-01    0.267E-02
DAV:   8    -0.983828277063E+01   -0.11390E-04   -0.40097E-05   168   0.319E-02    0.178E-02
DAV:   9    -0.983828398799E+01   -0.12174E-05   -0.12841E-06   128   0.105E-02    0.160E-02
DAV:  10    -0.983827672031E+01    0.72677E-05   -0.27412E-05   168   0.306E-02    0.417E-03
DAV:  11    -0.983827685115E+01   -0.13084E-06   -0.20053E-06   136   0.919E-03
  25 F= -.98382769E+01 E0= -.98382769E+01  d E =-.307750E-02  mag=    -0.0000
       N       E                     dE             d eps       ncg     rms          rms(c)
DAV:   1    -0.983463032266E+01    0.36464E-02   -0.65903E+00   168   0.131E+01    0.127E-01
DAV:   2    -0.983927396372E+01   -0.46436E-02   -0.46943E-02   220   0.149E+00    0.106E-01
DAV:   3    -0.983943820337E+01   -0.16424E-03   -0.17572E-03   192   0.213E-01    0.919E-02
DAV:   4    -0.983939704726E+01    0.41156E-04   -0.15487E-04   284   0.710E-02    0.832E-02
DAV:   5    -0.983927380868E+01    0.12324E-03   -0.47531E-04   172   0.164E-01    0.540E-02
DAV:   6    -0.983930396489E+01   -0.30156E-04   -0.22703E-04   204   0.822E-02    0.421E-02
DAV:   7    -0.983928456674E+01    0.19398E-04   -0.43957E-05   168   0.997E-02    0.238E-02
DAV:   8    -0.983929131177E+01   -0.67450E-05   -0.18619E-05   252   0.509E-02    0.166E-02
DAV:   9    -0.983929371022E+01   -0.23985E-05   -0.51227E-06   160   0.165E-02    0.158E-02
DAV:  10    -0.983928735950E+01    0.63507E-05   -0.88952E-06   172   0.171E-02    0.122E-02
DAV:  11    -0.983928336765E+01    0.39918E-05   -0.13965E-05   184   0.534E-02    0.531E-03
DAV:  12    -0.983928338089E+01   -0.13239E-07   -0.57395E-06   176   0.139E-02
  26 F= -.98392834E+01 E0= -.98392834E+01  d E =-.100653E-02  mag=     0.0000
       N       E                     dE             d eps       ncg     rms          rms(c)
DAV:   1    -0.983919896911E+01    0.84399E-04   -0.15694E-01   168   0.200E+00    0.155E-02
DAV:   2    -0.983930757578E+01   -0.10861E-03   -0.11039E-03   220   0.226E-01    0.148E-02
DAV:   3    -0.983931089373E+01   -0.33180E-05   -0.31047E-05   192   0.289E-02    0.130E-02
DAV:   4    -0.983931048608E+01    0.40765E-06   -0.18497E-06   120   0.799E-03    0.125E-02
DAV:   5    -0.983930950660E+01    0.97948E-06   -0.51989E-06   200   0.165E-02    0.847E-03
DAV:   6    -0.983931013973E+01   -0.63313E-06   -0.43736E-06   168   0.122E-02
  27 F= -.98393101E+01 E0= -.98393101E+01  d E =-.103329E-02  mag=    -0.0000
       N       E                     dE             d eps       ncg     rms          rms(c)
DAV:   1    -0.983526912298E+01    0.40404E-02   -0.67547E+00   168   0.133E+01    0.116E-01
DAV:   2    -0.983995698518E+01   -0.46879E-02   -0.47428E-02   204   0.152E+00    0.113E-01
DAV:   3    -0.984015085545E+01   -0.19387E-03   -0.19844E-03   192   0.260E-01    0.932E-02
DAV:   4    -0.984012553511E+01    0.25320E-04   -0.14996E-04   264   0.777E-02    0.883E-02
DAV:   5    -0.984000430674E+01    0.12123E-03   -0.22504E-04   168   0.153E-01    0.670E-02
DAV:   6    -0.983999627124E+01    0.80355E-05   -0.37414E-04   188   0.156E-01    0.554E-02
DAV:   7    -0.983997791579E+01    0.18355E-04   -0.13290E-04   168   0.183E-01    0.272E-02
DAV:   8    -0.983998355238E+01   -0.56366E-05   -0.16181E-05   176   0.262E-02    0.214E-02
DAV:   9    -0.983999025314E+01   -0.67008E-05   -0.11342E-05   188   0.181E-02    0.161E-02
DAV:  10    -0.983998223191E+01    0.80212E-05   -0.34623E-05   168   0.400E-02    0.797E-03
DAV:  11    -0.983998201252E+01    0.21939E-06   -0.22684E-06   128   0.188E-02
  28 F= -.98399820E+01 E0= -.98399820E+01  d E =-.671873E-03  mag=    -0.0000
       N       E                     dE             d eps       ncg     rms          rms(c)
DAV:   1    -0.983996385324E+01    0.18379E-04   -0.29825E-02   168   0.885E-01    0.102E-02
DAV:   2    -0.983998453376E+01   -0.20681E-04   -0.20957E-04   204   0.101E-01    0.926E-03
DAV:   3    -0.983998517711E+01   -0.64335E-06   -0.73885E-06   176   0.158E-02    0.834E-03
DAV:   4    -0.983998448087E+01    0.69623E-06   -0.64553E-07    84   0.662E-03    0.742E-03
DAV:   5    -0.983998343427E+01    0.10466E-05   -0.71359E-06   184   0.213E-02    0.482E-03
DAV:   6    -0.983998343457E+01   -0.29922E-09   -0.82034E-07    84   0.109E-02
  29 F= -.98399834E+01 E0= -.98399834E+01  d E =-.673295E-03  mag=     0.0000
       N       E                     dE             d eps       ncg     rms          rms(c)
DAV:   1    -0.983770821768E+01    0.22752E-02   -0.42601E+00   168   0.105E+01    0.861E-02
DAV:   2    -0.984057667241E+01   -0.28685E-02   -0.29074E-02   192   0.118E+00    0.885E-02
DAV:   3    -0.984069937377E+01   -0.12270E-03   -0.12115E-03   220   0.199E-01    0.730E-02
DAV:   4    -0.984068689409E+01    0.12480E-04   -0.71532E-05   240   0.443E-02    0.695E-02
DAV:   5    -0.984059295510E+01    0.93939E-04   -0.23947E-04   168   0.750E-02    0.407E-02
DAV:   6    -0.984058535910E+01    0.75960E-05   -0.92706E-05   204   0.459E-02    0.292E-02
DAV:   7    -0.984058450480E+01    0.85430E-06   -0.37158E-06   176   0.146E-02
  30 F= -.98405845E+01 E0= -.98405845E+01  d E =-.601070E-03  mag=     0.0000
       N       E                     dE             d eps       ncg     rms          rms(c)
DAV:   1    -0.984035011871E+01    0.23524E-03   -0.42125E-01   168   0.330E+00    0.325E-02
DAV:   2    -0.984063194540E+01   -0.28183E-03   -0.28774E-03   192   0.369E-01    0.326E-02
DAV:   3    -0.984064309899E+01   -0.11154E-04   -0.10373E-04   220   0.592E-02    0.291E-02
DAV:   4    -0.984064252731E+01    0.57169E-06   -0.54497E-06   208   0.131E-02    0.276E-02
DAV:   5    -0.984063890679E+01    0.36205E-05   -0.27131E-05   168   0.427E-02    0.792E-03
DAV:   6    -0.984063908960E+01   -0.18281E-06   -0.28739E-06   120   0.133E-02
  31 F= -.98406391E+01 E0= -.98406391E+01  d E =-.655655E-03  mag=    -0.0000
       N       E                     dE             d eps       ncg     rms          rms(c)
DAV:   1    -0.983984836832E+01    0.79054E-03   -0.14665E+00   168   0.631E+00    0.612E-02
DAV:   2    -0.984088331122E+01   -0.10349E-02   -0.10532E-02   220   0.722E-01    0.547E-02
DAV:   3    -0.984091625929E+01   -0.32948E-04   -0.32372E-04   176   0.951E-02    0.491E-02
DAV:   4    -0.984090769062E+01    0.85687E-05   -0.24309E-05   248   0.345E-02    0.451E-02
DAV:   5    -0.984089015925E+01    0.17531E-04   -0.71491E-05   168   0.917E-02    0.307E-02
DAV:   6    -0.984090270989E+01   -0.12551E-04   -0.70291E-05   188   0.592E-02    0.249E-02
DAV:   7    -0.984090084816E+01    0.18617E-05   -0.98929E-06   172   0.415E-02    0.171E-02
DAV:   8    -0.984090114353E+01   -0.29538E-06   -0.57882E-07    84   0.675E-03
  32 F= -.98409011E+01 E0= -.98409011E+01  d E =-.262054E-03  mag=    -0.0000
       N       E                     dE             d eps       ncg     rms          rms(c)
DAV:   1    -0.984089406766E+01    0.67805E-05   -0.40996E-03   168   0.338E-01    0.103E-02
DAV:   2    -0.984089716961E+01   -0.31019E-05   -0.34426E-05   172   0.433E-02    0.836E-03
DAV:   3    -0.984089712190E+01    0.47717E-07   -0.12481E-06    84   0.838E-03    0.789E-03
DAV:   4    -0.984089452828E+01    0.25936E-05   -0.71090E-06   168   0.189E-02    0.439E-03
DAV:   5    -0.984089423363E+01    0.29465E-06   -0.18209E-06    84   0.846E-03    0.325E-03
DAV:   6    -0.984089424275E+01   -0.91204E-08   -0.38629E-07    84   0.524E-03
  33 F= -.98408942E+01 E0= -.98408942E+01  d E =-.255153E-03  mag=    -0.0000
       N       E                     dE             d eps       ncg     rms          rms(c)
DAV:   1    -0.984012941860E+01    0.76482E-03   -0.12312E+00   168   0.581E+00    0.531E-02
DAV:   2    -0.984103040893E+01   -0.90099E-03   -0.91515E-03   268   0.669E-01    0.455E-02
DAV:   3    -0.984103413101E+01   -0.37221E-05   -0.28228E-05   176   0.285E-02    0.436E-02
DAV:   4    -0.984101461419E+01    0.19517E-04   -0.23126E-05   188   0.531E-02    0.355E-02
DAV:   5    -0.984100949345E+01    0.51207E-05   -0.72383E-05   168   0.810E-02    0.277E-02
DAV:   6    -0.984100942538E+01    0.68063E-07   -0.14795E-05   168   0.442E-02    0.205E-02
DAV:   7    -0.984101710654E+01   -0.76812E-05   -0.17813E-05   172   0.378E-02    0.185E-02
DAV:   8    -0.984101294299E+01    0.41635E-05   -0.17724E-05   168   0.900E-02    0.775E-03
DAV:   9    -0.984101326340E+01   -0.32040E-06   -0.87953E-06   188   0.175E-02
  34 F= -.98410133E+01 E0= -.98410133E+01  d E =-.119021E-03  mag=     0.0000
       N       E                     dE             d eps       ncg     rms          rms(c)
DAV:   1    -0.984097296075E+01    0.39982E-04   -0.76719E-02   168   0.145E+00    0.155E-02
DAV:   2    -0.984102842492E+01   -0.55464E-04   -0.56851E-04   252   0.167E-01    0.149E-02
DAV:   3    -0.984102919408E+01   -0.76917E-06   -0.56710E-06   128   0.116E-02    0.142E-02
DAV:   4    -0.984102629016E+01    0.29039E-05   -0.29802E-06   116   0.991E-03    0.111E-02
DAV:   5    -0.984102349148E+01    0.27987E-05   -0.15859E-05   168   0.213E-02    0.528E-03
DAV:   6    -0.984102357266E+01   -0.81183E-07   -0.82636E-07    84   0.718E-03
  35 F= -.98410236E+01 E0= -.98410236E+01  d E =-.129330E-03  mag=     0.0000
       N       E                     dE             d eps       ncg     rms          rms(c)
DAV:   1    -0.984102078427E+01    0.27072E-05   -0.48399E-03   168   0.365E-01    0.402E-03
DAV:   2    -0.984102419880E+01   -0.34145E-05   -0.35550E-05   248   0.418E-02    0.352E-03
DAV:   3    -0.984102425836E+01   -0.59555E-07   -0.33323E-07    84   0.311E-03    0.328E-03
DAV:   4    -0.984102370238E+01    0.55597E-06   -0.10560E-06    84   0.697E-03    0.174E-03
DAV:   5    -0.984102363117E+01    0.71219E-07   -0.31572E-07    84   0.347E-03    0.104E-03
DAV:   6    -0.984102359036E+01    0.40804E-07   -0.16273E-07    84   0.280E-03
  36 F= -.98410236E+01 E0= -.98410236E+01  d E =-.129348E-03  mag=    -0.0000
       N       E                     dE             d eps       ncg     rms          rms(c)
DAV:   1    -0.984102316179E+01    0.46938E-06   -0.69230E-04   168   0.138E-01    0.125E-03
DAV:   2    -0.984102365650E+01   -0.49471E-06   -0.49604E-06   148   0.160E-02    0.118E-03
DAV:   3    -0.984102367896E+01   -0.22460E-07   -0.19587E-07    84   0.283E-03    0.108E-03
DAV:   4    -0.984102367657E+01    0.23920E-08   -0.35200E-08    84   0.168E-03    0.975E-04
DAV:   5    -0.984102366802E+01    0.85456E-08   -0.41905E-08    84   0.284E-03    0.785E-04
DAV:   6    -0.984102366830E+01   -0.27649E-09   -0.20849E-08    84   0.111E-03
  37 F= -.98410237E+01 E0= -.98410237E+01  d E =-.129426E-03  mag=    -0.0000
       N       E                     dE             d eps       ncg     rms          rms(c)
DAV:   1    -0.984095007189E+01    0.73596E-04   -0.16308E-01   168   0.211E+00    0.188E-02
DAV:   2    -0.984106278007E+01   -0.11271E-03   -0.11518E-03   220   0.239E-01    0.184E-02
DAV:   3    -0.984106630346E+01   -0.35234E-05   -0.30927E-05   176   0.296E-02    0.164E-02
DAV:   4    -0.984106545077E+01    0.85269E-06   -0.16305E-06   108   0.882E-03    0.155E-02
DAV:   5    -0.984106261022E+01    0.28405E-05   -0.11365E-05   168   0.280E-02    0.947E-03
DAV:   6    -0.984106260503E+01    0.51978E-08   -0.21351E-06    84   0.102E-02
  38 F= -.98410626E+01 E0= -.98410626E+01  d E =-.389367E-04  mag=     0.0000
