Ag                                    
   1.00000000000000     
    17.0000000000000000    0.0000000000000000    0.0000000000000000
     0.0000000000000000   17.0000000000000000    0.0000000000000000
     0.0000000000000000    0.0000000000000000   17.0000000000000000
   Ag
     6
Cartesian
        -1.65637        0.17519        0.19291
         2.69954        0.83306       -0.96505
        -1.47393       -2.47813       -0.71463
         0.26335       -0.44278       -1.57232
        -0.72472        1.93814        2.18189
         0.94811        0.06016        1.03112
