Ag                                      
   1.00000000000000     
    17.0000000000000000    0.0000000000000000    0.0000000000000000
     0.0000000000000000   17.0000000000000000    0.0000000000000000
     0.0000000000000000    0.0000000000000000   17.0000000000000000
   Ag
     6
Direct
  0.9140028228712883 -0.0132892709923487  0.0365932336402152
  0.1677739190659710  0.0278596770531134  0.9341009617657817
  0.8915366197954254  0.8749403252565053  0.9272957211885536
  0.0309952897575422  0.9490441799406139  0.9284173548780953
  0.9417360127409016  0.1006737281665147  0.1422706391992105
  0.0572482769453407  0.0658090076344214  0.0403762069752047
 
  0.00000000E+00  0.00000000E+00  0.00000000E+00
  0.00000000E+00  0.00000000E+00  0.00000000E+00
  0.00000000E+00  0.00000000E+00  0.00000000E+00
  0.00000000E+00  0.00000000E+00  0.00000000E+00
  0.00000000E+00  0.00000000E+00  0.00000000E+00
  0.00000000E+00  0.00000000E+00  0.00000000E+00
