PROCAR new format
# of k-points:    1         # of bands:   42         # of ions:    6

 k-point     1 :    0.00000000 0.00000000 0.00000000     weight = 1.00000000

band     1 # energy   -8.76221256 # occ.  1.00000000
 
ion      s      p      d      f    tot
    1  0.021  0.001  0.185  0.000  0.207
    2  0.019  0.006  0.086  0.000  0.112
    3  0.020  0.007  0.093  0.000  0.120
    4  0.019  0.001  0.170  0.000  0.190
    5  0.021  0.007  0.095  0.000  0.123
    6  0.020  0.001  0.173  0.000  0.194
tot    0.120  0.022  0.802  0.002  0.946
 
band     2 # energy   -8.68653385 # occ.  1.00000000
 
ion      s      p      d      f    tot
    1  0.000  0.004  0.217  0.000  0.222
    2  0.000  0.003  0.112  0.000  0.116
    3  0.005  0.003  0.115  0.000  0.123
    4  0.019  0.001  0.160  0.000  0.181
    5  0.006  0.004  0.112  0.000  0.122
    6  0.013  0.002  0.173  0.000  0.189
tot    0.043  0.017  0.889  0.001  0.951
 
band     3 # energy   -8.68526445 # occ.  1.00000000
 
ion      s      p      d      f    tot
    1  0.020  0.001  0.142  0.000  0.163
    2  0.008  0.004  0.118  0.000  0.130
    3  0.002  0.003  0.110  0.000  0.116
    4  0.003  0.004  0.212  0.000  0.219
    5  0.001  0.003  0.112  0.000  0.115
    6  0.009  0.003  0.195  0.000  0.208
tot    0.043  0.017  0.889  0.001  0.951
 
band     4 # energy   -8.34815078 # occ.  1.00000000
 
ion      s      p      d      f    tot
    1  0.030  0.009  0.264  0.000  0.304
    2  0.001  0.000  0.004  0.000  0.005
    3  0.001  0.000  0.004  0.000  0.005
    4  0.030  0.009  0.262  0.000  0.302
    5  0.001  0.000  0.004  0.000  0.005
    6  0.030  0.009  0.263  0.000  0.302
tot    0.091  0.029  0.800  0.001  0.921
 
band     5 # energy   -8.02362041 # occ.  1.00000000
 
ion      s      p      d      f    tot
    1  0.000  0.002  0.207  0.000  0.209
    2  0.000  0.001  0.183  0.000  0.184
    3  0.001  0.000  0.115  0.000  0.117
    4  0.001  0.002  0.169  0.001  0.172
    5  0.002  0.000  0.095  0.000  0.097
    6  0.000  0.002  0.177  0.000  0.180
tot    0.004  0.007  0.947  0.002  0.959
 
band     6 # energy   -8.02119102 # occ.  1.00000000
 
ion      s      p      d      f    tot
    1  0.001  0.002  0.160  0.001  0.163
    2  0.002  0.000  0.081  0.000  0.083
    3  0.001  0.000  0.147  0.000  0.149
    4  0.000  0.002  0.201  0.000  0.203
    5  0.000  0.001  0.167  0.000  0.168
    6  0.000  0.002  0.191  0.000  0.194
tot    0.004  0.007  0.946  0.002  0.959
 
band     7 # energy   -7.98435435 # occ.  1.00000000
 
ion      s      p      d      f    tot
    1  0.000  0.000  0.352  0.000  0.352
    2  0.000  0.000  0.026  0.000  0.026
    3  0.000  0.001  0.140  0.000  0.141
    4  0.000  0.000  0.071  0.000  0.072
    5  0.000  0.001  0.183  0.000  0.185
    6  0.000  0.000  0.148  0.000  0.148
tot    0.000  0.003  0.919  0.001  0.923
 
band     8 # energy   -7.98190260 # occ.  1.00000000
 
ion      s      p      d      f    tot
    1  0.000  0.000  0.030  0.000  0.030
    2  0.000  0.001  0.206  0.000  0.208
    3  0.000  0.001  0.093  0.000  0.094
    4  0.000  0.000  0.308  0.000  0.308
    5  0.000  0.000  0.051  0.000  0.051
    6  0.000  0.000  0.232  0.000  0.233
tot    0.000  0.003  0.920  0.001  0.923
 
band     9 # energy   -7.82725183 # occ.  1.00000000
 
ion      s      p      d      f    tot
    1  0.000  0.002  0.289  0.000  0.291
    2  0.000  0.000  0.016  0.000  0.016
    3  0.000  0.000  0.015  0.000  0.015
    4  0.000  0.002  0.289  0.000  0.291
    5  0.000  0.000  0.015  0.000  0.015
    6  0.000  0.002  0.289  0.000  0.291
tot    0.000  0.005  0.914  0.001  0.919
 
band    10 # energy   -7.56633312 # occ.  1.00000000
 
ion      s      p      d      f    tot
    1  0.000  0.008  0.045  0.000  0.053
    2  0.000  0.000  0.264  0.000  0.264
    3  0.000  0.000  0.266  0.000  0.266
    4  0.000  0.007  0.045  0.000  0.053
    5  0.000  0.000  0.265  0.000  0.266
    6  0.000  0.008  0.045  0.000  0.053
tot    0.000  0.024  0.930  0.001  0.955
 
band    11 # energy   -7.51224668 # occ.  1.00000000
 
ion      s      p      d      f    tot
    1  0.000  0.000  0.135  0.000  0.136
    2  0.000  0.000  0.177  0.000  0.177
    3  0.000  0.000  0.177  0.000  0.177
    4  0.000  0.000  0.136  0.000  0.136
    5  0.000  0.000  0.178  0.000  0.178
    6  0.000  0.000  0.136  0.000  0.136
tot    0.000  0.000  0.939  0.001  0.940
 
band    12 # energy   -7.28458164 # occ.  1.00000000
 
ion      s      p      d      f    tot
    1  0.000  0.009  0.020  0.001  0.031
    2  0.000  0.000  0.122  0.000  0.122
    3  0.002  0.000  0.312  0.000  0.313
    4  0.000  0.001  0.016  0.000  0.018
    5  0.003  0.000  0.444  0.000  0.447
    6  0.000  0.004  0.019  0.000  0.023
tot    0.005  0.015  0.933  0.002  0.955
 
band    13 # energy   -7.28369698 # occ.  1.00000000
 
ion      s      p      d      f    tot
    1  0.000  0.000  0.017  0.000  0.017
    2  0.003  0.000  0.465  0.000  0.468
    3  0.001  0.000  0.268  0.000  0.270
    4  0.000  0.009  0.020  0.001  0.030
    5  0.000  0.000  0.144  0.000  0.144
    6  0.000  0.006  0.019  0.001  0.025
tot    0.005  0.015  0.933  0.002  0.955
 
band    14 # energy   -7.27592220 # occ.  1.00000000
 
ion      s      p      d      f    tot
    1  0.001  0.002  0.012  0.000  0.015
    2  0.000  0.000  0.296  0.000  0.296
    3  0.000  0.000  0.303  0.000  0.303
    4  0.001  0.002  0.012  0.000  0.015
    5  0.000  0.000  0.295  0.000  0.295
    6  0.001  0.002  0.011  0.000  0.014
tot    0.003  0.006  0.929  0.001  0.939
 
band    15 # energy   -7.24899588 # occ.  1.00000000
 
ion      s      p      d      f    tot
    1  0.000  0.001  0.019  0.000  0.021
    2  0.000  0.000  0.290  0.000  0.290
    3  0.000  0.000  0.299  0.000  0.299
    4  0.000  0.001  0.016  0.000  0.017
    5  0.000  0.000  0.301  0.000  0.301
    6  0.000  0.001  0.017  0.000  0.018
tot    0.000  0.003  0.941  0.001  0.946
 
band    16 # energy   -7.22675786 # occ.  1.00000000
 
ion      s      p      d      f    tot
    1  0.000  0.002  0.077  0.000  0.079
    2  0.000  0.000  0.131  0.000  0.131
    3  0.000  0.000  0.260  0.000  0.260
    4  0.000  0.000  0.005  0.000  0.006
    5  0.000  0.000  0.419  0.000  0.419
    6  0.000  0.001  0.045  0.000  0.047
tot    0.000  0.003  0.938  0.001  0.941
 
band    17 # energy   -7.22636621 # occ.  1.00000000
 
ion      s      p      d      f    tot
    1  0.000  0.000  0.006  0.000  0.007
    2  0.000  0.000  0.416  0.000  0.416
    3  0.000  0.000  0.278  0.000  0.278
    4  0.000  0.002  0.082  0.000  0.084
    5  0.000  0.000  0.115  0.000  0.115
    6  0.000  0.001  0.041  0.000  0.042
tot    0.000  0.003  0.938  0.001  0.941
 
band    18 # energy   -7.11497263 # occ.  1.00000000
 
ion      s      p      d      f    tot
    1  0.000  0.000  0.057  0.001  0.058
    2  0.000  0.000  0.019  0.000  0.019
    3  0.000  0.000  0.138  0.000  0.138
    4  0.000  0.001  0.309  0.000  0.310
    5  0.000  0.000  0.237  0.000  0.237
    6  0.000  0.001  0.193  0.000  0.193
tot    0.001  0.002  0.952  0.001  0.955
 
band    19 # energy   -7.11330988 # occ.  1.00000000
 
ion      s      p      d      f    tot
    1  0.000  0.001  0.315  0.000  0.316
    2  0.000  0.000  0.244  0.000  0.244
    3  0.000  0.000  0.124  0.000  0.124
    4  0.000  0.000  0.065  0.000  0.066
    5  0.000  0.000  0.024  0.000  0.024
    6  0.000  0.000  0.180  0.000  0.181
tot    0.001  0.002  0.952  0.001  0.955
 
band    20 # energy   -6.95658524 # occ.  1.00000000
 
ion      s      p      d      f    tot
    1  0.000  0.000  0.017  0.000  0.017
    2  0.000  0.000  0.130  0.000  0.130
    3  0.000  0.000  0.066  0.000  0.066
    4  0.000  0.000  0.441  0.000  0.441
    5  0.000  0.000  0.027  0.000  0.027
    6  0.000  0.000  0.283  0.000  0.283
tot    0.000  0.000  0.963  0.000  0.964
 
band    21 # energy   -6.95510415 # occ.  1.00000000
 
ion      s      p      d      f    tot
    1  0.000  0.000  0.476  0.000  0.476
    2  0.000  0.000  0.018  0.000  0.018
    3  0.000  0.000  0.082  0.000  0.082
    4  0.000  0.000  0.054  0.000  0.054
    5  0.000  0.000  0.121  0.000  0.121
    6  0.000  0.000  0.212  0.000  0.212
tot    0.000  0.000  0.963  0.000  0.964
 
band    22 # energy   -6.80922483 # occ.  1.00000000
 
ion      s      p      d      f    tot
    1  0.000  0.000  0.110  0.000  0.111
    2  0.000  0.000  0.020  0.000  0.020
    3  0.000  0.000  0.121  0.000  0.121
    4  0.008  0.000  0.284  0.000  0.292
    5  0.000  0.000  0.195  0.000  0.195
    6  0.005  0.000  0.211  0.000  0.216
tot    0.014  0.001  0.940  0.000  0.955
 
band    23 # energy   -6.80848371 # occ.  1.00000000
 
ion      s      p      d      f    tot
    1  0.009  0.000  0.292  0.000  0.301
    2  0.000  0.000  0.203  0.000  0.204
    3  0.000  0.000  0.103  0.000  0.103
    4  0.001  0.000  0.120  0.000  0.121
    5  0.000  0.000  0.029  0.000  0.029
    6  0.004  0.000  0.192  0.000  0.197
tot    0.014  0.001  0.940  0.000  0.955
 
band    24 # energy   -6.75809639 # occ.  1.00000000
 
ion      s      p      d      f    tot
    1  0.005  0.000  0.116  0.000  0.122
    2  0.002  0.001  0.188  0.000  0.191
    3  0.002  0.001  0.188  0.000  0.191
    4  0.005  0.000  0.116  0.000  0.122
    5  0.002  0.001  0.188  0.000  0.192
    6  0.005  0.000  0.117  0.000  0.123
tot    0.023  0.004  0.914  0.000  0.941
 
band    25 # energy   -6.68896130 # occ.  1.00000000
 
ion      s      p      d      f    tot
    1  0.000  0.000  0.247  0.000  0.247
    2  0.000  0.000  0.042  0.000  0.043
    3  0.000  0.001  0.198  0.000  0.199
    4  0.000  0.000  0.069  0.000  0.069
    5  0.000  0.001  0.273  0.000  0.274
    6  0.000  0.000  0.133  0.000  0.133
tot    0.000  0.003  0.962  0.000  0.965
 
band    26 # energy   -6.68893006 # occ.  1.00000000
 
ion      s      p      d      f    tot
    1  0.000  0.000  0.041  0.000  0.041
    2  0.000  0.002  0.303  0.000  0.304
    3  0.000  0.001  0.143  0.000  0.144
    4  0.000  0.000  0.240  0.000  0.240
    5  0.000  0.000  0.066  0.000  0.067
    6  0.000  0.000  0.169  0.000  0.169
tot    0.000  0.003  0.962  0.000  0.965
 
band    27 # energy   -6.68067050 # occ.  1.00000000
 
ion      s      p      d      f    tot
    1  0.000  0.000  0.195  0.000  0.195
    2  0.000  0.000  0.137  0.000  0.137
    3  0.000  0.000  0.141  0.000  0.141
    4  0.000  0.000  0.174  0.000  0.174
    5  0.000  0.000  0.143  0.000  0.143
    6  0.000  0.000  0.181  0.000  0.181
tot    0.000  0.000  0.972  0.001  0.973
 
band    28 # energy   -6.52800569 # occ.  1.00000000
 
ion      s      p      d      f    tot
    1  0.000  0.000  0.269  0.001  0.270
    2  0.000  0.001  0.050  0.000  0.051
    3  0.000  0.001  0.048  0.000  0.050
    4  0.000  0.000  0.270  0.001  0.271
    5  0.000  0.001  0.048  0.000  0.049
    6  0.000  0.000  0.270  0.001  0.271
tot    0.000  0.005  0.955  0.002  0.962
 
band    29 # energy   -6.38168884 # occ.  1.00000000
 
ion      s      p      d      f    tot
    1  0.087  0.002  0.043  0.000  0.132
    2  0.037  0.004  0.045  0.000  0.086
    3  0.036  0.004  0.044  0.000  0.084
    4  0.086  0.002  0.043  0.000  0.132
    5  0.036  0.004  0.045  0.000  0.085
    6  0.086  0.002  0.043  0.000  0.132
tot    0.368  0.019  0.264  0.000  0.651
 
band    30 # energy   -6.36805566 # occ.  1.00000000
 
ion      s      p      d      f    tot
    1  0.000  0.003  0.042  0.000  0.045
    2  0.001  0.002  0.191  0.001  0.194
    3  0.007  0.003  0.161  0.000  0.170
    4  0.000  0.001  0.258  0.000  0.260
    5  0.013  0.003  0.122  0.000  0.138
    6  0.000  0.002  0.140  0.000  0.142
tot    0.021  0.014  0.914  0.001  0.950
 
band    31 # energy   -6.36771050 # occ.  1.00000000
 
ion      s      p      d      f    tot
    1  0.000  0.001  0.252  0.000  0.254
    2  0.012  0.003  0.123  0.000  0.138
    3  0.007  0.003  0.156  0.000  0.166
    4  0.000  0.003  0.034  0.000  0.037
    5  0.001  0.002  0.194  0.001  0.198
    6  0.000  0.002  0.154  0.000  0.156
tot    0.021  0.014  0.913  0.001  0.949
 
band    32 # energy   -4.88658285 # occ.  1.00000000
 
ion      s      p      d      f    tot
    1  0.002  0.040  0.011  0.000  0.052
    2  0.004  0.000  0.000  0.000  0.005
    3  0.125  0.002  0.003  0.000  0.129
    4  0.064  0.008  0.035  0.000  0.107
    5  0.174  0.002  0.005  0.000  0.181
    6  0.046  0.017  0.028  0.000  0.091
tot    0.414  0.069  0.082  0.000  0.565
 
band    33 # energy   -4.88537300 # occ.  1.00000000
 
ion      s      p      d      f    tot
    1  0.072  0.004  0.038  0.000  0.114
    2  0.198  0.002  0.005  0.000  0.205
    3  0.077  0.001  0.002  0.000  0.081
    4  0.010  0.035  0.014  0.000  0.060
    5  0.028  0.001  0.001  0.000  0.029
    6  0.028  0.026  0.021  0.000  0.076
tot    0.414  0.069  0.082  0.000  0.565
 
band    34 # energy   -2.68448178 # occ.  0.00000000
 
ion      s      p      d      f    tot
    1  0.021  0.019  0.010  0.000  0.050
    2  0.064  0.024  0.005  0.000  0.094
    3  0.064  0.024  0.005  0.000  0.093
    4  0.022  0.018  0.010  0.000  0.050
    5  0.064  0.024  0.005  0.000  0.093
    6  0.021  0.018  0.010  0.000  0.050
tot    0.256  0.128  0.045  0.000  0.430
 
band    35 # energy   -2.42733030 # occ.  0.00000000
 
ion      s      p      d      f    tot
    1  0.002  0.005  0.009  0.000  0.017
    2  0.001  0.045  0.014  0.000  0.060
    3  0.033  0.023  0.006  0.000  0.062
    4  0.103  0.020  0.003  0.000  0.125
    5  0.045  0.015  0.003  0.000  0.063
    6  0.076  0.016  0.004  0.000  0.096
tot    0.258  0.124  0.039  0.001  0.422
 
band    36 # energy   -2.42598622 # occ.  0.00000000
 
ion      s      p      d      f    tot
    1  0.118  0.022  0.002  0.000  0.142
    2  0.051  0.011  0.001  0.000  0.063
    3  0.019  0.032  0.009  0.000  0.061
    4  0.017  0.008  0.008  0.000  0.033
    5  0.008  0.040  0.012  0.000  0.060
    6  0.045  0.012  0.006  0.000  0.063
tot    0.258  0.124  0.039  0.001  0.422
 
band    37 # energy   -1.77895443 # occ.  0.00000000
 
ion      s      p      d      f    tot
    1  0.000  0.043  0.003  0.000  0.046
    2  0.000  0.024  0.004  0.000  0.028
    3  0.000  0.024  0.004  0.000  0.028
    4  0.000  0.043  0.003  0.000  0.046
    5  0.000  0.024  0.004  0.000  0.028
    6  0.000  0.043  0.003  0.000  0.046
tot    0.000  0.202  0.019  0.001  0.221
 
band    38 # energy   -0.78952378 # occ.  0.00000000
 
ion      s      p      d      f    tot
    1  0.000  0.068  0.004  0.000  0.072
    2  0.000  0.022  0.000  0.000  0.023
    3  0.000  0.062  0.000  0.000  0.063
    4  0.008  0.015  0.003  0.000  0.027
    5  0.000  0.081  0.001  0.000  0.082
    6  0.006  0.032  0.003  0.000  0.041
tot    0.014  0.281  0.012  0.001  0.307
 
band    39 # energy   -0.78534819 # occ.  0.00000000
 
ion      s      p      d      f    tot
    1  0.009  0.009  0.003  0.001  0.021
    2  0.000  0.089  0.001  0.000  0.090
    3  0.000  0.048  0.000  0.000  0.049
    4  0.001  0.062  0.004  0.000  0.067
    5  0.000  0.030  0.000  0.000  0.030
    6  0.004  0.045  0.004  0.000  0.053
tot    0.014  0.283  0.012  0.001  0.309
 
band    40 # energy   -0.43510345 # occ.  0.00000000
 
ion      s      p      d      f    tot
    1  0.000  0.000  0.014  0.000  0.015
    2  0.000  0.000  0.002  0.000  0.002
    3  0.000  0.047  0.001  0.000  0.048
    4  0.000  0.020  0.004  0.000  0.024
    5  0.000  0.056  0.000  0.000  0.057
    6  0.000  0.016  0.006  0.000  0.022
tot    0.000  0.140  0.027  0.001  0.168
 
band    41 # energy   -0.42913224 # occ.  0.00000000
 
ion      s      p      d      f    tot
    1  0.000  0.024  0.002  0.000  0.026
    2  0.000  0.070  0.000  0.000  0.070
    3  0.000  0.023  0.001  0.000  0.024
    4  0.000  0.005  0.012  0.000  0.017
    5  0.000  0.013  0.001  0.000  0.015
    6  0.000  0.008  0.011  0.000  0.018
tot    0.000  0.142  0.027  0.001  0.170
 
band    42 # energy   -0.15705846 # occ.  0.00000000
 
ion      s      p      d      f    tot
    1  0.000  0.015  0.012  0.000  0.027
    2  0.000  0.053  0.000  0.000  0.053
    3  0.000  0.054  0.000  0.000  0.055
    4  0.000  0.015  0.012  0.000  0.027
    5  0.000  0.054  0.000  0.000  0.054
    6  0.000  0.014  0.012  0.000  0.026
tot    0.000  0.205  0.035  0.000  0.241
 
# of k-points:    1         # of bands:   42         # of ions:    6

 k-point     1 :    0.00000000 0.00000000 0.00000000     weight = 1.00000000

band     1 # energy   -8.76221256 # occ.  1.00000000
 
ion      s      p      d      f    tot
    1  0.021  0.001  0.185  0.000  0.207
    2  0.019  0.006  0.086  0.000  0.112
    3  0.020  0.007  0.093  0.000  0.120
    4  0.019  0.001  0.170  0.000  0.190
    5  0.021  0.007  0.095  0.000  0.123
    6  0.020  0.001  0.173  0.000  0.194
tot    0.120  0.022  0.802  0.002  0.946
 
band     2 # energy   -8.68653385 # occ.  1.00000000
 
ion      s      p      d      f    tot
    1  0.000  0.004  0.217  0.000  0.222
    2  0.000  0.003  0.112  0.000  0.116
    3  0.005  0.003  0.115  0.000  0.123
    4  0.019  0.001  0.160  0.000  0.181
    5  0.006  0.004  0.112  0.000  0.122
    6  0.013  0.002  0.173  0.000  0.189
tot    0.043  0.017  0.889  0.001  0.951
 
band     3 # energy   -8.68526445 # occ.  1.00000000
 
ion      s      p      d      f    tot
    1  0.020  0.001  0.142  0.000  0.163
    2  0.008  0.004  0.118  0.000  0.130
    3  0.002  0.003  0.110  0.000  0.116
    4  0.003  0.004  0.212  0.000  0.219
    5  0.001  0.003  0.112  0.000  0.115
    6  0.009  0.003  0.195  0.000  0.208
tot    0.043  0.017  0.889  0.001  0.951
 
band     4 # energy   -8.34815078 # occ.  1.00000000
 
ion      s      p      d      f    tot
    1  0.030  0.009  0.264  0.000  0.304
    2  0.001  0.000  0.004  0.000  0.005
    3  0.001  0.000  0.004  0.000  0.005
    4  0.030  0.009  0.262  0.000  0.302
    5  0.001  0.000  0.004  0.000  0.005
    6  0.030  0.009  0.263  0.000  0.302
tot    0.091  0.029  0.800  0.001  0.921
 
band     5 # energy   -8.02362041 # occ.  1.00000000
 
ion      s      p      d      f    tot
    1  0.000  0.002  0.207  0.000  0.209
    2  0.000  0.001  0.183  0.000  0.184
    3  0.001  0.000  0.115  0.000  0.117
    4  0.001  0.002  0.169  0.001  0.172
    5  0.002  0.000  0.095  0.000  0.097
    6  0.000  0.002  0.177  0.000  0.180
tot    0.004  0.007  0.947  0.002  0.959
 
band     6 # energy   -8.02119102 # occ.  1.00000000
 
ion      s      p      d      f    tot
    1  0.001  0.002  0.160  0.001  0.163
    2  0.002  0.000  0.081  0.000  0.083
    3  0.001  0.000  0.147  0.000  0.149
    4  0.000  0.002  0.201  0.000  0.203
    5  0.000  0.001  0.167  0.000  0.168
    6  0.000  0.002  0.191  0.000  0.194
tot    0.004  0.007  0.946  0.002  0.959
 
band     7 # energy   -7.98435435 # occ.  1.00000000
 
ion      s      p      d      f    tot
    1  0.000  0.000  0.352  0.000  0.352
    2  0.000  0.000  0.026  0.000  0.026
    3  0.000  0.001  0.140  0.000  0.141
    4  0.000  0.000  0.071  0.000  0.072
    5  0.000  0.001  0.183  0.000  0.185
    6  0.000  0.000  0.148  0.000  0.148
tot    0.000  0.003  0.919  0.001  0.923
 
band     8 # energy   -7.98190260 # occ.  1.00000000
 
ion      s      p      d      f    tot
    1  0.000  0.000  0.030  0.000  0.030
    2  0.000  0.001  0.206  0.000  0.208
    3  0.000  0.001  0.093  0.000  0.094
    4  0.000  0.000  0.308  0.000  0.308
    5  0.000  0.000  0.051  0.000  0.051
    6  0.000  0.000  0.232  0.000  0.233
tot    0.000  0.003  0.920  0.001  0.923
 
band     9 # energy   -7.82725183 # occ.  1.00000000
 
ion      s      p      d      f    tot
    1  0.000  0.002  0.289  0.000  0.291
    2  0.000  0.000  0.016  0.000  0.016
    3  0.000  0.000  0.015  0.000  0.015
    4  0.000  0.002  0.289  0.000  0.291
    5  0.000  0.000  0.015  0.000  0.015
    6  0.000  0.002  0.289  0.000  0.291
tot    0.000  0.005  0.914  0.001  0.919
 
band    10 # energy   -7.56633312 # occ.  1.00000000
 
ion      s      p      d      f    tot
    1  0.000  0.008  0.045  0.000  0.053
    2  0.000  0.000  0.264  0.000  0.264
    3  0.000  0.000  0.266  0.000  0.266
    4  0.000  0.007  0.045  0.000  0.053
    5  0.000  0.000  0.265  0.000  0.266
    6  0.000  0.008  0.045  0.000  0.053
tot    0.000  0.024  0.930  0.001  0.955
 
band    11 # energy   -7.51224668 # occ.  1.00000000
 
ion      s      p      d      f    tot
    1  0.000  0.000  0.135  0.000  0.136
    2  0.000  0.000  0.177  0.000  0.177
    3  0.000  0.000  0.177  0.000  0.177
    4  0.000  0.000  0.136  0.000  0.136
    5  0.000  0.000  0.178  0.000  0.178
    6  0.000  0.000  0.136  0.000  0.136
tot    0.000  0.000  0.939  0.001  0.940
 
band    12 # energy   -7.28458164 # occ.  1.00000000
 
ion      s      p      d      f    tot
    1  0.000  0.009  0.020  0.001  0.031
    2  0.000  0.000  0.122  0.000  0.122
    3  0.002  0.000  0.312  0.000  0.313
    4  0.000  0.001  0.016  0.000  0.018
    5  0.003  0.000  0.444  0.000  0.447
    6  0.000  0.004  0.019  0.000  0.023
tot    0.005  0.015  0.933  0.002  0.955
 
band    13 # energy   -7.28369698 # occ.  1.00000000
 
ion      s      p      d      f    tot
    1  0.000  0.000  0.017  0.000  0.017
    2  0.003  0.000  0.465  0.000  0.468
    3  0.001  0.000  0.268  0.000  0.270
    4  0.000  0.009  0.020  0.001  0.030
    5  0.000  0.000  0.144  0.000  0.144
    6  0.000  0.006  0.019  0.001  0.025
tot    0.005  0.015  0.933  0.002  0.955
 
band    14 # energy   -7.27592220 # occ.  1.00000000
 
ion      s      p      d      f    tot
    1  0.001  0.002  0.012  0.000  0.015
    2  0.000  0.000  0.296  0.000  0.296
    3  0.000  0.000  0.303  0.000  0.303
    4  0.001  0.002  0.012  0.000  0.015
    5  0.000  0.000  0.295  0.000  0.295
    6  0.001  0.002  0.011  0.000  0.014
tot    0.003  0.006  0.929  0.001  0.939
 
band    15 # energy   -7.24899588 # occ.  1.00000000
 
ion      s      p      d      f    tot
    1  0.000  0.001  0.019  0.000  0.021
    2  0.000  0.000  0.290  0.000  0.290
    3  0.000  0.000  0.299  0.000  0.299
    4  0.000  0.001  0.016  0.000  0.017
    5  0.000  0.000  0.301  0.000  0.301
    6  0.000  0.001  0.017  0.000  0.018
tot    0.000  0.003  0.941  0.001  0.946
 
band    16 # energy   -7.22675786 # occ.  1.00000000
 
ion      s      p      d      f    tot
    1  0.000  0.002  0.077  0.000  0.079
    2  0.000  0.000  0.131  0.000  0.131
    3  0.000  0.000  0.260  0.000  0.260
    4  0.000  0.000  0.005  0.000  0.006
    5  0.000  0.000  0.419  0.000  0.419
    6  0.000  0.001  0.045  0.000  0.047
tot    0.000  0.003  0.938  0.001  0.941
 
band    17 # energy   -7.22636621 # occ.  1.00000000
 
ion      s      p      d      f    tot
    1  0.000  0.000  0.006  0.000  0.007
    2  0.000  0.000  0.416  0.000  0.416
    3  0.000  0.000  0.278  0.000  0.278
    4  0.000  0.002  0.082  0.000  0.084
    5  0.000  0.000  0.115  0.000  0.115
    6  0.000  0.001  0.041  0.000  0.042
tot    0.000  0.003  0.938  0.001  0.941
 
band    18 # energy   -7.11497263 # occ.  1.00000000
 
ion      s      p      d      f    tot
    1  0.000  0.000  0.057  0.001  0.058
    2  0.000  0.000  0.019  0.000  0.019
    3  0.000  0.000  0.138  0.000  0.138
    4  0.000  0.001  0.309  0.000  0.310
    5  0.000  0.000  0.237  0.000  0.237
    6  0.000  0.001  0.193  0.000  0.193
tot    0.001  0.002  0.952  0.001  0.955
 
band    19 # energy   -7.11330988 # occ.  1.00000000
 
ion      s      p      d      f    tot
    1  0.000  0.001  0.315  0.000  0.316
    2  0.000  0.000  0.244  0.000  0.244
    3  0.000  0.000  0.124  0.000  0.124
    4  0.000  0.000  0.065  0.000  0.066
    5  0.000  0.000  0.024  0.000  0.024
    6  0.000  0.000  0.180  0.000  0.181
tot    0.001  0.002  0.952  0.001  0.955
 
band    20 # energy   -6.95658524 # occ.  1.00000000
 
ion      s      p      d      f    tot
    1  0.000  0.000  0.017  0.000  0.017
    2  0.000  0.000  0.130  0.000  0.130
    3  0.000  0.000  0.066  0.000  0.066
    4  0.000  0.000  0.441  0.000  0.441
    5  0.000  0.000  0.027  0.000  0.027
    6  0.000  0.000  0.283  0.000  0.283
tot    0.000  0.000  0.963  0.000  0.964
 
band    21 # energy   -6.95510415 # occ.  1.00000000
 
ion      s      p      d      f    tot
    1  0.000  0.000  0.476  0.000  0.476
    2  0.000  0.000  0.018  0.000  0.018
    3  0.000  0.000  0.082  0.000  0.082
    4  0.000  0.000  0.054  0.000  0.054
    5  0.000  0.000  0.121  0.000  0.121
    6  0.000  0.000  0.212  0.000  0.212
tot    0.000  0.000  0.963  0.000  0.964
 
band    22 # energy   -6.80922483 # occ.  1.00000000
 
ion      s      p      d      f    tot
    1  0.000  0.000  0.110  0.000  0.111
    2  0.000  0.000  0.020  0.000  0.020
    3  0.000  0.000  0.121  0.000  0.121
    4  0.008  0.000  0.284  0.000  0.292
    5  0.000  0.000  0.195  0.000  0.195
    6  0.005  0.000  0.211  0.000  0.216
tot    0.014  0.001  0.940  0.000  0.955
 
band    23 # energy   -6.80848371 # occ.  1.00000000
 
ion      s      p      d      f    tot
    1  0.009  0.000  0.292  0.000  0.301
    2  0.000  0.000  0.203  0.000  0.204
    3  0.000  0.000  0.103  0.000  0.103
    4  0.001  0.000  0.120  0.000  0.121
    5  0.000  0.000  0.029  0.000  0.029
    6  0.004  0.000  0.192  0.000  0.197
tot    0.014  0.001  0.940  0.000  0.955
 
band    24 # energy   -6.75809639 # occ.  1.00000000
 
ion      s      p      d      f    tot
    1  0.005  0.000  0.116  0.000  0.122
    2  0.002  0.001  0.188  0.000  0.191
    3  0.002  0.001  0.188  0.000  0.191
    4  0.005  0.000  0.116  0.000  0.122
    5  0.002  0.001  0.188  0.000  0.192
    6  0.005  0.000  0.117  0.000  0.123
tot    0.023  0.004  0.914  0.000  0.941
 
band    25 # energy   -6.68896130 # occ.  1.00000000
 
ion      s      p      d      f    tot
    1  0.000  0.000  0.247  0.000  0.247
    2  0.000  0.000  0.042  0.000  0.043
    3  0.000  0.001  0.198  0.000  0.199
    4  0.000  0.000  0.069  0.000  0.069
    5  0.000  0.001  0.273  0.000  0.274
    6  0.000  0.000  0.133  0.000  0.133
tot    0.000  0.003  0.962  0.000  0.965
 
band    26 # energy   -6.68893006 # occ.  1.00000000
 
ion      s      p      d      f    tot
    1  0.000  0.000  0.041  0.000  0.041
    2  0.000  0.002  0.303  0.000  0.304
    3  0.000  0.001  0.143  0.000  0.144
    4  0.000  0.000  0.240  0.000  0.240
    5  0.000  0.000  0.066  0.000  0.067
    6  0.000  0.000  0.169  0.000  0.169
tot    0.000  0.003  0.962  0.000  0.965
 
band    27 # energy   -6.68067050 # occ.  1.00000000
 
ion      s      p      d      f    tot
    1  0.000  0.000  0.195  0.000  0.195
    2  0.000  0.000  0.137  0.000  0.137
    3  0.000  0.000  0.141  0.000  0.141
    4  0.000  0.000  0.174  0.000  0.174
    5  0.000  0.000  0.143  0.000  0.143
    6  0.000  0.000  0.181  0.000  0.181
tot    0.000  0.000  0.972  0.001  0.973
 
band    28 # energy   -6.52800569 # occ.  1.00000000
 
ion      s      p      d      f    tot
    1  0.000  0.000  0.269  0.001  0.270
    2  0.000  0.001  0.050  0.000  0.051
    3  0.000  0.001  0.048  0.000  0.050
    4  0.000  0.000  0.270  0.001  0.271
    5  0.000  0.001  0.048  0.000  0.049
    6  0.000  0.000  0.270  0.001  0.271
tot    0.000  0.005  0.955  0.002  0.962
 
band    29 # energy   -6.38168884 # occ.  1.00000000
 
ion      s      p      d      f    tot
    1  0.087  0.002  0.043  0.000  0.132
    2  0.037  0.004  0.045  0.000  0.086
    3  0.036  0.004  0.044  0.000  0.084
    4  0.086  0.002  0.043  0.000  0.132
    5  0.036  0.004  0.045  0.000  0.085
    6  0.086  0.002  0.043  0.000  0.132
tot    0.368  0.019  0.264  0.000  0.651
 
band    30 # energy   -6.36805566 # occ.  1.00000000
 
ion      s      p      d      f    tot
    1  0.000  0.003  0.042  0.000  0.045
    2  0.001  0.002  0.191  0.001  0.194
    3  0.007  0.003  0.161  0.000  0.170
    4  0.000  0.001  0.258  0.000  0.260
    5  0.013  0.003  0.122  0.000  0.138
    6  0.000  0.002  0.140  0.000  0.142
tot    0.021  0.014  0.914  0.001  0.950
 
band    31 # energy   -6.36771050 # occ.  1.00000000
 
ion      s      p      d      f    tot
    1  0.000  0.001  0.252  0.000  0.254
    2  0.012  0.003  0.123  0.000  0.138
    3  0.007  0.003  0.156  0.000  0.166
    4  0.000  0.003  0.034  0.000  0.037
    5  0.001  0.002  0.194  0.001  0.198
    6  0.000  0.002  0.154  0.000  0.156
tot    0.021  0.014  0.913  0.001  0.949
 
band    32 # energy   -4.88658285 # occ.  1.00000000
 
ion      s      p      d      f    tot
    1  0.002  0.040  0.011  0.000  0.052
    2  0.004  0.000  0.000  0.000  0.005
    3  0.125  0.002  0.003  0.000  0.129
    4  0.064  0.008  0.035  0.000  0.107
    5  0.174  0.002  0.005  0.000  0.181
    6  0.046  0.017  0.028  0.000  0.091
tot    0.414  0.069  0.082  0.000  0.565
 
band    33 # energy   -4.88537300 # occ.  1.00000000
 
ion      s      p      d      f    tot
    1  0.072  0.004  0.038  0.000  0.114
    2  0.198  0.002  0.005  0.000  0.205
    3  0.077  0.001  0.002  0.000  0.081
    4  0.010  0.035  0.014  0.000  0.060
    5  0.028  0.001  0.001  0.000  0.029
    6  0.028  0.026  0.021  0.000  0.076
tot    0.414  0.069  0.082  0.000  0.565
 
band    34 # energy   -2.68448179 # occ.  0.00000000
 
ion      s      p      d      f    tot
    1  0.021  0.019  0.010  0.000  0.050
    2  0.064  0.024  0.005  0.000  0.094
    3  0.064  0.024  0.005  0.000  0.093
    4  0.022  0.018  0.010  0.000  0.050
    5  0.064  0.024  0.005  0.000  0.093
    6  0.021  0.018  0.010  0.000  0.050
tot    0.256  0.128  0.045  0.000  0.430
 
band    35 # energy   -2.42733030 # occ.  0.00000000
 
ion      s      p      d      f    tot
    1  0.002  0.005  0.009  0.000  0.017
    2  0.001  0.045  0.014  0.000  0.060
    3  0.033  0.023  0.006  0.000  0.062
    4  0.103  0.020  0.003  0.000  0.125
    5  0.045  0.015  0.003  0.000  0.063
    6  0.076  0.016  0.004  0.000  0.096
tot    0.258  0.124  0.039  0.001  0.422
 
band    36 # energy   -2.42598623 # occ.  0.00000000
 
ion      s      p      d      f    tot
    1  0.118  0.022  0.002  0.000  0.142
    2  0.051  0.011  0.001  0.000  0.063
    3  0.019  0.032  0.009  0.000  0.061
    4  0.017  0.008  0.008  0.000  0.033
    5  0.008  0.040  0.012  0.000  0.060
    6  0.045  0.012  0.006  0.000  0.063
tot    0.258  0.124  0.039  0.001  0.422
 
band    37 # energy   -1.77895443 # occ.  0.00000000
 
ion      s      p      d      f    tot
    1  0.000  0.043  0.003  0.000  0.046
    2  0.000  0.024  0.004  0.000  0.028
    3  0.000  0.024  0.004  0.000  0.028
    4  0.000  0.043  0.003  0.000  0.046
    5  0.000  0.024  0.004  0.000  0.028
    6  0.000  0.043  0.003  0.000  0.046
tot    0.000  0.202  0.019  0.001  0.221
 
band    38 # energy   -0.78952378 # occ.  0.00000000
 
ion      s      p      d      f    tot
    1  0.000  0.068  0.004  0.000  0.072
    2  0.000  0.022  0.000  0.000  0.023
    3  0.000  0.062  0.000  0.000  0.063
    4  0.008  0.015  0.003  0.000  0.027
    5  0.000  0.081  0.001  0.000  0.082
    6  0.006  0.032  0.003  0.000  0.041
tot    0.014  0.281  0.012  0.001  0.307
 
band    39 # energy   -0.78534824 # occ.  0.00000000
 
ion      s      p      d      f    tot
    1  0.009  0.009  0.003  0.001  0.021
    2  0.000  0.089  0.001  0.000  0.090
    3  0.000  0.048  0.000  0.000  0.049
    4  0.001  0.062  0.004  0.000  0.067
    5  0.000  0.030  0.000  0.000  0.030
    6  0.004  0.045  0.004  0.000  0.053
tot    0.014  0.283  0.012  0.001  0.309
 
band    40 # energy   -0.43510339 # occ.  0.00000000
 
ion      s      p      d      f    tot
    1  0.000  0.000  0.014  0.000  0.015
    2  0.000  0.000  0.002  0.000  0.002
    3  0.000  0.047  0.001  0.000  0.048
    4  0.000  0.020  0.004  0.000  0.024
    5  0.000  0.056  0.000  0.000  0.057
    6  0.000  0.016  0.006  0.000  0.022
tot    0.000  0.140  0.027  0.001  0.168
 
band    41 # energy   -0.42913232 # occ.  0.00000000
 
ion      s      p      d      f    tot
    1  0.000  0.024  0.002  0.000  0.026
    2  0.000  0.070  0.000  0.000  0.070
    3  0.000  0.023  0.001  0.000  0.024
    4  0.000  0.005  0.012  0.000  0.017
    5  0.000  0.013  0.001  0.000  0.015
    6  0.000  0.008  0.011  0.000  0.018
tot    0.000  0.142  0.027  0.001  0.170
 
band    42 # energy   -0.15705850 # occ.  0.00000000
 
ion      s      p      d      f    tot
    1  0.000  0.015  0.012  0.000  0.027
    2  0.000  0.053  0.000  0.000  0.053
    3  0.000  0.054  0.000  0.000  0.055
    4  0.000  0.015  0.012  0.000  0.027
    5  0.000  0.054  0.000  0.000  0.054
    6  0.000  0.014  0.012  0.000  0.026
tot    0.000  0.205  0.035  0.000  0.241
 
