Ag                                      
           1
    17.000000    0.000000    0.000000
     0.000000   17.000000    0.000000
     0.000000    0.000000   17.000000
   Ag
   6
Direct configuration=     1
   0.90256647  0.01030529  0.01134765
   0.15879647  0.04900353  0.94323235
   0.91329824  0.85422765  0.95796294
   0.01549118  0.97395412  0.90751059
   0.95736941  0.11400824  0.12834647
   0.05577118  0.00353882  0.06065412
Direct configuration=     2
   0.90199563  0.01001054  0.01282053
   0.15768353  0.04816194  0.94337634
   0.91356985  0.85601609  0.95763361
   0.01678505  0.97305114  0.90724101
   0.95724905  0.11283995  0.12758248
   0.05600983  0.00495798  0.06040013
Direct configuration=     3
   0.90028310  0.00912629  0.01723920
   0.15434472  0.04563717  0.94380832
   0.91438470  0.86138143  0.95664563
   0.02066668  0.97034222  0.90643229
   0.95688798  0.10933508  0.12529052
   0.05672577  0.00921546  0.05963817
Direct configuration=     4
   0.90011058  0.00903722  0.01768432
   0.15400838  0.04538284  0.94385183
   0.91446678  0.86192192  0.95654611
   0.02105770  0.97006933  0.90635082
   0.95685161  0.10898201  0.12505963
   0.05679790  0.00964434  0.05956141
Direct configuration=     5
   0.90002208  0.00774077  0.01819217
   0.15483048  0.04513557  0.94304810
   0.91437027  0.86362395  0.95585499
   0.02111804  0.96874622  0.90672736
   0.95598852  0.10925105  0.12580167
   0.05696356  0.01054008  0.05942984
Direct configuration=     6
   0.89993989  0.00653698  0.01866372
   0.15559382  0.04490597  0.94230181
   0.91428065  0.86520435  0.95521326
   0.02117407  0.96751767  0.90707700
   0.95518713  0.10950087  0.12649067
   0.05711738  0.01137181  0.05930767
Direct configuration=     7
   0.90018548  0.00609643  0.01990285
   0.15667245  0.04439990  0.94110027
   0.91311799  0.86512061  0.95397557
   0.02216990  0.96684443  0.90762604
   0.95388229  0.10973573  0.12748706
   0.05726483  0.01284055  0.05896232
Direct configuration=     8
   0.90092223  0.00477476  0.02362024
   0.15990835  0.04288168  0.93749565
   0.90963001  0.86486938  0.95026252
   0.02515740  0.96482472  0.90927319
   0.94996779  0.11044034  0.13047624
   0.05770716  0.01724677  0.05792629
Direct configuration=     9
   0.90239574  0.00213142  0.03105501
   0.16638015  0.03984524  0.93028640
   0.90265406  0.86436693  0.94283641
   0.03113239  0.96078530  0.91256747
   0.94213878  0.11184955  0.13645461
   0.05859182  0.02605921  0.05585422
Direct configuration=    10
   0.90160086  0.00355736  0.02704435
   0.16288896  0.04148323  0.93417540
   0.90641721  0.86463797  0.94684239
   0.02790920  0.96296435  0.91079038
   0.94636211  0.11108936  0.13322960
   0.05811459  0.02130538  0.05697199
Direct configuration=    11
   0.90194660  0.00274480  0.02771687
   0.16352038  0.04094240  0.93353801
   0.90558262  0.86502248  0.94580217
   0.02828539  0.96217909  0.91146548
   0.94557228  0.11101384  0.13392648
   0.05838569  0.02313505  0.05660510
Direct configuration=    12
   0.90298380  0.00030711  0.02973441
   0.16541462  0.03931989  0.93162586
   0.90307884  0.86617598  0.94268152
   0.02941393  0.95982333  0.91349078
   0.94320277  0.11078727  0.13601712
   0.05919898  0.02862406  0.05550443
Direct configuration=    13
   0.90505820 -0.00456825  0.03376950
   0.16920311  0.03607487  0.92780156
   0.89807128  0.86848300  0.93644020
   0.03167103  0.95511180  0.91754137
   0.93846377  0.11033415  0.14019841
   0.06082556  0.03960208  0.05330308
Direct configuration=    14
   0.90682655 -0.00626157  0.03418137
   0.16844635  0.03475873  0.92826315
   0.89730765  0.87012730  0.93498307
   0.03139873  0.95400031  0.91969176
   0.93846552  0.10873964  0.13995677
   0.06084815  0.04367324  0.05197800
Direct configuration=    15
   0.91213158 -0.01134152  0.03541698
   0.16617608  0.03081030  0.92964793
   0.89501676  0.87506020  0.93061167
   0.03058182  0.95066585  0.92614293
   0.93847077  0.10395609  0.13923185
   0.06091593  0.05588672  0.04800276
Direct configuration=    16
   0.91320070 -0.01236528  0.03566599
   0.16571855  0.03001458  0.92992701
   0.89455507  0.87605432  0.92973070
   0.03041720  0.94999386  0.92744303
   0.93847183  0.10299207  0.13908576
   0.06092959  0.05834809  0.04720163
Direct configuration=    17
   0.91471953 -0.01256155  0.03687597
   0.16505007  0.02928297  0.93109352
   0.89193682  0.87488292  0.92744674
   0.03171197  0.95007503  0.92905199
   0.93922152  0.10190613  0.13905396
   0.06065302  0.06145215  0.04553194
Direct configuration=    18
   0.91428480 -0.01250537  0.03652964
   0.16524141  0.02949237  0.93075963
   0.89268624  0.87521821  0.92810047
   0.03134137  0.95005179  0.92859146
   0.93900694  0.10221695  0.13906306
   0.06073218  0.06056369  0.04600985
Direct configuration=    19
   0.91459211 -0.01321041  0.03632529
   0.16599810  0.02980007  0.93150676
   0.89168477  0.87463317  0.92725194
   0.03090943  0.94952600  0.92899494
   0.93979108  0.10249581  0.13978453
   0.06031744  0.06179299  0.04519066
Direct configuration=    20
   0.91478871 -0.01366146  0.03619456
   0.16648220  0.02999692  0.93198474
   0.89104407  0.87425890  0.92670909
   0.03063309  0.94918962  0.92925306
   0.94029274  0.10267422  0.14024609
   0.06005211  0.06257945  0.04466658
Direct configuration=    21
   0.91473823 -0.01354564  0.03622813
   0.16635789  0.02994637  0.93186200
   0.89120860  0.87435501  0.92684849
   0.03070405  0.94927600  0.92918678
   0.94016392  0.10262841  0.14012757
   0.06012025  0.06237750  0.04480115
Direct configuration=    22
   0.91446723 -0.01360022  0.03637460
   0.16644882  0.02990544  0.93228255
   0.89129024  0.87452599  0.92687345
   0.03082321  0.94905529  0.92895808
   0.94058124  0.10248912  0.14027738
   0.05968220  0.06266202  0.04428805
Direct configuration=    23
   0.91411713 -0.01367073  0.03656383
   0.16656630  0.02985257  0.93282586
   0.89139571  0.87474688  0.92690571
   0.03097714  0.94877016  0.92866262
   0.94112037  0.10230918  0.14047092
   0.05911629  0.06302960  0.04362517
Direct configuration=    24
   0.91341694 -0.01381176  0.03694230
   0.16680125  0.02974682  0.93391248
   0.89160666  0.87518867  0.92697021
   0.03128500  0.94819988  0.92807171
   0.94219863  0.10194929  0.14085801
   0.05798447  0.06376475  0.04229940
Direct configuration=    25
   0.91382832 -0.01372890  0.03671994
   0.16666321  0.02980895  0.93327407
   0.89148272  0.87492911  0.92693231
   0.03110413  0.94853493  0.92841888
   0.94156513  0.10216073  0.14063059
   0.05864944  0.06333283  0.04307832
Direct configuration=    26
   0.91385759 -0.01360250  0.03682560
   0.16689167  0.02946479  0.93361480
   0.89152215  0.87501062  0.92695842
   0.03135487  0.94873587  0.92849183
   0.94164026  0.10195874  0.14116939
   0.05802640  0.06347013  0.04199409
Direct configuration=    27
   0.91386210 -0.01358299  0.03684190
   0.16692693  0.02941168  0.93366738
   0.89152823  0.87502320  0.92696245
   0.03139356  0.94876687  0.92850309
   0.94165186  0.10192757  0.14125252
   0.05793026  0.06349131  0.04182679
Direct configuration=    28
   0.91393831 -0.01347272  0.03683622
   0.16763363  0.02894750  0.93365610
   0.89168614  0.87514770  0.92704870
   0.03120433  0.94877257  0.92850494
   0.94157429  0.10161256  0.14182526
   0.05725624  0.06403003  0.04118290
Direct configuration=    29
   0.91393324 -0.01348005  0.03683660
   0.16758666  0.02897836  0.93365685
   0.89167565  0.87513943  0.92704296
   0.03121690  0.94877219  0.92850482
   0.94157945  0.10163350  0.14178719
   0.05730104  0.06399422  0.04122570
Direct configuration=    30
   0.91382185 -0.01339910  0.03689322
   0.16784173  0.02844322  0.93369266
   0.89165376  0.87510772  0.92713517
   0.03127827  0.94883566  0.92836784
   0.94147288  0.10125584  0.14215549
   0.05722445  0.06479432  0.04080973
Direct configuration=    31
   0.91378688 -0.01337369  0.03691099
   0.16792181  0.02827521  0.93370390
   0.89164689  0.87509776  0.92716412
   0.03129754  0.94885558  0.92832484
   0.94143942  0.10113728  0.14227112
   0.05720040  0.06504550  0.04067914
Direct configuration=    32
   0.91389543 -0.01337213  0.03675119
   0.16771286  0.02803197  0.93392199
   0.89162307  0.87509690  0.92727110
   0.03122394  0.94901295  0.92842172
   0.94153745  0.10087363  0.14227995
   0.05730018  0.06539432  0.04040816
Direct configuration=    33
   0.91388971 -0.01337221  0.03675961
   0.16772387  0.02804479  0.93391050
   0.89162433  0.87509694  0.92726546
   0.03122782  0.94900465  0.92841662
   0.94153229  0.10088752  0.14227949
   0.05729493  0.06537594  0.04042244
Direct configuration=    34
   0.91404844 -0.01328992  0.03662693
   0.16771660  0.02787081  0.93406902
   0.89160252  0.87502757  0.92731459
   0.03099105  0.94904353  0.92846098
   0.94172284  0.10062655  0.14218344
   0.05721148  0.06575910  0.04039915
Direct configuration=    35
   0.91400882 -0.01331046  0.03666005
   0.16771842  0.02791424  0.93402945
   0.89160797  0.87504489  0.92730233
   0.03105016  0.94903383  0.92844991
   0.94167527  0.10069170  0.14220742
   0.05723231  0.06566345  0.04040497
Direct configuration=    36
   0.91401879 -0.01330529  0.03665171
   0.16771796  0.02790331  0.93403942
   0.89160660  0.87504052  0.92730542
   0.03103528  0.94903627  0.92845270
   0.94168725  0.10067530  0.14220138
   0.05722706  0.06568754  0.04040350
Direct configuration=    37
   0.91401502 -0.01330725  0.03665486
   0.16771813  0.02790744  0.93403565
   0.89160711  0.87504217  0.92730425
   0.03104091  0.94903535  0.92845164
   0.94168272  0.10068150  0.14220366
   0.05722905  0.06567843  0.04040406
Direct configuration=    38
   0.91400282 -0.01328927  0.03659323
   0.16777392  0.02785968  0.93410096
   0.89153662  0.87494033  0.92729572
   0.03099529  0.94904418  0.92841735
   0.94173601  0.10067373  0.14227064
   0.05724828  0.06580901  0.04037621
