    6    6  200    2
  0.8188333E+03  0.1700000E-08  0.1700000E-08  0.1700000E-08  0.5000000E-15
  1.000000000000000E-004
  CAR 
 CuRu                                    
     96      1     60
 
  0.0000000E+00  0.0000000E+00  0.0000000E+00  0.1000000E+01
    1      -76.275757    -76.051441
    2      -76.109909    -75.877357
    3      -76.092771    -75.875289
    4      -75.931860    -75.815315
    5      -75.906533    -75.701648
    6      -75.727231    -75.652793
    7      -47.098284    -46.884925
    8      -46.944931    -46.709185
    9      -46.794888    -46.705377
   10      -46.633823    -46.529686
   11      -46.566917    -46.424308
   12      -46.396263    -46.168854
   13      -46.288871    -46.046367
   14      -46.271982    -46.042154
   15      -46.164687    -45.902809
   16      -45.760676    -45.603400
   17      -45.740645    -45.515168
   18      -45.725985    -45.489305
   19      -45.645121    -45.464809
   20      -45.602500    -45.398257
   21      -45.599199    -45.370351
   22      -45.553529    -45.368188
   23      -45.421441    -45.358389
   24      -45.421105    -45.246672
   25       -8.924027     -8.843862
   26       -8.207278     -7.979456
   27       -7.489368     -7.216227
   28       -7.312354     -7.185091
   29       -7.220318     -7.029804
   30       -7.115360     -7.015901
   31       -6.921586     -6.850926
   32       -6.768293     -6.646315
   33       -6.325060     -6.191508
   34       -6.304146     -6.146564
   35       -6.206326     -6.079477
   36       -6.136576     -6.000711
   37       -6.015616     -5.980509
   38       -5.656940     -5.485413
   39       -5.155391     -5.114689
   40       -5.130863     -4.920822
   41       -5.111478     -4.839878
   42       -4.883080     -4.760250
   43       -4.403524     -4.228384
   44       -4.227457     -4.089438
   45       -4.226024     -3.950262
   46       -4.221207     -3.771271
   47       -3.486402     -3.262168
   48       -3.445465     -3.030067
   49       -3.313699     -3.006968
   50       -3.110107     -2.934119
   51       -3.077201     -2.862543
   52       -3.015214     -2.797536
   53       -2.892312     -2.794930
   54       -2.811295     -2.714808
   55       -2.722679     -2.571558
   56       -2.266608     -2.115825
   57       -2.200003     -1.959077
   58       -1.873301     -1.784131
   59       -1.136989     -0.944101
   60       -0.933833     -0.878078
