CuRu                                    
   1.00000000000000     
    17.0000000000000000    0.0000000000000000    0.0000000000000000
     0.0000000000000000   17.0000000000000000    0.0000000000000000
     0.0000000000000000    0.0000000000000000   17.0000000000000000
   Ru
     6
Direct
  0.9308869833635013  0.9614677465273790  0.9322438907200126
  0.0702904289584488  0.9593800073304154  0.9328802758472837
 -0.0011830086624080  0.0791416226464673  0.9322343414015235
  0.9308923718834539  0.9614745115827762  0.0677672451360425
  0.0702924641719010  0.9593847315050454  0.0671179839091249
 -0.0011791808913727  0.0791513215843860  0.0677563218095508
 
  0.00000000E+00  0.00000000E+00  0.00000000E+00
  0.00000000E+00  0.00000000E+00  0.00000000E+00
  0.00000000E+00  0.00000000E+00  0.00000000E+00
  0.00000000E+00  0.00000000E+00  0.00000000E+00
  0.00000000E+00  0.00000000E+00  0.00000000E+00
  0.00000000E+00  0.00000000E+00  0.00000000E+00
