PROCAR new format
# of k-points:    1         # of bands:  60         # of ions:   6

 k-point    1 :    0.00000000 0.00000000 0.00000000     weight = 1.00000000

band   1 # energy  -76.27575686 # occ.  1.00000000
 
ion      s      p      d      f    tot
  1  0.241  0.000  0.000  0.000  0.241
  2  0.030  0.000  0.000  0.000  0.030
  3  0.234  0.000  0.000  0.000  0.234
  4  0.241  0.000  0.000  0.000  0.241
  5  0.030  0.000  0.000  0.000  0.030
  6  0.234  0.000  0.000  0.000  0.234
tot  1.010  0.000  0.000  0.000  1.010
 
band   2 # energy  -76.10990904 # occ.  1.00000000
 
ion      s      p      d      f    tot
  1  0.241  0.000  0.000  0.000  0.242
  2  0.026  0.000  0.000  0.000  0.026
  3  0.236  0.000  0.000  0.000  0.236
  4  0.244  0.000  0.000  0.000  0.244
  5  0.026  0.000  0.000  0.000  0.026
  6  0.234  0.000  0.000  0.000  0.234
tot  1.008  0.000  0.000  0.000  1.009
 
band   3 # energy  -76.09277053 # occ.  1.00000000
 
ion      s      p      d      f    tot
  1  0.250  0.000  0.000  0.000  0.250
  2  0.000  0.000  0.000  0.000  0.000
  3  0.254  0.000  0.000  0.000  0.254
  4  0.247  0.000  0.000  0.000  0.247
  5  0.000  0.000  0.000  0.000  0.000
  6  0.257  0.000  0.000  0.000  0.257
tot  1.008  0.000  0.000  0.000  1.009
 
band   4 # energy  -75.93185968 # occ.  1.00000000
 
ion      s      p      d      f    tot
  1  0.248  0.000  0.000  0.000  0.248
  2  0.000  0.000  0.000  0.000  0.000
  3  0.256  0.000  0.000  0.000  0.256
  4  0.248  0.000  0.000  0.000  0.248
  5  0.000  0.000  0.000  0.000  0.000
  6  0.256  0.000  0.000  0.000  0.256
tot  1.008  0.000  0.000  0.000  1.008
 
band   5 # energy  -75.90653295 # occ.  1.00000000
 
ion      s      p      d      f    tot
  1  0.015  0.000  0.000  0.000  0.015
  2  0.475  0.000  0.000  0.000  0.475
  3  0.015  0.000  0.000  0.000  0.015
  4  0.015  0.000  0.000  0.000  0.015
  5  0.475  0.000  0.000  0.000  0.475
  6  0.015  0.000  0.000  0.000  0.015
tot  1.010  0.000  0.000  0.000  1.010
 
band   6 # energy  -75.72723077 # occ.  1.00000000
 
ion      s      p      d      f    tot
  1  0.013  0.000  0.000  0.000  0.013
  2  0.478  0.000  0.000  0.000  0.478
  3  0.013  0.000  0.000  0.000  0.013
  4  0.013  0.000  0.000  0.000  0.013
  5  0.478  0.000  0.000  0.000  0.478
  6  0.013  0.000  0.000  0.000  0.013
tot  1.009  0.000  0.000  0.000  1.009
 
band   7 # energy  -47.09828404 # occ.  1.00000000
 
ion      s      p      d      f    tot
  1  0.000  0.200  0.000  0.000  0.200
  2  0.000  0.088  0.000  0.000  0.088
  3  0.000  0.198  0.000  0.000  0.199
  4  0.000  0.200  0.000  0.000  0.200
  5  0.000  0.088  0.000  0.000  0.088
  6  0.000  0.198  0.000  0.000  0.199
tot  0.002  0.971  0.001  0.000  0.975
 
band   8 # energy  -46.94493052 # occ.  1.00000000
 
ion      s      p      d      f    tot
  1  0.000  0.202  0.000  0.000  0.203
  2  0.000  0.085  0.000  0.000  0.086
  3  0.000  0.201  0.000  0.000  0.201
  4  0.000  0.202  0.000  0.000  0.203
  5  0.000  0.085  0.000  0.000  0.086
  6  0.000  0.201  0.000  0.000  0.201
tot  0.002  0.976  0.002  0.000  0.980
 
band   9 # energy  -46.79488810 # occ.  1.00000000
 
ion      s      p      d      f    tot
  1  0.000  0.213  0.000  0.000  0.213
  2  0.000  0.065  0.000  0.000  0.065
  3  0.000  0.209  0.000  0.000  0.210
  4  0.000  0.213  0.000  0.000  0.213
  5  0.000  0.065  0.000  0.000  0.065
  6  0.000  0.209  0.000  0.000  0.210
tot  0.001  0.974  0.002  0.000  0.977
 
band  10 # energy  -46.63382329 # occ.  1.00000000
 
ion      s      p      d      f    tot
  1  0.000  0.243  0.000  0.000  0.244
  2  0.000  0.001  0.000  0.000  0.001
  3  0.000  0.246  0.000  0.000  0.247
  4  0.000  0.243  0.000  0.000  0.244
  5  0.000  0.001  0.000  0.000  0.001
  6  0.000  0.246  0.000  0.000  0.247
tot  0.001  0.981  0.001  0.000  0.983
 
band  11 # energy  -46.56691731 # occ.  1.00000000
 
ion      s      p      d      f    tot
  1  0.000  0.041  0.000  0.000  0.042
  2  0.000  0.407  0.001  0.000  0.408
  3  0.000  0.042  0.000  0.000  0.042
  4  0.000  0.042  0.000  0.000  0.042
  5  0.000  0.407  0.001  0.000  0.408
  6  0.000  0.042  0.000  0.000  0.042
tot  0.001  0.980  0.002  0.000  0.982
 
band  12 # energy  -46.39626274 # occ.  1.00000000
 
ion      s      p      d      f    tot
  1  0.000  0.172  0.000  0.000  0.173
  2  0.000  0.151  0.000  0.000  0.151
  3  0.000  0.167  0.000  0.000  0.167
  4  0.000  0.172  0.000  0.000  0.173
  5  0.000  0.151  0.000  0.000  0.151
  6  0.000  0.167  0.000  0.000  0.167
tot  0.000  0.980  0.001  0.000  0.981
 
band  13 # energy  -46.28887054 # occ.  1.00000000
 
ion      s      p      d      f    tot
  1  0.000  0.195  0.000  0.000  0.195
  2  0.000  0.097  0.000  0.000  0.097
  3  0.000  0.200  0.000  0.000  0.200
  4  0.000  0.196  0.000  0.000  0.196
  5  0.000  0.097  0.000  0.000  0.097
  6  0.000  0.199  0.000  0.000  0.199
tot  0.000  0.984  0.001  0.000  0.985
 
band  14 # energy  -46.27198230 # occ.  1.00000000
 
ion      s      p      d      f    tot
  1  0.000  0.181  0.000  0.000  0.181
  2  0.000  0.137  0.000  0.000  0.138
  3  0.000  0.174  0.000  0.000  0.174
  4  0.000  0.180  0.000  0.000  0.180
  5  0.000  0.137  0.000  0.000  0.138
  6  0.000  0.175  0.000  0.000  0.176
tot  0.000  0.984  0.001  0.000  0.986
 
band  15 # energy  -46.16468694 # occ.  1.00000000
 
ion      s      p      d      f    tot
  1  0.000  0.200  0.000  0.000  0.201
  2  0.000  0.089  0.000  0.000  0.090
  3  0.000  0.204  0.000  0.000  0.205
  4  0.000  0.200  0.000  0.000  0.200
  5  0.000  0.089  0.000  0.000  0.090
  6  0.000  0.204  0.000  0.000  0.205
tot  0.000  0.988  0.001  0.000  0.990
 
band  16 # energy  -45.76067552 # occ.  1.00000000
 
ion      s      p      d      f    tot
  1  0.000  0.241  0.000  0.000  0.242
  2  0.000  0.015  0.000  0.000  0.015
  3  0.000  0.241  0.000  0.000  0.242
  4  0.000  0.241  0.000  0.000  0.242
  5  0.000  0.015  0.000  0.000  0.015
  6  0.000  0.242  0.000  0.000  0.242
tot  0.001  0.995  0.001  0.000  0.997
 
band  17 # energy  -45.74064537 # occ.  1.00000000
 
ion      s      p      d      f    tot
  1  0.000  0.218  0.000  0.000  0.218
  2  0.000  0.067  0.000  0.000  0.067
  3  0.000  0.214  0.000  0.000  0.214
  4  0.000  0.218  0.000  0.000  0.218
  5  0.000  0.067  0.000  0.000  0.067
  6  0.000  0.214  0.000  0.000  0.214
tot  0.001  0.996  0.001  0.000  0.998
 
band  18 # energy  -45.72598477 # occ.  1.00000000
 
ion      s      p      d      f    tot
  1  0.000  0.112  0.000  0.000  0.112
  2  0.000  0.272  0.000  0.000  0.272
  3  0.000  0.114  0.000  0.000  0.114
  4  0.000  0.112  0.000  0.000  0.112
  5  0.000  0.272  0.000  0.000  0.272
  6  0.000  0.114  0.000  0.000  0.114
tot  0.001  0.996  0.001  0.000  0.997
 
band  19 # energy  -45.64512145 # occ.  1.00000000
 
ion      s      p      d      f    tot
  1  0.000  0.243  0.000  0.000  0.243
  2  0.000  0.015  0.000  0.000  0.015
  3  0.000  0.242  0.000  0.000  0.243
  4  0.000  0.242  0.000  0.000  0.243
  5  0.000  0.014  0.000  0.000  0.014
  6  0.000  0.242  0.000  0.000  0.243
tot  0.001  0.999  0.001  0.000  1.000
 
band  20 # energy  -45.60250034 # occ.  1.00000000
 
ion      s      p      d      f    tot
  1  0.000  0.155  0.000  0.000  0.155
  2  0.000  0.226  0.000  0.000  0.226
  3  0.000  0.119  0.000  0.000  0.119
  4  0.000  0.155  0.000  0.000  0.155
  5  0.000  0.226  0.000  0.000  0.226
  6  0.000  0.119  0.000  0.000  0.119
tot  0.000  0.999  0.001  0.000  1.001
 
band  21 # energy  -45.59919930 # occ.  1.00000000
 
ion      s      p      d      f    tot
  1  0.000  0.222  0.000  0.000  0.223
  2  0.000  0.013  0.000  0.000  0.013
  3  0.000  0.265  0.000  0.000  0.265
  4  0.000  0.222  0.000  0.000  0.223
  5  0.000  0.013  0.000  0.000  0.013
  6  0.000  0.265  0.000  0.000  0.265
tot  0.001  1.000  0.001  0.000  1.002
 
band  22 # energy  -45.55352930 # occ.  1.00000000
 
ion      s      p      d      f    tot
  1  0.000  0.057  0.000  0.000  0.058
  2  0.000  0.381  0.000  0.000  0.381
  3  0.000  0.058  0.000  0.000  0.058
  4  0.000  0.057  0.000  0.000  0.058
  5  0.000  0.381  0.000  0.000  0.381
  6  0.000  0.058  0.000  0.000  0.058
tot  0.000  0.993  0.001  0.000  0.994
 
band  23 # energy  -45.42144127 # occ.  1.00000000
 
ion      s      p      d      f    tot
  1  0.000  0.012  0.000  0.000  0.012
  2  0.000  0.468  0.000  0.000  0.469
  3  0.000  0.019  0.000  0.000  0.020
  4  0.000  0.012  0.000  0.000  0.012
  5  0.000  0.468  0.000  0.000  0.469
  6  0.000  0.019  0.000  0.000  0.020
tot  0.001  0.999  0.001  0.000  1.001
 
band  24 # energy  -45.42110452 # occ.  1.00000000
 
ion      s      p      d      f    tot
  1  0.000  0.058  0.000  0.000  0.058
  2  0.000  0.390  0.000  0.000  0.390
  3  0.000  0.051  0.000  0.000  0.051
  4  0.000  0.058  0.000  0.000  0.058
  5  0.000  0.390  0.000  0.000  0.390
  6  0.000  0.051  0.000  0.000  0.051
tot  0.000  0.997  0.001  0.000  0.998
 
band  25 # energy   -8.92402710 # occ.  1.00000000
 
ion      s      p      d      f    tot
  1  0.021  0.003  0.122  0.001  0.147
  2  0.018  0.003  0.093  0.001  0.115
  3  0.021  0.003  0.121  0.001  0.147
  4  0.021  0.003  0.122  0.001  0.147
  5  0.018  0.003  0.093  0.001  0.115
  6  0.021  0.003  0.121  0.001  0.147
tot  0.121  0.019  0.673  0.006  0.819
 
band  26 # energy   -8.20727809 # occ.  1.00000000
 
ion      s      p      d      f    tot
  1  0.008  0.002  0.148  0.001  0.158
  2  0.008  0.002  0.124  0.001  0.135
  3  0.008  0.002  0.147  0.001  0.158
  4  0.008  0.002  0.148  0.001  0.158
  5  0.008  0.002  0.124  0.001  0.135
  6  0.008  0.002  0.147  0.001  0.158
tot  0.048  0.010  0.838  0.007  0.902
 
band  27 # energy   -7.48936826 # occ.  1.00000000
 
ion      s      p      d      f    tot
  1  0.028  0.002  0.138  0.001  0.170
  2  0.026  0.003  0.114  0.001  0.143
  3  0.028  0.002  0.138  0.001  0.170
  4  0.028  0.002  0.138  0.001  0.170
  5  0.026  0.003  0.114  0.001  0.143
  6  0.028  0.002  0.138  0.001  0.170
tot  0.165  0.015  0.780  0.007  0.967
 
band  28 # energy   -7.31235436 # occ.  1.00000000
 
ion      s      p      d      f    tot
  1  0.001  0.002  0.186  0.001  0.189
  2  0.025  0.001  0.016  0.000  0.042
  3  0.001  0.002  0.184  0.001  0.188
  4  0.001  0.002  0.186  0.001  0.189
  5  0.025  0.001  0.016  0.000  0.042
  6  0.001  0.002  0.184  0.001  0.188
tot  0.054  0.008  0.772  0.004  0.839
 
band  29 # energy   -7.22031845 # occ.  1.00000000
 
ion      s      p      d      f    tot
  1  0.041  0.001  0.122  0.001  0.164
  2  0.021  0.000  0.107  0.001  0.128
  3  0.042  0.001  0.119  0.001  0.163
  4  0.041  0.001  0.122  0.001  0.164
  5  0.021  0.000  0.107  0.001  0.128
  6  0.042  0.001  0.119  0.001  0.163
tot  0.207  0.005  0.695  0.004  0.911
 
band  30 # energy   -7.11535960 # occ.  1.00000000
 
ion      s      p      d      f    tot
  1  0.007  0.001  0.085  0.000  0.094
  2  0.000  0.002  0.208  0.001  0.211
  3  0.007  0.001  0.088  0.000  0.096
  4  0.007  0.001  0.085  0.000  0.094
  5  0.000  0.002  0.208  0.001  0.211
  6  0.007  0.001  0.088  0.000  0.096
tot  0.029  0.008  0.762  0.004  0.803
 
band  31 # energy   -6.92158581 # occ.  1.00000000
 
ion      s      p      d      f    tot
  1  0.006  0.000  0.154  0.001  0.161
  2  0.002  0.001  0.117  0.001  0.120
  3  0.006  0.000  0.152  0.001  0.159
  4  0.006  0.000  0.154  0.001  0.161
  5  0.002  0.001  0.117  0.001  0.120
  6  0.006  0.000  0.152  0.001  0.159
tot  0.027  0.003  0.845  0.005  0.881
 
band  32 # energy   -6.76829279 # occ.  1.00000000
 
ion      s      p      d      f    tot
  1  0.000  0.001  0.145  0.001  0.146
  2  0.000  0.000  0.148  0.001  0.149
  3  0.000  0.001  0.146  0.001  0.148
  4  0.000  0.001  0.145  0.001  0.146
  5  0.000  0.000  0.148  0.001  0.149
  6  0.000  0.001  0.146  0.001  0.148
tot  0.001  0.004  0.877  0.005  0.887
 
band  33 # energy   -6.32505970 # occ.  1.00000000
 
ion      s      p      d      f    tot
  1  0.008  0.001  0.207  0.001  0.217
  2  0.019  0.001  0.018  0.000  0.038
  3  0.008  0.001  0.205  0.001  0.215
  4  0.008  0.001  0.207  0.001  0.217
  5  0.019  0.001  0.018  0.000  0.038
  6  0.008  0.001  0.205  0.001  0.215
tot  0.070  0.006  0.860  0.006  0.941
 
band  34 # energy   -6.30414595 # occ.  1.00000000
 
ion      s      p      d      f    tot
  1  0.110  0.001  0.038  0.000  0.149
  2  0.065  0.000  0.053  0.000  0.119
  3  0.110  0.001  0.038  0.000  0.149
  4  0.110  0.001  0.038  0.000  0.149
  5  0.065  0.000  0.053  0.000  0.119
  6  0.110  0.001  0.038  0.000  0.149
tot  0.570  0.003  0.258  0.002  0.833
 
band  35 # energy   -6.20632568 # occ.  1.00000000
 
ion      s      p      d      f    tot
  1  0.009  0.001  0.084  0.000  0.095
  2  0.123  0.003  0.181  0.002  0.309
  3  0.010  0.001  0.086  0.000  0.097
  4  0.009  0.001  0.084  0.000  0.095
  5  0.123  0.003  0.181  0.002  0.309
  6  0.010  0.001  0.086  0.000  0.097
tot  0.285  0.009  0.702  0.005  1.001
 
band  36 # energy   -6.13657616 # occ.  1.00000000
 
ion      s      p      d      f    tot
  1  0.072  0.002  0.128  0.001  0.203
  2  0.000  0.000  0.088  0.000  0.088
  3  0.071  0.002  0.127  0.001  0.201
  4  0.072  0.002  0.128  0.001  0.203
  5  0.000  0.000  0.088  0.000  0.088
  6  0.071  0.002  0.127  0.001  0.201
tot  0.286  0.007  0.686  0.005  0.984
 
band  37 # energy   -6.01561620 # occ.  1.00000000
 
ion      s      p      d      f    tot
  1  0.018  0.001  0.086  0.001  0.106
  2  0.000  0.001  0.247  0.001  0.249
  3  0.018  0.001  0.088  0.001  0.107
  4  0.018  0.001  0.086  0.001  0.106
  5  0.000  0.001  0.247  0.001  0.249
  6  0.018  0.001  0.088  0.001  0.107
tot  0.073  0.006  0.841  0.005  0.924
 
band  38 # energy   -5.65693956 # occ.  1.00000000
 
ion      s      p      d      f    tot
  1  0.005  0.002  0.142  0.001  0.149
  2  0.005  0.001  0.086  0.001  0.093
  3  0.005  0.002  0.141  0.001  0.149
  4  0.005  0.002  0.142  0.001  0.149
  5  0.005  0.001  0.086  0.001  0.093
  6  0.005  0.002  0.141  0.001  0.149
tot  0.028  0.010  0.738  0.007  0.782
 
band  39 # energy   -5.15539081 # occ.  1.00000000
 
ion      s      p      d      f    tot
  1  0.001  0.002  0.156  0.001  0.160
  2  0.000  0.000  0.073  0.001  0.074
  3  0.001  0.002  0.159  0.001  0.163
  4  0.001  0.002  0.156  0.001  0.160
  5  0.000  0.000  0.073  0.001  0.074
  6  0.001  0.002  0.160  0.001  0.163
tot  0.003  0.008  0.777  0.006  0.793
 
band  40 # energy   -5.13086284 # occ.  1.00000000
 
ion      s      p      d      f    tot
  1  0.000  0.001  0.084  0.001  0.086
  2  0.001  0.002  0.223  0.002  0.228
  3  0.000  0.001  0.081  0.001  0.083
  4  0.000  0.001  0.084  0.001  0.086
  5  0.001  0.002  0.223  0.002  0.228
  6  0.000  0.001  0.081  0.001  0.083
tot  0.002  0.008  0.778  0.006  0.793
 
band  41 # energy   -5.11147789 # occ.  1.00000000
 
ion      s      p      d      f    tot
  1  0.049  0.000  0.109  0.001  0.159
  2  0.049  0.000  0.083  0.001  0.134
  3  0.049  0.000  0.109  0.001  0.159
  4  0.049  0.000  0.109  0.001  0.159
  5  0.049  0.000  0.083  0.001  0.134
  6  0.049  0.000  0.109  0.001  0.159
tot  0.296  0.002  0.603  0.004  0.905
 
band  42 # energy   -4.88308013 # occ.  1.00000000
 
ion      s      p      d      f    tot
  1  0.000  0.000  0.152  0.001  0.154
  2  0.000  0.000  0.119  0.001  0.120
  3  0.000  0.000  0.152  0.001  0.154
  4  0.000  0.000  0.152  0.001  0.154
  5  0.000  0.000  0.119  0.001  0.120
  6  0.000  0.000  0.152  0.001  0.154
tot  0.000  0.002  0.846  0.006  0.855
 
band  43 # energy   -4.40352446 # occ.  1.00000000
 
ion      s      p      d      f    tot
  1  0.000  0.001  0.162  0.001  0.165
  2  0.003  0.001  0.065  0.000  0.069
  3  0.000  0.001  0.160  0.001  0.162
  4  0.000  0.001  0.162  0.001  0.165
  5  0.003  0.001  0.065  0.000  0.069
  6  0.000  0.001  0.160  0.001  0.162
tot  0.006  0.006  0.773  0.004  0.790
 
band  44 # energy   -4.22745723 # occ.  1.00000000
 
ion      s      p      d      f    tot
  1  0.002  0.002  0.039  0.001  0.043
  2  0.011  0.000  0.257  0.001  0.269
  3  0.002  0.001  0.067  0.001  0.072
  4  0.002  0.002  0.039  0.001  0.042
  5  0.011  0.000  0.257  0.001  0.269
  6  0.002  0.001  0.068  0.001  0.072
tot  0.030  0.006  0.727  0.004  0.767
 
band  45 # energy   -4.22602377 # occ.  1.00000000
 
ion      s      p      d      f    tot
  1  0.000  0.001  0.113  0.000  0.114
  2  0.000  0.001  0.163  0.001  0.166
  3  0.000  0.001  0.116  0.000  0.117
  4  0.000  0.001  0.114  0.000  0.115
  5  0.000  0.001  0.164  0.001  0.166
  6  0.000  0.001  0.116  0.000  0.118
tot  0.001  0.006  0.785  0.004  0.796
 
band  46 # energy   -4.22120733 # occ.  1.00000000
 
ion      s      p      d      f    tot
  1  0.003  0.001  0.203  0.001  0.207
  2  0.000  0.001  0.004  0.001  0.006
  3  0.002  0.001  0.174  0.001  0.178
  4  0.003  0.001  0.202  0.001  0.206
  5  0.000  0.001  0.004  0.001  0.005
  6  0.002  0.001  0.173  0.001  0.177
tot  0.010  0.006  0.759  0.004  0.780
 
band  47 # energy   -3.48640224 # occ.  1.00000000
 
ion      s      p      d      f    tot
  1  0.000  0.001  0.195  0.001  0.197
  2  0.000  0.000  0.038  0.001  0.039
  3  0.000  0.001  0.197  0.001  0.199
  4  0.000  0.001  0.195  0.001  0.197
  5  0.000  0.000  0.038  0.001  0.039
  6  0.000  0.001  0.197  0.001  0.199
tot  0.000  0.003  0.861  0.005  0.869
 
band  48 # energy   -3.44546529 # occ.  1.00000000
 
ion      s      p      d      f    tot
  1  0.002  0.001  0.071  0.001  0.075
  2  0.011  0.000  0.257  0.001  0.269
  3  0.002  0.001  0.070  0.001  0.073
  4  0.002  0.001  0.071  0.001  0.075
  5  0.011  0.000  0.257  0.001  0.269
  6  0.002  0.001  0.070  0.001  0.073
tot  0.030  0.004  0.796  0.004  0.834
 
band  49 # energy   -3.31369907 # occ.  1.00000000
 
ion      s      p      d      f    tot
  1  0.035  0.004  0.063  0.000  0.102
  2  0.004  0.001  0.060  0.001  0.065
  3  0.035  0.004  0.062  0.000  0.101
  4  0.035  0.004  0.063  0.000  0.102
  5  0.004  0.001  0.060  0.001  0.065
  6  0.035  0.004  0.062  0.000  0.101
tot  0.147  0.019  0.369  0.002  0.537
 
band  50 # energy   -3.11010657 # occ.  0.00000000
 
ion      s      p      d      f    tot
  1  0.016  0.002  0.149  0.001  0.168
  2  0.000  0.001  0.024  0.000  0.025
  3  0.016  0.002  0.151  0.001  0.170
  4  0.016  0.002  0.149  0.001  0.168
  5  0.000  0.001  0.024  0.000  0.025
  6  0.016  0.002  0.151  0.001  0.170
tot  0.065  0.011  0.648  0.004  0.728
 
band  51 # energy   -3.07720141 # occ.  0.00000000
 
ion      s      p      d      f    tot
  1  0.053  0.005  0.025  0.000  0.082
  2  0.000  0.003  0.028  0.000  0.030
  3  0.053  0.005  0.025  0.000  0.083
  4  0.053  0.005  0.025  0.000  0.082
  5  0.000  0.003  0.028  0.000  0.030
  6  0.053  0.005  0.025  0.000  0.083
tot  0.211  0.024  0.154  0.001  0.390
 
band  52 # energy   -3.01521379 # occ.  0.00000000
 
ion      s      p      d      f    tot
  1  0.015  0.004  0.024  0.000  0.043
  2  0.077  0.004  0.042  0.000  0.123
  3  0.015  0.004  0.025  0.000  0.043
  4  0.015  0.004  0.024  0.000  0.043
  5  0.077  0.004  0.042  0.000  0.123
  6  0.015  0.004  0.025  0.000  0.043
tot  0.212  0.023  0.181  0.001  0.417
 
band  53 # energy   -2.89231152 # occ.  0.00000000
 
ion      s      p      d      f    tot
  1  0.000  0.003  0.120  0.001  0.124
  2  0.000  0.002  0.124  0.001  0.127
  3  0.000  0.003  0.120  0.001  0.124
  4  0.000  0.003  0.120  0.001  0.124
  5  0.000  0.002  0.124  0.001  0.127
  6  0.000  0.003  0.120  0.001  0.124
tot  0.000  0.014  0.728  0.008  0.749
 
band  54 # energy   -2.81129479 # occ.  0.00000000
 
ion      s      p      d      f    tot
  1  0.000  0.001  0.037  0.001  0.038
  2  0.033  0.005  0.234  0.001  0.272
  3  0.000  0.001  0.036  0.001  0.038
  4  0.000  0.001  0.037  0.001  0.038
  5  0.033  0.005  0.234  0.001  0.272
  6  0.000  0.001  0.036  0.001  0.038
tot  0.067  0.012  0.613  0.003  0.695
 
band  55 # energy   -2.72267865 # occ.  0.00000000
 
ion      s      p      d      f    tot
  1  0.000  0.001  0.129  0.001  0.131
  2  0.000  0.001  0.158  0.001  0.160
  3  0.000  0.001  0.130  0.001  0.132
  4  0.000  0.001  0.129  0.001  0.131
  5  0.000  0.001  0.158  0.001  0.160
  6  0.000  0.001  0.130  0.001  0.132
tot  0.000  0.008  0.832  0.005  0.846
 
band  56 # energy   -2.26660824 # occ.  0.00000000
 
ion      s      p      d      f    tot
  1  0.001  0.004  0.175  0.002  0.182
  2  0.000  0.000  0.031  0.000  0.032
  3  0.001  0.004  0.178  0.002  0.185
  4  0.001  0.004  0.175  0.002  0.182
  5  0.000  0.000  0.031  0.000  0.032
  6  0.001  0.004  0.178  0.002  0.185
tot  0.004  0.016  0.770  0.009  0.799
 
band  57 # energy   -2.20000288 # occ.  0.00000000
 
ion      s      p      d      f    tot
  1  0.000  0.001  0.066  0.001  0.069
  2  0.001  0.005  0.256  0.003  0.265
  3  0.000  0.001  0.063  0.001  0.066
  4  0.000  0.001  0.066  0.001  0.069
  5  0.001  0.005  0.256  0.003  0.265
  6  0.000  0.001  0.063  0.001  0.066
tot  0.004  0.016  0.771  0.009  0.800
 
band  58 # energy   -1.87330132 # occ.  0.00000000
 
ion      s      p      d      f    tot
  1  0.000  0.001  0.146  0.002  0.149
  2  0.000  0.000  0.151  0.002  0.153
  3  0.000  0.001  0.146  0.002  0.149
  4  0.000  0.001  0.146  0.002  0.149
  5  0.000  0.000  0.151  0.002  0.153
  6  0.000  0.001  0.146  0.002  0.149
tot  0.000  0.004  0.887  0.011  0.902
 
band  59 # energy   -1.13698880 # occ.  0.00000000
 
ion      s      p      d      f    tot
  1  0.003  0.010  0.003  0.000  0.016
  2  0.001  0.009  0.005  0.000  0.015
  3  0.003  0.010  0.003  0.000  0.016
  4  0.003  0.010  0.003  0.000  0.016
  5  0.001  0.009  0.005  0.000  0.015
  6  0.003  0.010  0.003  0.000  0.016
tot  0.013  0.059  0.020  0.001  0.092
 
band  60 # energy   -0.93383287 # occ.  0.00000000
 
ion      s      p      d      f    tot
  1  0.010  0.009  0.002  0.000  0.020
  2  0.005  0.010  0.004  0.000  0.019
  3  0.010  0.009  0.002  0.000  0.020
  4  0.010  0.009  0.002  0.000  0.020
  5  0.005  0.010  0.004  0.000  0.019
  6  0.010  0.009  0.002  0.000  0.020
tot  0.048  0.054  0.016  0.001  0.119
 
# of k-points:    1         # of bands:  60         # of ions:   6

 k-point    1 :    0.00000000 0.00000000 0.00000000     weight = 1.00000000

band   1 # energy  -76.05144078 # occ.  1.00000000
 
ion      s      p      d      f    tot
  1  0.146  0.000  0.000  0.000  0.146
  2  0.213  0.000  0.000  0.000  0.213
  3  0.147  0.000  0.000  0.000  0.147
  4  0.146  0.000  0.000  0.000  0.146
  5  0.213  0.000  0.000  0.000  0.213
  6  0.147  0.000  0.000  0.000  0.147
tot  1.011  0.000  0.000  0.000  1.011
 
band   2 # energy  -75.87735681 # occ.  1.00000000
 
ion      s      p      d      f    tot
  1  0.157  0.000  0.000  0.000  0.157
  2  0.189  0.000  0.000  0.000  0.189
  3  0.159  0.000  0.000  0.000  0.159
  4  0.158  0.000  0.000  0.000  0.158
  5  0.188  0.000  0.000  0.000  0.189
  6  0.159  0.000  0.000  0.000  0.159
tot  1.009  0.000  0.000  0.000  1.010
 
band   3 # energy  -75.87528857 # occ.  1.00000000
 
ion      s      p      d      f    tot
  1  0.104  0.000  0.000  0.000  0.104
  2  0.292  0.000  0.000  0.000  0.292
  3  0.109  0.000  0.000  0.000  0.109
  4  0.104  0.000  0.000  0.000  0.104
  5  0.293  0.000  0.000  0.000  0.293
  6  0.109  0.000  0.000  0.000  0.109
tot  1.010  0.000  0.000  0.000  1.010
 
band   4 # energy  -75.81531521 # occ.  1.00000000
 
ion      s      p      d      f    tot
  1  0.256  0.000  0.000  0.000  0.256
  2  0.000  0.000  0.000  0.000  0.000
  3  0.249  0.000  0.000  0.000  0.249
  4  0.256  0.000  0.000  0.000  0.256
  5  0.000  0.000  0.000  0.000  0.000
  6  0.249  0.000  0.000  0.000  0.249
tot  1.010  0.000  0.000  0.000  1.010
 
band   5 # energy  -75.70164759 # occ.  1.00000000
 
ion      s      p      d      f    tot
  1  0.092  0.000  0.000  0.000  0.092
  2  0.316  0.000  0.000  0.000  0.316
  3  0.098  0.000  0.000  0.000  0.098
  4  0.092  0.000  0.000  0.000  0.092
  5  0.315  0.000  0.000  0.000  0.316
  6  0.098  0.000  0.000  0.000  0.098
tot  1.009  0.000  0.000  0.000  1.009
 
band   6 # energy  -75.65279294 # occ.  1.00000000
 
ion      s      p      d      f    tot
  1  0.256  0.000  0.000  0.000  0.256
  2  0.000  0.000  0.000  0.000  0.000
  3  0.249  0.000  0.000  0.000  0.249
  4  0.256  0.000  0.000  0.000  0.256
  5  0.000  0.000  0.000  0.000  0.000
  6  0.249  0.000  0.000  0.000  0.249
tot  1.009  0.000  0.000  0.000  1.010
 
band   7 # energy  -46.88492521 # occ.  1.00000000
 
ion      s      p      d      f    tot
  1  0.000  0.148  0.000  0.000  0.148
  2  0.001  0.190  0.000  0.000  0.190
  3  0.000  0.148  0.000  0.000  0.149
  4  0.000  0.148  0.000  0.000  0.148
  5  0.001  0.190  0.000  0.000  0.190
  6  0.000  0.148  0.000  0.000  0.148
tot  0.003  0.970  0.001  0.000  0.974
 
band   8 # energy  -46.70918490 # occ.  1.00000000
 
ion      s      p      d      f    tot
  1  0.000  0.174  0.000  0.000  0.174
  2  0.000  0.140  0.000  0.000  0.141
  3  0.000  0.174  0.000  0.000  0.175
  4  0.000  0.174  0.000  0.000  0.174
  5  0.000  0.140  0.000  0.000  0.141
  6  0.000  0.174  0.000  0.000  0.174
tot  0.002  0.975  0.002  0.000  0.979
 
band   9 # energy  -46.70537694 # occ.  1.00000000
 
ion      s      p      d      f    tot
  1  0.000  0.070  0.000  0.000  0.070
  2  0.000  0.347  0.001  0.000  0.348
  3  0.000  0.071  0.000  0.000  0.071
  4  0.000  0.070  0.000  0.000  0.070
  5  0.000  0.347  0.001  0.000  0.348
  6  0.000  0.071  0.000  0.000  0.071
tot  0.000  0.975  0.002  0.000  0.978
 
band  10 # energy  -46.52968649 # occ.  1.00000000
 
ion      s      p      d      f    tot
  1  0.000  0.196  0.000  0.000  0.196
  2  0.000  0.085  0.000  0.000  0.086
  3  0.000  0.208  0.000  0.000  0.208
  4  0.000  0.196  0.000  0.000  0.196
  5  0.000  0.085  0.000  0.000  0.086
  6  0.000  0.208  0.000  0.000  0.208
tot  0.001  0.978  0.001  0.000  0.981
 
band  11 # energy  -46.42430815 # occ.  1.00000000
 
ion      s      p      d      f    tot
  1  0.000  0.251  0.000  0.000  0.252
  2  0.000  0.000  0.000  0.000  0.000
  3  0.000  0.239  0.000  0.000  0.239
  4  0.000  0.251  0.000  0.000  0.252
  5  0.000  0.000  0.000  0.000  0.000
  6  0.000  0.239  0.000  0.000  0.239
tot  0.001  0.980  0.001  0.000  0.983
 
band  12 # energy  -46.16885402 # occ.  1.00000000
 
ion      s      p      d      f    tot
  1  0.000  0.149  0.000  0.000  0.149
  2  0.000  0.193  0.000  0.000  0.193
  3  0.000  0.148  0.000  0.000  0.149
  4  0.000  0.149  0.000  0.000  0.149
  5  0.000  0.193  0.000  0.000  0.193
  6  0.000  0.148  0.000  0.000  0.149
tot  0.000  0.981  0.001  0.000  0.983
 
band  13 # energy  -46.04636681 # occ.  1.00000000
 
ion      s      p      d      f    tot
  1  0.000  0.146  0.000  0.000  0.146
  2  0.000  0.201  0.000  0.000  0.201
  3  0.000  0.146  0.000  0.000  0.147
  4  0.000  0.147  0.000  0.000  0.147
  5  0.000  0.201  0.000  0.000  0.201
  6  0.000  0.146  0.000  0.000  0.146
tot  0.000  0.986  0.001  0.000  0.988
 
band  14 # energy  -46.04215369 # occ.  1.00000000
 
ion      s      p      d      f    tot
  1  0.000  0.147  0.000  0.000  0.148
  2  0.000  0.196  0.000  0.000  0.196
  3  0.000  0.148  0.000  0.000  0.148
  4  0.000  0.147  0.000  0.000  0.147
  5  0.000  0.196  0.000  0.000  0.196
  6  0.000  0.148  0.000  0.000  0.149
tot  0.000  0.982  0.001  0.000  0.983
 
band  15 # energy  -45.90280881 # occ.  1.00000000
 
ion      s      p      d      f    tot
  1  0.000  0.152  0.000  0.000  0.152
  2  0.000  0.188  0.000  0.000  0.188
  3  0.000  0.153  0.000  0.000  0.153
  4  0.000  0.152  0.000  0.000  0.152
  5  0.000  0.188  0.000  0.000  0.188
  6  0.000  0.153  0.000  0.000  0.153
tot  0.000  0.986  0.001  0.000  0.988
 
band  16 # energy  -45.60339989 # occ.  1.00000000
 
ion      s      p      d      f    tot
  1  0.000  0.083  0.000  0.000  0.083
  2  0.001  0.331  0.000  0.000  0.332
  3  0.000  0.084  0.000  0.000  0.084
  4  0.000  0.083  0.000  0.000  0.083
  5  0.001  0.331  0.000  0.000  0.332
  6  0.000  0.084  0.000  0.000  0.084
tot  0.001  0.996  0.001  0.000  0.998
 
band  17 # energy  -45.51516789 # occ.  1.00000000
 
ion      s      p      d      f    tot
  1  0.000  0.164  0.000  0.000  0.164
  2  0.000  0.166  0.000  0.000  0.167
  3  0.000  0.167  0.000  0.000  0.167
  4  0.000  0.164  0.000  0.000  0.164
  5  0.000  0.166  0.000  0.000  0.167
  6  0.000  0.167  0.000  0.000  0.167
tot  0.001  0.994  0.000  0.000  0.996
 
band  18 # energy  -45.48930499 # occ.  1.00000000
 
ion      s      p      d      f    tot
  1  0.000  0.160  0.000  0.000  0.161
  2  0.000  0.181  0.000  0.000  0.181
  3  0.000  0.156  0.000  0.000  0.157
  4  0.000  0.160  0.000  0.000  0.161
  5  0.000  0.181  0.000  0.000  0.181
  6  0.000  0.156  0.000  0.000  0.157
tot  0.001  0.995  0.001  0.000  0.997
 
band  19 # energy  -45.46480904 # occ.  1.00000000
 
ion      s      p      d      f    tot
  1  0.000  0.195  0.000  0.000  0.195
  2  0.000  0.094  0.000  0.000  0.095
  3  0.000  0.210  0.000  0.000  0.210
  4  0.000  0.195  0.000  0.000  0.195
  5  0.000  0.094  0.000  0.000  0.095
  6  0.000  0.210  0.000  0.000  0.210
tot  0.001  0.998  0.001  0.000  1.000
 
band  20 # energy  -45.39825673 # occ.  1.00000000
 
ion      s      p      d      f    tot
  1  0.000  0.243  0.000  0.000  0.243
  2  0.000  0.029  0.000  0.000  0.029
  3  0.000  0.228  0.000  0.000  0.228
  4  0.000  0.243  0.000  0.000  0.243
  5  0.000  0.029  0.000  0.000  0.029
  6  0.000  0.228  0.000  0.000  0.228
tot  0.002  0.999  0.001  0.000  1.001
 
band  21 # energy  -45.37035103 # occ.  1.00000000
 
ion      s      p      d      f    tot
  1  0.000  0.190  0.000  0.000  0.190
  2  0.000  0.117  0.000  0.000  0.117
  3  0.000  0.190  0.000  0.000  0.190
  4  0.000  0.190  0.000  0.000  0.190
  5  0.000  0.117  0.000  0.000  0.117
  6  0.000  0.190  0.000  0.000  0.191
tot  0.000  0.994  0.001  0.000  0.995
 
band  22 # energy  -45.36818835 # occ.  1.00000000
 
ion      s      p      d      f    tot
  1  0.000  0.130  0.000  0.000  0.130
  2  0.000  0.227  0.000  0.000  0.228
  3  0.000  0.143  0.000  0.000  0.143
  4  0.000  0.130  0.000  0.000  0.130
  5  0.000  0.227  0.000  0.000  0.228
  6  0.000  0.142  0.000  0.000  0.143
tot  0.000  0.999  0.001  0.000  1.000
 
band  23 # energy  -45.35838866 # occ.  1.00000000
 
ion      s      p      d      f    tot
  1  0.000  0.179  0.000  0.000  0.179
  2  0.000  0.157  0.000  0.000  0.158
  3  0.000  0.164  0.000  0.000  0.164
  4  0.000  0.178  0.000  0.000  0.179
  5  0.000  0.158  0.000  0.000  0.158
  6  0.000  0.163  0.000  0.000  0.164
tot  0.000  0.999  0.001  0.000  1.001
 
band  24 # energy  -45.24667204 # occ.  1.00000000
 
ion      s      p      d      f    tot
  1  0.000  0.189  0.000  0.000  0.189
  2  0.000  0.121  0.000  0.000  0.121
  3  0.000  0.189  0.000  0.000  0.189
  4  0.000  0.189  0.000  0.000  0.189
  5  0.000  0.121  0.000  0.000  0.121
  6  0.000  0.189  0.000  0.000  0.189
tot  0.000  0.998  0.001  0.000  0.998
 
band  25 # energy   -8.84386222 # occ.  1.00000000
 
ion      s      p      d      f    tot
  1  0.020  0.003  0.107  0.001  0.132
  2  0.022  0.003  0.118  0.001  0.144
  3  0.020  0.003  0.107  0.001  0.132
  4  0.020  0.003  0.107  0.001  0.132
  5  0.022  0.003  0.118  0.001  0.144
  6  0.020  0.003  0.107  0.001  0.132
tot  0.126  0.020  0.665  0.006  0.816
 
band  26 # energy   -7.97945643 # occ.  1.00000000
 
ion      s      p      d      f    tot
  1  0.008  0.002  0.141  0.001  0.151
  2  0.008  0.002  0.140  0.001  0.150
  3  0.008  0.002  0.141  0.001  0.152
  4  0.008  0.002  0.141  0.001  0.151
  5  0.008  0.002  0.140  0.001  0.150
  6  0.008  0.002  0.141  0.001  0.152
tot  0.047  0.011  0.842  0.007  0.907
 
band  27 # energy   -7.21622693 # occ.  1.00000000
 
ion      s      p      d      f    tot
  1  0.031  0.003  0.129  0.001  0.165
  2  0.033  0.002  0.124  0.001  0.161
  3  0.031  0.003  0.129  0.001  0.165
  4  0.031  0.003  0.129  0.001  0.165
  5  0.033  0.002  0.124  0.001  0.161
  6  0.031  0.003  0.129  0.001  0.165
tot  0.191  0.016  0.766  0.008  0.980
 
band  28 # energy   -7.18509131 # occ.  1.00000000
 
ion      s      p      d      f    tot
  1  0.000  0.002  0.181  0.001  0.184
  2  0.021  0.001  0.024  0.000  0.046
  3  0.000  0.002  0.180  0.001  0.183
  4  0.000  0.002  0.181  0.001  0.184
  5  0.021  0.001  0.024  0.000  0.046
  6  0.000  0.002  0.180  0.001  0.183
tot  0.042  0.009  0.772  0.005  0.827
 
band  29 # energy   -7.02980390 # occ.  1.00000000
 
ion      s      p      d      f    tot
  1  0.005  0.001  0.082  0.001  0.089
  2  0.000  0.002  0.227  0.001  0.231
  3  0.009  0.001  0.072  0.000  0.083
  4  0.005  0.001  0.082  0.001  0.089
  5  0.000  0.002  0.227  0.001  0.231
  6  0.009  0.001  0.072  0.000  0.083
tot  0.028  0.008  0.763  0.004  0.804
 
band  30 # energy   -7.01590101 # occ.  1.00000000
 
ion      s      p      d      f    tot
  1  0.061  0.001  0.080  0.001  0.142
  2  0.052  0.001  0.131  0.001  0.185
  3  0.057  0.001  0.090  0.001  0.149
  4  0.061  0.001  0.080  0.001  0.142
  5  0.052  0.001  0.131  0.001  0.185
  6  0.057  0.001  0.090  0.001  0.149
tot  0.339  0.006  0.602  0.004  0.951
 
band  31 # energy   -6.85092627 # occ.  1.00000000
 
ion      s      p      d      f    tot
  1  0.000  0.000  0.161  0.001  0.163
  2  0.000  0.001  0.113  0.001  0.114
  3  0.000  0.000  0.161  0.001  0.162
  4  0.000  0.000  0.161  0.001  0.163
  5  0.000  0.001  0.113  0.001  0.114
  6  0.000  0.000  0.161  0.001  0.162
tot  0.000  0.003  0.869  0.006  0.878
 
band  32 # energy   -6.64631498 # occ.  1.00000000
 
ion      s      p      d      f    tot
  1  0.000  0.001  0.115  0.001  0.116
  2  0.000  0.000  0.200  0.001  0.201
  3  0.000  0.001  0.115  0.001  0.117
  4  0.000  0.001  0.115  0.001  0.116
  5  0.000  0.000  0.200  0.001  0.201
  6  0.000  0.001  0.115  0.001  0.117
tot  0.001  0.003  0.859  0.005  0.869
 
band  33 # energy   -6.19150786 # occ.  1.00000000
 
ion      s      p      d      f    tot
  1  0.008  0.001  0.206  0.001  0.217
  2  0.019  0.001  0.019  0.000  0.039
  3  0.009  0.001  0.204  0.001  0.215
  4  0.008  0.001  0.206  0.001  0.217
  5  0.019  0.001  0.019  0.000  0.039
  6  0.009  0.001  0.204  0.001  0.215
tot  0.072  0.006  0.858  0.006  0.942
 
band  34 # energy   -6.14656414 # occ.  1.00000000
 
ion      s      p      d      f    tot
  1  0.085  0.001  0.058  0.000  0.145
  2  0.008  0.001  0.170  0.001  0.181
  3  0.087  0.001  0.059  0.000  0.147
  4  0.085  0.001  0.059  0.000  0.145
  5  0.008  0.001  0.170  0.001  0.181
  6  0.087  0.001  0.059  0.000  0.147
tot  0.360  0.007  0.575  0.004  0.946
 
band  35 # energy   -6.07947713 # occ.  1.00000000
 
ion      s      p      d      f    tot
  1  0.021  0.000  0.090  0.000  0.111
  2  0.161  0.002  0.037  0.001  0.200
  3  0.020  0.000  0.092  0.000  0.112
  4  0.021  0.000  0.090  0.000  0.111
  5  0.161  0.002  0.037  0.001  0.200
  6  0.020  0.000  0.092  0.000  0.112
tot  0.403  0.004  0.437  0.003  0.847
 
band  36 # energy   -6.00071054 # occ.  1.00000000
 
ion      s      p      d      f    tot
  1  0.071  0.002  0.149  0.001  0.223
  2  0.000  0.000  0.053  0.000  0.053
  3  0.071  0.002  0.146  0.001  0.220
  4  0.071  0.002  0.149  0.001  0.223
  5  0.000  0.000  0.053  0.000  0.053
  6  0.070  0.002  0.146  0.001  0.220
tot  0.283  0.010  0.696  0.005  0.994
 
band  37 # energy   -5.98050853 # occ.  1.00000000
 
ion      s      p      d      f    tot
  1  0.017  0.001  0.079  0.001  0.097
  2  0.000  0.001  0.263  0.001  0.266
  3  0.017  0.001  0.080  0.001  0.099
  4  0.017  0.001  0.078  0.001  0.097
  5  0.000  0.001  0.263  0.001  0.266
  6  0.017  0.001  0.080  0.001  0.099
tot  0.069  0.006  0.844  0.005  0.923
 
band  38 # energy   -5.48541286 # occ.  1.00000000
 
ion      s      p      d      f    tot
  1  0.004  0.002  0.121  0.001  0.128
  2  0.003  0.002  0.131  0.001  0.136
  3  0.004  0.002  0.121  0.001  0.128
  4  0.004  0.002  0.121  0.001  0.128
  5  0.003  0.002  0.131  0.001  0.136
  6  0.004  0.002  0.121  0.001  0.128
tot  0.023  0.010  0.744  0.007  0.785
 
band  39 # energy   -5.11468948 # occ.  1.00000000
 
ion      s      p      d      f    tot
  1  0.000  0.001  0.090  0.001  0.092
  2  0.001  0.002  0.204  0.001  0.209
  3  0.000  0.001  0.094  0.001  0.095
  4  0.000  0.001  0.090  0.001  0.092
  5  0.001  0.002  0.204  0.001  0.209
  6  0.000  0.001  0.094  0.001  0.095
tot  0.003  0.007  0.775  0.006  0.792
 
band  40 # energy   -4.92082187 # occ.  1.00000000
 
ion      s      p      d      f    tot
  1  0.000  0.002  0.154  0.001  0.158
  2  0.000  0.000  0.083  0.001  0.084
  3  0.000  0.002  0.151  0.001  0.154
  4  0.000  0.002  0.154  0.001  0.157
  5  0.000  0.000  0.083  0.001  0.084
  6  0.000  0.002  0.151  0.001  0.154
tot  0.002  0.007  0.777  0.006  0.793
 
band  41 # energy   -4.83987805 # occ.  1.00000000
 
ion      s      p      d      f    tot
  1  0.045  0.000  0.102  0.001  0.148
  2  0.050  0.000  0.096  0.001  0.147
  3  0.045  0.000  0.102  0.001  0.148
  4  0.045  0.000  0.102  0.001  0.148
  5  0.050  0.000  0.096  0.001  0.147
  6  0.045  0.000  0.102  0.001  0.148
tot  0.281  0.002  0.599  0.004  0.886
 
band  42 # energy   -4.76025000 # occ.  1.00000000
 
ion      s      p      d      f    tot
  1  0.000  0.001  0.166  0.001  0.168
  2  0.000  0.000  0.086  0.001  0.086
  3  0.000  0.001  0.166  0.001  0.168
  4  0.000  0.001  0.166  0.001  0.168
  5  0.000  0.000  0.086  0.001  0.086
  6  0.000  0.001  0.166  0.001  0.168
tot  0.000  0.003  0.835  0.007  0.845
 
band  43 # energy   -4.22838420 # occ.  1.00000000
 
ion      s      p      d      f    tot
  1  0.000  0.001  0.161  0.001  0.164
  2  0.000  0.000  0.074  0.000  0.075
  3  0.000  0.001  0.161  0.001  0.164
  4  0.000  0.001  0.161  0.001  0.164
  5  0.000  0.000  0.074  0.000  0.075
  6  0.000  0.001  0.161  0.001  0.164
tot  0.002  0.005  0.794  0.004  0.805
 
band  44 # energy   -4.08943791 # occ.  1.00000000
 
ion      s      p      d      f    tot
  1  0.001  0.001  0.088  0.000  0.090
  2  0.000  0.002  0.210  0.001  0.213
  3  0.001  0.001  0.089  0.000  0.091
  4  0.001  0.001  0.088  0.000  0.090
  5  0.000  0.002  0.211  0.001  0.213
  6  0.001  0.001  0.089  0.000  0.091
tot  0.003  0.006  0.776  0.004  0.789
 
band  45 # energy   -3.95026155 # occ.  1.00000000
 
ion      s      p      d      f    tot
  1  0.001  0.001  0.061  0.001  0.063
  2  0.004  0.001  0.249  0.001  0.255
  3  0.001  0.001  0.063  0.001  0.066
  4  0.001  0.001  0.060  0.001  0.063
  5  0.004  0.001  0.249  0.001  0.254
  6  0.001  0.001  0.063  0.001  0.066
tot  0.012  0.007  0.744  0.004  0.766
 
band  46 # energy   -3.77127135 # occ.  1.00000000
 
ion      s      p      d      f    tot
  1  0.005  0.001  0.176  0.001  0.183
  2  0.000  0.002  0.004  0.001  0.007
  3  0.005  0.001  0.174  0.001  0.181
  4  0.005  0.001  0.176  0.001  0.183
  5  0.000  0.002  0.004  0.001  0.007
  6  0.005  0.001  0.174  0.001  0.181
tot  0.022  0.008  0.709  0.004  0.742
 
band  47 # energy   -3.26216753 # occ.  1.00000000
 
ion      s      p      d      f    tot
  1  0.002  0.000  0.067  0.001  0.070
  2  0.013  0.005  0.209  0.001  0.227
  3  0.002  0.000  0.068  0.001  0.071
  4  0.002  0.000  0.067  0.001  0.070
  5  0.013  0.005  0.209  0.001  0.227
  6  0.002  0.000  0.068  0.001  0.071
tot  0.035  0.011  0.687  0.003  0.736
 
band  48 # energy   -3.03006668 # occ.  0.00000000
 
ion      s      p      d      f    tot
  1  0.021  0.003  0.024  0.000  0.047
  2  0.068  0.006  0.029  0.000  0.104
  3  0.021  0.003  0.025  0.000  0.049
  4  0.021  0.003  0.024  0.000  0.047
  5  0.068  0.006  0.029  0.000  0.104
  6  0.021  0.003  0.025  0.000  0.049
tot  0.221  0.023  0.155  0.001  0.399
 
band  49 # energy   -3.00696844 # occ.  0.00000000
 
ion      s      p      d      f    tot
  1  0.004  0.001  0.043  0.001  0.048
  2  0.041  0.003  0.196  0.001  0.241
  3  0.004  0.001  0.047  0.001  0.052
  4  0.004  0.001  0.043  0.001  0.048
  5  0.041  0.003  0.196  0.001  0.241
  6  0.004  0.001  0.047  0.001  0.052
tot  0.097  0.010  0.571  0.003  0.682
 
band  50 # energy   -2.93411873 # occ.  0.00000000
 
ion      s      p      d      f    tot
  1  0.000  0.001  0.196  0.001  0.198
  2  0.000  0.000  0.045  0.001  0.046
  3  0.000  0.001  0.190  0.001  0.192
  4  0.000  0.001  0.196  0.001  0.198
  5  0.000  0.000  0.045  0.001  0.046
  6  0.000  0.001  0.190  0.001  0.192
tot  0.002  0.003  0.862  0.005  0.871
 
band  51 # energy   -2.86254327 # occ.  0.00000000
 
ion      s      p      d      f    tot
  1  0.045  0.003  0.032  0.000  0.081
  2  0.000  0.004  0.059  0.000  0.063
  3  0.045  0.003  0.032  0.000  0.080
  4  0.045  0.003  0.032  0.000  0.081
  5  0.000  0.004  0.059  0.000  0.063
  6  0.045  0.003  0.032  0.000  0.080
tot  0.180  0.021  0.247  0.002  0.450
 
band  52 # energy   -2.79753627 # occ.  0.00000000
 
ion      s      p      d      f    tot
  1  0.027  0.003  0.073  0.000  0.104
  2  0.000  0.001  0.088  0.001  0.090
  3  0.029  0.003  0.083  0.000  0.115
  4  0.027  0.003  0.074  0.000  0.104
  5  0.000  0.001  0.088  0.001  0.090
  6  0.029  0.003  0.083  0.000  0.115
tot  0.111  0.015  0.489  0.003  0.617
 
band  53 # energy   -2.79493038 # occ.  0.00000000
 
ion      s      p      d      f    tot
  1  0.004  0.003  0.129  0.001  0.138
  2  0.000  0.001  0.078  0.001  0.080
  3  0.004  0.003  0.129  0.001  0.137
  4  0.004  0.003  0.129  0.001  0.138
  5  0.000  0.001  0.078  0.001  0.080
  6  0.004  0.003  0.129  0.001  0.137
tot  0.015  0.015  0.673  0.007  0.710
 
band  54 # energy   -2.71480826 # occ.  0.00000000
 
ion      s      p      d      f    tot
  1  0.015  0.002  0.166  0.001  0.184
  2  0.000  0.001  0.014  0.000  0.015
  3  0.013  0.002  0.157  0.001  0.173
  4  0.015  0.002  0.166  0.001  0.184
  5  0.000  0.001  0.014  0.000  0.015
  6  0.013  0.002  0.157  0.001  0.173
tot  0.055  0.010  0.674  0.004  0.743
 
band  55 # energy   -2.57155829 # occ.  0.00000000
 
ion      s      p      d      f    tot
  1  0.000  0.001  0.147  0.001  0.149
  2  0.000  0.002  0.122  0.001  0.125
  3  0.000  0.001  0.147  0.001  0.149
  4  0.000  0.001  0.147  0.001  0.149
  5  0.000  0.002  0.122  0.001  0.125
  6  0.000  0.001  0.146  0.001  0.149
tot  0.000  0.008  0.831  0.005  0.845
 
band  56 # energy   -2.11582524 # occ.  0.00000000
 
ion      s      p      d      f    tot
  1  0.000  0.002  0.080  0.001  0.083
  2  0.002  0.005  0.222  0.003  0.231
  3  0.000  0.002  0.083  0.001  0.086
  4  0.000  0.002  0.080  0.001  0.083
  5  0.002  0.005  0.222  0.003  0.231
  6  0.000  0.002  0.083  0.001  0.086
tot  0.004  0.016  0.771  0.009  0.800
 
band  57 # energy   -1.95907697 # occ.  0.00000000
 
ion      s      p      d      f    tot
  1  0.001  0.004  0.182  0.002  0.188
  2  0.000  0.000  0.029  0.001  0.030
  3  0.001  0.004  0.179  0.002  0.185
  4  0.001  0.004  0.182  0.002  0.188
  5  0.000  0.000  0.029  0.001  0.030
  6  0.001  0.004  0.179  0.002  0.185
tot  0.003  0.015  0.779  0.009  0.807
 
band  58 # energy   -1.78413134 # occ.  0.00000000
 
ion      s      p      d      f    tot
  1  0.000  0.001  0.154  0.002  0.156
  2  0.000  0.000  0.136  0.002  0.138
  3  0.000  0.001  0.153  0.002  0.156
  4  0.000  0.001  0.154  0.002  0.156
  5  0.000  0.000  0.136  0.002  0.138
  6  0.000  0.001  0.153  0.002  0.156
tot  0.000  0.004  0.886  0.011  0.902
 
band  59 # energy   -0.94410143 # occ.  0.00000000
 
ion      s      p      d      f    tot
  1  0.001  0.010  0.003  0.000  0.013
  2  0.002  0.011  0.002  0.000  0.015
  3  0.001  0.010  0.003  0.000  0.013
  4  0.001  0.010  0.003  0.000  0.013
  5  0.002  0.011  0.002  0.000  0.015
  6  0.001  0.010  0.003  0.000  0.013
tot  0.007  0.060  0.017  0.001  0.084
 
band  60 # energy   -0.87807791 # occ.  0.00000000
 
ion      s      p      d      f    tot
  1  0.008  0.009  0.004  0.000  0.021
  2  0.010  0.009  0.001  0.000  0.020
  3  0.008  0.009  0.004  0.000  0.020
  4  0.008  0.009  0.004  0.000  0.021
  5  0.010  0.009  0.001  0.000  0.020
  6  0.008  0.009  0.004  0.000  0.020
tot  0.050  0.052  0.019  0.000  0.123
 
