<?xml version="1.0" encoding="ISO-8859-1"?>
<modeling>
 <generator>
  <i name="program" type="string">vasp </i>
  <i name="version" type="string">5.3.5  </i>
  <i name="subversion" type="string">31Mar14 (build Jan 29 2015 13:51:25) gamma-only                       parallel </i>
  <i name="platform" type="string">LinuxIFC </i>
  <i name="date" type="string">2021 08 20 </i>
  <i name="time" type="string">19:59:44 </i>
 </generator>
 <incar>
  <i type="string" name="SYSTEM"> CuRu</i>
  <i type="string" name="PREC">normal    ! calcululation level (change</i>
  <i type="string" name="ALGO"> NORMAL    !</i>
  <i type="logical" name="ADDGRID"> T  </i>
  <i type="int" name="ISPIN">     2</i>
  <i name="AMIX">      0.02000000</i>
  <i name="BMIX">      0.00001000</i>
  <i name="AMIX_MAG">      0.10000000</i>
  <i name="BMIX_MAG">      0.00001000</i>
  <i type="int" name="NELM">   120</i>
  <i type="int" name="NELMDL">    -8</i>
  <i type="int" name="NELMIN">     6</i>
  <i type="int" name="IBRION">     2</i>
  <i name="EDIFF">      0.00000100</i>
  <i name="EDIFFG">     -0.01000000</i>
  <i type="int" name="NSW">   200</i>
  <i type="int" name="ISIF">     0</i>
  <i name="ENCUT">    500.00000000</i>
  <i name="POTIM">      0.50000000</i>
  <i type="string" name="LREAL"> AUTO</i>
  <i type="logical" name="LPLANE"> T  </i>
  <i type="int" name="ISMEAR">     0</i>
  <i name="SIGMA">      0.00500000</i>
  <i type="int" name="NWRITE">     1</i>
  <i type="logical" name="LWAVE"> F  </i>
  <i type="logical" name="LCHARG"> F  </i>
  <i type="logical" name="LORBIT"> F  </i>
  <i type="logical" name="LASPH"> T  </i>
  <i type="int" name="NELM">   120</i>
  <i type="logical" name="LASPH"> T  </i>
 </incar>
 <kpoints>
  <generation param="Gamma">
   <v type="int" name="divisions">       1        1        1 </v>
   <v name="usershift">      0.00000000       0.00000000       0.00000000 </v>
   <v name="genvec1">      1.00000000       0.00000000       0.00000000 </v>
   <v name="genvec2">      0.00000000       1.00000000       0.00000000 </v>
   <v name="genvec3">      0.00000000       0.00000000       1.00000000 </v>
   <v name="shift">      0.00000000       0.00000000       0.00000000 </v>
  </generation>
  <varray name="kpointlist" >
   <v>       0.00000000       0.00000000       0.00000000 </v>
  </varray>
  <varray name="weights" >
   <v>       1.00000000 </v>
  </varray>
 </kpoints>
 <parameters>
  <separator name="general" >
   <i type="string" name="SYSTEM">CuRu</i>
   <i type="logical" name="LCOMPAT"> F  </i>
  </separator>
  <separator name="electronic" >
   <i type="string" name="PREC">normal</i>
   <i name="ENMAX">    500.00000000</i>
   <i name="ENAUG">    721.35600000</i>
   <i name="EDIFF">      0.00000100</i>
   <i type="int" name="IALGO">    38</i>
   <i type="int" name="IWAVPR">    11</i>
   <i type="int" name="NBANDS">    60</i>
   <i name="NELECT">     96.00000000</i>
   <i type="int" name="TURBO">     0</i>
   <i type="int" name="IRESTART">     0</i>
   <i type="int" name="NREBOOT">     0</i>
   <i type="int" name="NMIN">     0</i>
   <i name="EREF">      0.00000000</i>
   <separator name="electronic smearing" >
    <i type="int" name="ISMEAR">     0</i>
    <i name="SIGMA">      0.00500000</i>
    <i name="KSPACING">      0.50000000</i>
    <i type="logical" name="KGAMMA"> T  </i>
   </separator>
   <separator name="electronic projectors" >
    <i type="logical" name="LREAL"> T  </i>
    <v name="ROPT">     -0.00050000</v>
    <i type="int" name="LMAXPAW">  -100</i>
    <i type="int" name="LMAXMIX">     2</i>
    <i type="logical" name="NLSPLINE"> F  </i>
   </separator>
   <separator name="electronic startup" >
    <i type="int" name="ISTART">     0</i>
    <i type="int" name="ICHARG">     2</i>
    <i type="int" name="INIWAV">     1</i>
   </separator>
   <separator name="electronic spin" >
    <i type="int" name="ISPIN">     2</i>
    <i type="logical" name="LNONCOLLINEAR"> F  </i>
    <v name="MAGMOM">      1.00000000      1.00000000      1.00000000      1.00000000      1.00000000      1.00000000</v>
    <i name="NUPDOWN">     -1.00000000</i>
    <i type="logical" name="LSORBIT"> F  </i>
    <v name="SAXIS">      0.00000000      0.00000000      1.00000000</v>
    <i type="logical" name="LSPIRAL"> F  </i>
    <v name="QSPIRAL">      0.00000000      0.00000000      0.00000000</v>
    <i type="logical" name="LZEROZ"> F  </i>
   </separator>
   <separator name="electronic exchange-correlation" >
    <i type="logical" name="LASPH"> T  </i>
    <i type="logical" name="LMETAGGA"> F  </i>
   </separator>
   <separator name="electronic convergence" >
    <i type="int" name="NELM">   120</i>
    <i type="int" name="NELMDL">    -8</i>
    <i type="int" name="NELMIN">     6</i>
    <i name="ENINI">    500.00000000</i>
    <separator name="electronic convergence detail" >
     <i type="logical" name="LDIAG"> T  </i>
     <i type="logical" name="LSUBROT"> F  </i>
     <i name="WEIMIN">      0.00100000</i>
     <i name="EBREAK">      0.00000000</i>
     <i name="DEPER">      0.30000000</i>
     <i type="int" name="NRMM">     4</i>
     <i name="TIME">      0.40000000</i>
    </separator>
   </separator>
   <separator name="electronic mixer" >
    <i name="AMIX">      0.02000000</i>
    <i name="BMIX">      0.00001000</i>
    <i name="AMIN">      0.02000000</i>
    <i name="AMIX_MAG">      0.10000000</i>
    <i name="BMIX_MAG">      0.00001000</i>
    <separator name="electronic mixer details" >
     <i type="int" name="IMIX">     4</i>
     <i type="int" name="MAXMIX">   -45</i>
     <i name="WC">    100.00000000</i>
     <i type="int" name="INIMIX">     1</i>
     <i type="int" name="MIXPRE">     1</i>
     <i type="int" name="MREMOVE">     5</i>
    </separator>
   </separator>
   <separator name="electronic dipolcorrection" >
    <i type="logical" name="LDIPOL"> F  </i>
    <i type="logical" name="LMONO"> F  </i>
    <i type="int" name="IDIPOL">     0</i>
    <i name="EPSILON">      1.00000000</i>
    <v name="DIPOL">   -100.00000000   -100.00000000   -100.00000000</v>
    <i name="EFIELD">      0.00000000</i>
   </separator>
  </separator>
  <separator name="grids" >
   <i type="int" name="NGX">    96</i>
   <i type="int" name="NGY">    96</i>
   <i type="int" name="NGZ">    96</i>
   <i type="int" name="NGXF">   192</i>
   <i type="int" name="NGYF">   192</i>
   <i type="int" name="NGZF">   192</i>
   <i type="logical" name="ADDGRID"> T  </i>
  </separator>
  <separator name="ionic" >
   <i type="int" name="NSW">   200</i>
   <i type="int" name="IBRION">     2</i>
   <i type="int" name="ISIF">     0</i>
   <i name="PSTRESS">      0.00000000</i>
   <i name="EDIFFG">     -0.01000000</i>
   <i type="int" name="NFREE">     1</i>
   <i name="POTIM">      0.50000000</i>
   <i name="SMASS">     -3.00000000</i>
   <i name="SCALEE">      1.00000000</i>
  </separator>
  <separator name="ionic md" >
   <i name="TEBEG">      0.00010000</i>
   <i name="TEEND">      0.00010000</i>
   <i type="int" name="NBLOCK">     1</i>
   <i type="int" name="KBLOCK">   200</i>
   <i type="int" name="NPACO">   256</i>
   <i name="APACO">     16.00000000</i>
  </separator>
  <separator name="symmetry" >
   <i type="int" name="ISYM">     2</i>
   <i name="SYMPREC">      0.00001000</i>
  </separator>
  <separator name="dos" >
   <i type="logical" name="LORBIT"> F  </i>
   <v name="RWIGS">     -1.00000000</v>
   <i type="int" name="NEDOS">   301</i>
   <i name="EMIN">     10.00000000</i>
   <i name="EMAX">    -10.00000000</i>
   <i name="EFERMI">      0.00000000</i>
  </separator>
  <separator name="writing" >
   <i type="int" name="NWRITE">     1</i>
   <i type="logical" name="LWAVE"> F  </i>
   <i type="logical" name="LCHARG"> F  </i>
   <i type="logical" name="LPARD"> F  </i>
   <i type="logical" name="LVTOT"> F  </i>
   <i type="logical" name="LVHAR"> F  </i>
   <i type="logical" name="LELF"> F  </i>
   <i type="logical" name="LOPTICS"> F  </i>
   <v name="STM">      0.00000000      0.00000000      0.00000000      0.00000000      0.00000000      0.00000000      0.00000000</v>
  </separator>
  <separator name="performance" >
   <i type="int" name="NPAR">     2</i>
   <i type="int" name="NSIM">     4</i>
   <i type="int" name="NBLK">    -1</i>
   <i type="logical" name="LPLANE"> T  </i>
   <i type="logical" name="LSCALAPACK"> T  </i>
   <i type="logical" name="LSCAAWARE"> F  </i>
   <i type="logical" name="LSCALU"> F  </i>
   <i type="logical" name="LASYNC"> F  </i>
   <i type="logical" name="LORBITALREAL"> F  </i>
  </separator>
  <separator name="miscellaneous" >
   <i type="int" name="IDIOT">     3</i>
   <i type="logical" name="LMUSIC"> F  </i>
   <v name="POMASS">    101.07000000</v>
   <v name="DARWINR">      0.00000000</v>
   <v name="DARWINV">      1.00000000</v>
   <i type="logical" name="LCORR"> T  </i>
  </separator>
  <i type="logical" name="GGA_COMPAT"> T  </i>
  <i type="logical" name="LBERRY"> F  </i>
  <i type="int" name="ICORELEVEL">     0</i>
  <i type="logical" name="LDAU"> F  </i>
  <i type="int" name="I_CONSTRAINED_M">     0</i>
  <separator name="electronic exchange-correlation" >
   <i type="string" name="GGA">--</i>
   <i type="int" name="VOSKOWN">     0</i>
   <i type="logical" name="LHFCALC"> F  </i>
   <i type="string" name="PRECFOCK"></i>
   <i type="logical" name="LSYMGRAD"> F  </i>
   <i type="logical" name="LHFONE"> F  </i>
   <i type="logical" name="LRHFCALC"> F  </i>
   <i type="logical" name="LTHOMAS"> F  </i>
   <i type="logical" name="LMODELHF"> F  </i>
   <i name="ENCUT4O">     -1.00000000</i>
   <i type="int" name="EXXOEP">     0</i>
   <i type="int" name="FOURORBIT">     0</i>
   <i name="AEXX">      0.00000000</i>
   <i name="HFALPHA">      0.00000000</i>
   <i name="MCALPHA">      0.00000000</i>
   <i name="ALDAX">      1.00000000</i>
   <i name="AGGAX">      1.00000000</i>
   <i name="ALDAC">      1.00000000</i>
   <i name="AGGAC">      1.00000000</i>
   <i type="int" name="NKREDX">     1</i>
   <i type="int" name="NKREDY">     1</i>
   <i type="int" name="NKREDZ">     1</i>
   <i type="logical" name="SHIFTRED"> F  </i>
   <i type="logical" name="ODDONLY"> F  </i>
   <i type="logical" name="EVENONLY"> F  </i>
   <i type="int" name="LMAXFOCK">     0</i>
   <i type="int" name="NMAXFOCKAE">     0</i>
   <i type="logical" name="LFOCKAEDFT"> F  </i>
   <i name="HFSCREEN">      0.00000000</i>
   <i name="HFSCREENC">      0.00000000</i>
   <i type="int" name="NBANDSGWLOW">     0</i>
  </separator>
  <separator name="vdW DFT" >
   <i type="logical" name="LUSE_VDW"> F  </i>
   <i name="Zab_VDW">     -0.84910000</i>
   <i name="PARAM1">      0.12340000</i>
   <i name="PARAM2">      1.00000000</i>
   <i name="PARAM3">      0.00000000</i>
  </separator>
  <separator name="model GW" >
   <i type="int" name="MODEL_GW">     0</i>
   <i name="MODEL_EPS0">    491.30000000</i>
   <i name="MODEL_ALPHA">      1.00000000</i>
  </separator>
  <separator name="linear response parameters" >
   <i type="logical" name="LEPSILON"> F  </i>
   <i type="logical" name="LRPA"> F  </i>
   <i type="logical" name="LNABLA"> F  </i>
   <i type="logical" name="LVEL"> F  </i>
   <i type="int" name="KINTER">     0</i>
   <i name="CSHIFT">      0.10000000</i>
   <i name="OMEGAMAX">     -1.00000000</i>
   <i name="DEG_THRESHOLD">      0.00200000</i>
  </separator>
  <separator name="orbital magnetization" >
   <i type="logical" name="NUCIND"> F  </i>
   <v name="MAGPOS">      0.00000000      0.00000000      0.00000000</v>
   <i type="logical" name="LNICSALL"> T  </i>
   <i type="logical" name="ORBITALMAG"> F  </i>
   <i type="logical" name="LMAGBLOCH"> F  </i>
   <i type="logical" name="LCHIMAG"> F  </i>
   <i type="logical" name="LGAUGE"> T  </i>
   <i type="int" name="MAGATOM">     0</i>
   <v name="MAGDIPOL">      0.00000000      0.00000000      0.00000000</v>
   <v name="AVECCONST">      0.00000000      0.00000000      0.00000000</v>
  </separator>
  <separator name="response functions" >
   <i type="logical" name="LADDER"> F  </i>
   <i type="logical" name="LFXC"> F  </i>
   <i type="logical" name="LHARTREE"> T  </i>
   <i type="int" name="IBSE">     0</i>
   <i type="logical" name="LTCTE"> F  </i>
   <i type="logical" name="LTETE"> F  </i>
   <i type="logical" name="LTRIPLET"> F  </i>
   <i type="logical" name="LFXCEPS"> F  </i>
   <i type="logical" name="LFXHEG"> F  </i>
   <i type="logical" name="L2ORDER"> F  </i>
   <i type="logical" name="LUSEW"> F  </i>
   <i name="ENCUTGW">     -2.00000000</i>
   <i name="ENCUTGWSOFT">     -2.00000000</i>
   <i name="ENCUTLF">     -1.00000000</i>
   <i type="int" name="LMAXMP2">    -1</i>
   <i name="SCISSOR">      0.00000000</i>
   <i type="int" name="NOMEGA">     0</i>
   <i type="int" name="NOMEGAR">     0</i>
   <i type="int" name="NBANDSGW">    -1</i>
   <i type="int" name="NBANDSO">    -1</i>
   <i type="int" name="NBANDSV">    -1</i>
   <i type="int" name="NELM">   120</i>
   <i type="int" name="DIM">     3</i>
   <i type="int" name="ANTIRES">     0</i>
   <i name="OMEGAMAX">    -30.00000000</i>
   <i name="OMEGAMIN">    -30.00000000</i>
   <i name="OMEGATL">   -200.00000000</i>
   <i type="int" name="OMEGAGRID">     0</i>
   <i name="CSHIFT">     -0.10000000</i>
   <i type="logical" name="SELFENERGY"> F  </i>
   <i type="logical" name="LSPECTRAL"> F  </i>
   <i type="logical" name="ODDONLYGW"> F  </i>
   <i type="logical" name="EVENONLYGW"> F  </i>
   <i type="int" name="NKREDLFX">     1</i>
   <i type="int" name="NKREDLFY">     1</i>
   <i type="int" name="NKREDLFZ">     1</i>
   <i type="int" name="MAXMEM">  1800</i>
   <i type="int" name="TELESCOPE">     0</i>
   <i type="int" name="TAUPAR">     1</i>
  </separator>
  <separator name="External order field" >
   <i name="OFIELD_KAPPA">      0.00000000</i>
   <v name="OFIELD_K">      0.00000000      0.00000000      0.00000000</v>
   <i name="OFIELD_Q6_NEAR">      0.00000000</i>
   <i name="OFIELD_Q6_FAR">      0.00000000</i>
   <i name="OFIELD_A">      0.00000000</i>
  </separator>
 </parameters>
 <atominfo>
  <atoms>       6 </atoms>
  <types>       1 </types>
  <array name="atoms" >
   <dimension dim="1">ion</dimension>
   <field type="string">element</field>
   <field type="int">atomtype</field>
   <set>
    <rc><c>Ru</c><c>   1</c></rc>
    <rc><c>Ru</c><c>   1</c></rc>
    <rc><c>Ru</c><c>   1</c></rc>
    <rc><c>Ru</c><c>   1</c></rc>
    <rc><c>Ru</c><c>   1</c></rc>
    <rc><c>Ru</c><c>   1</c></rc>
   </set>
  </array>
  <array name="atomtypes" >
   <dimension dim="1">type</dimension>
   <field type="int">atomspertype</field>
   <field type="string">element</field>
   <field>mass</field>
   <field>valence</field>
   <field type="string">pseudopotential</field>
   <set>
    <rc><c>   6</c><c>Ru</c><c>    101.07000000</c><c>     16.00000000</c><c>  PAW Ru_sv_GW 23Mar2010                </c></rc>
   </set>
  </array>
 </atominfo>
 <structure name="initialpos" >
  <crystal>
   <varray name="basis" >
    <v>      17.00000000       0.00000000       0.00000000 </v>
    <v>       0.00000000      17.00000000       0.00000000 </v>
    <v>       0.00000000       0.00000000      17.00000000 </v>
   </varray>
   <i name="volume">   4913.00000000 </i>
   <varray name="rec_basis" >
    <v>       0.05882353       0.00000000       0.00000000 </v>
    <v>       0.00000000       0.05882353       0.00000000 </v>
    <v>       0.00000000       0.00000000       0.05882353 </v>
   </varray>
  </crystal>
  <varray name="positions" >
   <v>       0.93095888       0.95892606       0.93216512 </v>
   <v>       0.06813924       0.96069953       0.93243812 </v>
   <v>       0.00089441       0.08036712       0.93215229 </v>
   <v>       0.93096212       0.95893000       0.06784159 </v>
   <v>       0.06813941       0.96070365       0.06756818 </v>
   <v>       0.00090600       0.08037359       0.06783476 </v>
  </varray>
 </structure>
 <calculation>
  <scstep>
   <time name="dav">    9.95    9.97</time>
   <time name="total">   20.22   20.27</time>
   <energy>
    <i name="alphaZ">     19.16410503 </i>
    <i name="ewald">  10042.50333567 </i>
    <i name="hartreedc"> -23743.90884440 </i>
    <i name="XCdc">    513.64032563 </i>
    <i name="pawpsdc">  13252.58534008 </i>
    <i name="pawaedc"> -12957.34203068 </i>
    <i name="eentropy">     -0.00229404 </i>
    <i name="bandstr">   -529.67387853 </i>
    <i name="atom">  15568.50493531 </i>
    <i name="e_fr_energy">   2165.47099408 </i>
    <i name="e_wo_entrp">   2165.47328811 </i>
    <i name="e_0_energy">   2165.47214109 </i>
   </energy>
  </scstep>
  <scstep>
   <time name="dav">   14.71   14.74</time>
   <time name="total">   14.71   14.74</time>
   <energy>
    <i name="e_fr_energy">    723.81645042 </i>
    <i name="e_wo_entrp">    723.81646093 </i>
    <i name="e_0_energy">    723.81645567 </i>
   </energy>
  </scstep>
  <scstep>
   <time name="dav">   12.93   12.98</time>
   <time name="total">   12.93   12.99</time>
   <energy>
    <i name="e_fr_energy">     60.14350718 </i>
    <i name="e_wo_entrp">     60.14350718 </i>
    <i name="e_0_energy">     60.14350718 </i>
   </energy>
  </scstep>
  <scstep>
   <time name="dav">   12.28   12.31</time>
   <time name="total">   12.28   12.31</time>
   <energy>
    <i name="e_fr_energy">    -25.23223872 </i>
    <i name="e_wo_entrp">    -25.23223872 </i>
    <i name="e_0_energy">    -25.23223872 </i>
   </energy>
  </scstep>
  <scstep>
   <time name="dav">   11.60   11.64</time>
   <time name="total">   11.60   11.64</time>
   <energy>
    <i name="e_fr_energy">    -38.75049980 </i>
    <i name="e_wo_entrp">    -38.75049980 </i>
    <i name="e_0_energy">    -38.75049980 </i>
   </energy>
  </scstep>
  <scstep>
   <time name="dav">   12.01   12.05</time>
   <time name="total">   12.01   12.05</time>
   <energy>
    <i name="e_fr_energy">    -40.08637169 </i>
    <i name="e_wo_entrp">    -40.08637169 </i>
    <i name="e_0_energy">    -40.08637169 </i>
   </energy>
  </scstep>
  <scstep>
   <time name="dav">   11.78   11.84</time>
   <time name="total">   11.78   11.84</time>
   <energy>
    <i name="e_fr_energy">    -40.45129398 </i>
    <i name="e_wo_entrp">    -40.45129398 </i>
    <i name="e_0_energy">    -40.45129398 </i>
   </energy>
  </scstep>
  <scstep>
   <time name="dav">   10.26   10.29</time>
   <time name="total">   15.03   15.07</time>
   <energy>
    <i name="e_fr_energy">    -40.59550307 </i>
    <i name="e_wo_entrp">    -40.59550307 </i>
    <i name="e_0_energy">    -40.59550307 </i>
   </energy>
  </scstep>
  <scstep>
   <time name="dav">   11.14   11.16</time>
   <time name="total">   26.29   26.35</time>
   <energy>
    <i name="e_fr_energy">    -40.04917811 </i>
    <i name="e_wo_entrp">    -40.04917811 </i>
    <i name="e_0_energy">    -40.04917811 </i>
   </energy>
  </scstep>
  <scstep>
   <time name="dav">   10.33   10.35</time>
   <time name="total">   25.41   25.53</time>
   <energy>
    <i name="e_fr_energy">    -33.07727717 </i>
    <i name="e_wo_entrp">    -33.07727717 </i>
    <i name="e_0_energy">    -33.07727717 </i>
   </energy>
  </scstep>
  <scstep>
   <time name="dav">   10.67   10.69</time>
   <time name="total">   25.88   25.92</time>
   <energy>
    <i name="e_fr_energy">    -34.60543652 </i>
    <i name="e_wo_entrp">    -34.60543652 </i>
    <i name="e_0_energy">    -34.60543652 </i>
   </energy>
  </scstep>
  <scstep>
   <time name="dav">   12.04   12.06</time>
   <time name="total">   27.24   27.29</time>
   <energy>
    <i name="e_fr_energy">    -34.65964367 </i>
    <i name="e_wo_entrp">    -34.65964350 </i>
    <i name="e_0_energy">    -34.65964359 </i>
   </energy>
  </scstep>
  <scstep>
   <time name="dav">   10.45   10.46</time>
   <time name="total">   25.69   25.73</time>
   <energy>
    <i name="e_fr_energy">    -34.62439253 </i>
    <i name="e_wo_entrp">    -34.62439253 </i>
    <i name="e_0_energy">    -34.62439253 </i>
   </energy>
  </scstep>
  <scstep>
   <time name="dav">   10.32   10.34</time>
   <time name="total">   25.49   25.59</time>
   <energy>
    <i name="e_fr_energy">    -34.62884676 </i>
    <i name="e_wo_entrp">    -34.62884676 </i>
    <i name="e_0_energy">    -34.62884676 </i>
   </energy>
  </scstep>
  <scstep>
   <time name="dav">   12.06   12.08</time>
   <time name="total">   27.29   27.37</time>
   <energy>
    <i name="e_fr_energy">    -34.64374978 </i>
    <i name="e_wo_entrp">    -34.64374977 </i>
    <i name="e_0_energy">    -34.64374978 </i>
   </energy>
  </scstep>
  <scstep>
   <time name="dav">   10.50   10.51</time>
   <time name="total">   25.73   25.82</time>
   <energy>
    <i name="e_fr_energy">    -34.91804870 </i>
    <i name="e_wo_entrp">    -34.91804870 </i>
    <i name="e_0_energy">    -34.91804870 </i>
   </energy>
  </scstep>
  <scstep>
   <time name="dav">   10.82   10.83</time>
   <time name="total">   26.03   26.12</time>
   <energy>
    <i name="e_fr_energy">    -34.80257562 </i>
    <i name="e_wo_entrp">    -34.79977850 </i>
    <i name="e_0_energy">    -34.80117706 </i>
   </energy>
  </scstep>
  <scstep>
   <time name="dav">   11.03   11.05</time>
   <time name="total">   26.28   26.38</time>
   <energy>
    <i name="e_fr_energy">    -34.78872376 </i>
    <i name="e_wo_entrp">    -34.78872376 </i>
    <i name="e_0_energy">    -34.78872376 </i>
   </energy>
  </scstep>
  <scstep>
   <time name="dav">    9.91    9.93</time>
   <time name="total">   25.26   25.31</time>
   <energy>
    <i name="e_fr_energy">    -35.36848139 </i>
    <i name="e_wo_entrp">    -35.36847602 </i>
    <i name="e_0_energy">    -35.36847871 </i>
   </energy>
  </scstep>
  <scstep>
   <time name="dav">   11.22   11.24</time>
   <time name="total">   26.59   26.63</time>
   <energy>
    <i name="e_fr_energy">    -35.99397836 </i>
    <i name="e_wo_entrp">    -35.99397836 </i>
    <i name="e_0_energy">    -35.99397836 </i>
   </energy>
  </scstep>
  <scstep>
   <time name="dav">   11.68   11.70</time>
   <time name="total">   27.12   27.17</time>
   <energy>
    <i name="e_fr_energy">    -35.69440844 </i>
    <i name="e_wo_entrp">    -35.69440844 </i>
    <i name="e_0_energy">    -35.69440844 </i>
   </energy>
  </scstep>
  <scstep>
   <time name="dav">   12.19   12.23</time>
   <time name="total">   27.69   27.76</time>
   <energy>
    <i name="e_fr_energy">    -35.62807999 </i>
    <i name="e_wo_entrp">    -35.62807999 </i>
    <i name="e_0_energy">    -35.62807999 </i>
   </energy>
  </scstep>
  <scstep>
   <time name="dav">   10.82   10.84</time>
   <time name="total">   26.29   26.33</time>
   <energy>
    <i name="e_fr_energy">    -35.51236554 </i>
    <i name="e_wo_entrp">    -35.51231285 </i>
    <i name="e_0_energy">    -35.51233920 </i>
   </energy>
  </scstep>
  <scstep>
   <time name="dav">   10.38   10.40</time>
   <time name="total">   25.87   25.96</time>
   <energy>
    <i name="e_fr_energy">    -35.49491401 </i>
    <i name="e_wo_entrp">    -35.49491398 </i>
    <i name="e_0_energy">    -35.49491400 </i>
   </energy>
  </scstep>
  <scstep>
   <time name="dav">   10.60   10.62</time>
   <time name="total">   26.11   26.20</time>
   <energy>
    <i name="e_fr_energy">    -35.20450737 </i>
    <i name="e_wo_entrp">    -35.20450737 </i>
    <i name="e_0_energy">    -35.20450737 </i>
   </energy>
  </scstep>
  <scstep>
   <time name="dav">   11.27   11.29</time>
   <time name="total">   26.90   26.98</time>
   <energy>
    <i name="e_fr_energy">    -35.07383156 </i>
    <i name="e_wo_entrp">    -35.07383156 </i>
    <i name="e_0_energy">    -35.07383156 </i>
   </energy>
  </scstep>
  <scstep>
   <time name="dav">   10.64   10.66</time>
   <time name="total">   26.34   26.39</time>
   <energy>
    <i name="e_fr_energy">    -35.07855074 </i>
    <i name="e_wo_entrp">    -35.07855074 </i>
    <i name="e_0_energy">    -35.07855074 </i>
   </energy>
  </scstep>
  <scstep>
   <time name="dav">   10.50   10.52</time>
   <time name="total">   26.15   26.24</time>
   <energy>
    <i name="e_fr_energy">    -35.06689146 </i>
    <i name="e_wo_entrp">    -35.06689146 </i>
    <i name="e_0_energy">    -35.06689146 </i>
   </energy>
  </scstep>
  <scstep>
   <time name="dav">   10.42   10.44</time>
   <time name="total">   26.19   26.24</time>
   <energy>
    <i name="e_fr_energy">    -35.05696765 </i>
    <i name="e_wo_entrp">    -35.05696765 </i>
    <i name="e_0_energy">    -35.05696765 </i>
   </energy>
  </scstep>
  <scstep>
   <time name="dav">   11.33   11.34</time>
   <time name="total">   27.22   27.26</time>
   <energy>
    <i name="e_fr_energy">    -35.05923905 </i>
    <i name="e_wo_entrp">    -35.05923905 </i>
    <i name="e_0_energy">    -35.05923905 </i>
   </energy>
  </scstep>
  <scstep>
   <time name="dav">   10.29   10.31</time>
   <time name="total">   26.19   26.25</time>
   <energy>
    <i name="e_fr_energy">    -35.06017338 </i>
    <i name="e_wo_entrp">    -35.06017338 </i>
    <i name="e_0_energy">    -35.06017338 </i>
   </energy>
  </scstep>
  <scstep>
   <time name="dav">   11.30   11.32</time>
   <time name="total">   27.29   27.34</time>
   <energy>
    <i name="e_fr_energy">    -35.06154415 </i>
    <i name="e_wo_entrp">    -35.06154415 </i>
    <i name="e_0_energy">    -35.06154415 </i>
   </energy>
  </scstep>
  <scstep>
   <time name="dav">   10.50   10.51</time>
   <time name="total">   26.51   26.55</time>
   <energy>
    <i name="e_fr_energy">    -35.08155973 </i>
    <i name="e_wo_entrp">    -35.08155973 </i>
    <i name="e_0_energy">    -35.08155973 </i>
   </energy>
  </scstep>
  <scstep>
   <time name="dav">   10.90   10.92</time>
   <time name="total">   27.00   27.10</time>
   <energy>
    <i name="e_fr_energy">    -35.08390416 </i>
    <i name="e_wo_entrp">    -35.08390416 </i>
    <i name="e_0_energy">    -35.08390416 </i>
   </energy>
  </scstep>
  <scstep>
   <time name="dav">   11.47   11.49</time>
   <time name="total">   27.68   27.73</time>
   <energy>
    <i name="e_fr_energy">    -35.08479750 </i>
    <i name="e_wo_entrp">    -35.08479750 </i>
    <i name="e_0_energy">    -35.08479750 </i>
   </energy>
  </scstep>
  <scstep>
   <time name="dav">    9.43    9.44</time>
   <time name="total">   25.65   25.72</time>
   <energy>
    <i name="e_fr_energy">    -35.08960580 </i>
    <i name="e_wo_entrp">    -35.08960580 </i>
    <i name="e_0_energy">    -35.08960580 </i>
   </energy>
  </scstep>
  <scstep>
   <time name="dav">   11.02   11.04</time>
   <time name="total">   27.34   27.40</time>
   <energy>
    <i name="e_fr_energy">    -35.09182878 </i>
    <i name="e_wo_entrp">    -35.09182878 </i>
    <i name="e_0_energy">    -35.09182878 </i>
   </energy>
  </scstep>
  <scstep>
   <time name="dav">   10.12   10.14</time>
   <time name="total">   26.52   26.57</time>
   <energy>
    <i name="e_fr_energy">    -35.09311588 </i>
    <i name="e_wo_entrp">    -35.09311588 </i>
    <i name="e_0_energy">    -35.09311588 </i>
   </energy>
  </scstep>
  <scstep>
   <time name="dav">   10.32   10.35</time>
   <time name="total">   26.78   26.84</time>
   <energy>
    <i name="e_fr_energy">    -35.09206345 </i>
    <i name="e_wo_entrp">    -35.09206345 </i>
    <i name="e_0_energy">    -35.09206345 </i>
   </energy>
  </scstep>
  <scstep>
   <time name="dav">   10.76   10.77</time>
   <time name="total">   27.28   27.33</time>
   <energy>
    <i name="e_fr_energy">    -35.09116079 </i>
    <i name="e_wo_entrp">    -35.09116079 </i>
    <i name="e_0_energy">    -35.09116079 </i>
   </energy>
  </scstep>
  <scstep>
   <time name="dav">   10.31   10.32</time>
   <time name="total">   26.82   26.86</time>
   <energy>
    <i name="e_fr_energy">    -35.09167603 </i>
    <i name="e_wo_entrp">    -35.09167603 </i>
    <i name="e_0_energy">    -35.09167603 </i>
   </energy>
  </scstep>
  <scstep>
   <time name="dav">   11.57   11.59</time>
   <time name="total">   28.21   28.29</time>
   <energy>
    <i name="e_fr_energy">    -35.09080191 </i>
    <i name="e_wo_entrp">    -35.09080191 </i>
    <i name="e_0_energy">    -35.09080191 </i>
   </energy>
  </scstep>
  <scstep>
   <time name="dav">   10.67   10.69</time>
   <time name="total">   27.33   27.41</time>
   <energy>
    <i name="e_fr_energy">    -35.09076682 </i>
    <i name="e_wo_entrp">    -35.09076682 </i>
    <i name="e_0_energy">    -35.09076682 </i>
   </energy>
  </scstep>
  <scstep>
   <time name="dav">   10.77   10.79</time>
   <time name="total">   27.44   27.49</time>
   <energy>
    <i name="e_fr_energy">    -35.09075968 </i>
    <i name="e_wo_entrp">    -35.09075968 </i>
    <i name="e_0_energy">    -35.09075968 </i>
   </energy>
  </scstep>
  <scstep>
   <time name="dav">   11.50   11.52</time>
   <time name="total">   28.38   28.43</time>
   <energy>
    <i name="e_fr_energy">    -35.09062062 </i>
    <i name="e_wo_entrp">    -35.09062062 </i>
    <i name="e_0_energy">    -35.09062062 </i>
   </energy>
  </scstep>
  <scstep>
   <time name="dav">    9.96    9.98</time>
   <time name="total">   26.86   26.92</time>
   <energy>
    <i name="e_fr_energy">    -35.09099635 </i>
    <i name="e_wo_entrp">    -35.09099635 </i>
    <i name="e_0_energy">    -35.09099635 </i>
   </energy>
  </scstep>
  <scstep>
   <time name="dav">    9.74    9.76</time>
   <time name="total">   26.79   26.84</time>
   <energy>
    <i name="e_fr_energy">    -35.09134513 </i>
    <i name="e_wo_entrp">    -35.09134513 </i>
    <i name="e_0_energy">    -35.09134513 </i>
   </energy>
  </scstep>
  <scstep>
   <time name="dav">   11.24   11.26</time>
   <time name="total">   28.31   28.37</time>
   <energy>
    <i name="e_fr_energy">    -35.09175851 </i>
    <i name="e_wo_entrp">    -35.09175851 </i>
    <i name="e_0_energy">    -35.09175851 </i>
   </energy>
  </scstep>
  <scstep>
   <time name="dav">   11.47   11.51</time>
   <time name="total">   28.65   28.77</time>
   <energy>
    <i name="e_fr_energy">    -35.09179234 </i>
    <i name="e_wo_entrp">    -35.09179234 </i>
    <i name="e_0_energy">    -35.09179234 </i>
   </energy>
  </scstep>
  <scstep>
   <time name="dav">   10.91   10.94</time>
   <time name="total">   28.10   28.21</time>
   <energy>
    <i name="e_fr_energy">    -35.09188907 </i>
    <i name="e_wo_entrp">    -35.09188907 </i>
    <i name="e_0_energy">    -35.09188907 </i>
   </energy>
  </scstep>
  <scstep>
   <time name="dav">    9.92    9.95</time>
   <time name="total">   27.22   27.35</time>
   <energy>
    <i name="e_fr_energy">    -35.09197359 </i>
    <i name="e_wo_entrp">    -35.09197359 </i>
    <i name="e_0_energy">    -35.09197359 </i>
   </energy>
  </scstep>
  <scstep>
   <time name="dav">   10.34   10.38</time>
   <time name="total">   27.86   27.95</time>
   <energy>
    <i name="e_fr_energy">    -35.09201683 </i>
    <i name="e_wo_entrp">    -35.09201683 </i>
    <i name="e_0_energy">    -35.09201683 </i>
   </energy>
  </scstep>
  <scstep>
   <time name="dav">   11.60   11.63</time>
   <time name="total">   28.92   29.03</time>
   <energy>
    <i name="e_fr_energy">    -35.09201012 </i>
    <i name="e_wo_entrp">    -35.09201012 </i>
    <i name="e_0_energy">    -35.09201012 </i>
   </energy>
  </scstep>
  <scstep>
   <time name="dav">   10.34   10.35</time>
   <time name="total">   27.54   27.64</time>
   <energy>
    <i name="e_fr_energy">    -35.09204844 </i>
    <i name="e_wo_entrp">    -35.09204844 </i>
    <i name="e_0_energy">    -35.09204844 </i>
   </energy>
  </scstep>
  <scstep>
   <time name="dav">   10.60   10.62</time>
   <time name="total">   27.83   27.89</time>
   <energy>
    <i name="e_fr_energy">    -35.09206161 </i>
    <i name="e_wo_entrp">    -35.09206161 </i>
    <i name="e_0_energy">    -35.09206161 </i>
   </energy>
  </scstep>
  <scstep>
   <time name="dav">    7.69    7.71</time>
   <time name="total">   25.11   25.17</time>
   <energy>
    <i name="e_fr_energy">    -35.09206579 </i>
    <i name="e_wo_entrp">    -35.09206579 </i>
    <i name="e_0_energy">    -35.09206579 </i>
   </energy>
  </scstep>
  <scstep>
   <time name="dav">    7.52    7.53</time>
   <time name="total">   17.87   17.91</time>
   <energy>
    <i name="alphaZ">     19.16410503 </i>
    <i name="ewald">  10042.50333567 </i>
    <i name="hartreedc"> -23620.44389823 </i>
    <i name="XCdc">    507.00017401 </i>
    <i name="pawpsdc">  16719.83923990 </i>
    <i name="pawaedc"> -16416.42010813 </i>
    <i name="eentropy">     -0.00000000 </i>
    <i name="bandstr">  -2855.23985004 </i>
    <i name="atom">  15568.50493531 </i>
    <i name="e_fr_energy">    -35.09206649 </i>
    <i name="e_wo_entrp">    -35.09206649 </i>
    <i name="e_0_energy">    -35.09206649 </i>
   </energy>
  </scstep>
  <structure>
   <crystal>
    <varray name="basis" >
     <v>      17.00000000       0.00000000       0.00000000 </v>
     <v>       0.00000000      17.00000000       0.00000000 </v>
     <v>       0.00000000       0.00000000      17.00000000 </v>
    </varray>
    <i name="volume">   4913.00000000 </i>
    <varray name="rec_basis" >
     <v>       0.05882353       0.00000000       0.00000000 </v>
     <v>       0.00000000       0.05882353       0.00000000 </v>
     <v>       0.00000000       0.00000000       0.05882353 </v>
    </varray>
   </crystal>
   <varray name="positions" >
    <v>       0.93095888       0.95892606       0.93216512 </v>
    <v>       0.06813924       0.96069953       0.93243812 </v>
    <v>       0.00089441       0.08036712       0.93215229 </v>
    <v>       0.93096212       0.95893000       0.06784159 </v>
    <v>       0.06813941       0.96070365       0.06756818 </v>
    <v>       0.00090600       0.08037359       0.06783476 </v>
   </varray>
  </structure>
  <varray name="forces" >
   <v>       0.15758743       0.18359570       0.07547784 </v>
   <v>       0.09092567      -0.26203143       0.00749629 </v>
   <v>      -0.24834477       0.07918911       0.05628868 </v>
   <v>       0.15752179       0.18266698      -0.07509786 </v>
   <v>       0.09191307      -0.26191488      -0.00738754 </v>
   <v>      -0.24960319       0.07849452      -0.05677741 </v>
  </varray>
  <energy>
   <i name="e_fr_energy">    -35.09206649 </i>
   <i name="e_wo_entrp">    -35.09206649 </i>
   <i name="e_0_energy">     -0.00000000 </i>
  </energy>
  <time name="totalsc"> 1471.17 1474.97</time>
 </calculation>
 <calculation>
  <scstep>
   <time name="dav">    9.03    9.04</time>
   <time name="total">   24.08   24.22</time>
   <energy>
    <i name="alphaZ">     19.16410503 </i>
    <i name="ewald">  10048.61468678 </i>
    <i name="hartreedc"> -23626.56725373 </i>
    <i name="XCdc">    507.01279479 </i>
    <i name="pawpsdc">  16719.88418570 </i>
    <i name="pawaedc"> -16416.46449554 </i>
    <i name="eentropy">     -0.00000000 </i>
    <i name="bandstr">  -2855.17374653 </i>
    <i name="atom">  15568.50493531 </i>
    <i name="e_fr_energy">    -35.02478819 </i>
    <i name="e_wo_entrp">    -35.02478819 </i>
    <i name="e_0_energy">    -35.02478819 </i>
   </energy>
  </scstep>
  <scstep>
   <time name="dav">    9.58    9.60</time>
   <time name="total">   24.80   24.89</time>
   <energy>
    <i name="e_fr_energy">    -35.10014675 </i>
    <i name="e_wo_entrp">    -35.10014675 </i>
    <i name="e_0_energy">    -35.10014675 </i>
   </energy>
  </scstep>
  <scstep>
   <time name="dav">   11.65   11.67</time>
   <time name="total">   26.98   27.04</time>
   <energy>
    <i name="e_fr_energy">    -35.10230301 </i>
    <i name="e_wo_entrp">    -35.10230301 </i>
    <i name="e_0_energy">    -35.10230301 </i>
   </energy>
  </scstep>
  <scstep>
   <time name="dav">   11.21   11.23</time>
   <time name="total">   26.53   26.60</time>
   <energy>
    <i name="e_fr_energy">    -35.10244546 </i>
    <i name="e_wo_entrp">    -35.10244546 </i>
    <i name="e_0_energy">    -35.10244546 </i>
   </energy>
  </scstep>
  <scstep>
   <time name="dav">   10.63   10.66</time>
   <time name="total">   25.94   26.03</time>
   <energy>
    <i name="e_fr_energy">    -35.10264757 </i>
    <i name="e_wo_entrp">    -35.10264757 </i>
    <i name="e_0_energy">    -35.10264757 </i>
   </energy>
  </scstep>
  <scstep>
   <time name="dav">    9.84    9.86</time>
   <time name="total">   25.20   25.26</time>
   <energy>
    <i name="e_fr_energy">    -35.10399768 </i>
    <i name="e_wo_entrp">    -35.10399768 </i>
    <i name="e_0_energy">    -35.10399768 </i>
   </energy>
  </scstep>
  <scstep>
   <time name="dav">   11.80   11.83</time>
   <time name="total">   27.27   27.33</time>
   <energy>
    <i name="e_fr_energy">    -35.10384826 </i>
    <i name="e_wo_entrp">    -35.10384826 </i>
    <i name="e_0_energy">    -35.10384826 </i>
   </energy>
  </scstep>
  <scstep>
   <time name="dav">   10.54   10.57</time>
   <time name="total">   26.03   26.09</time>
   <energy>
    <i name="e_fr_energy">    -35.10494552 </i>
    <i name="e_wo_entrp">    -35.10494552 </i>
    <i name="e_0_energy">    -35.10494552 </i>
   </energy>
  </scstep>
  <scstep>
   <time name="dav">   11.12   11.15</time>
   <time name="total">   26.62   26.68</time>
   <energy>
    <i name="e_fr_energy">    -35.10504008 </i>
    <i name="e_wo_entrp">    -35.10504008 </i>
    <i name="e_0_energy">    -35.10504008 </i>
   </energy>
  </scstep>
  <scstep>
   <time name="dav">   12.23   12.26</time>
   <time name="total">   27.79   27.85</time>
   <energy>
    <i name="e_fr_energy">    -35.10497767 </i>
    <i name="e_wo_entrp">    -35.10497767 </i>
    <i name="e_0_energy">    -35.10497767 </i>
   </energy>
  </scstep>
  <scstep>
   <time name="dav">    9.19    9.21</time>
   <time name="total">   24.79   24.84</time>
   <energy>
    <i name="e_fr_energy">    -35.10497983 </i>
    <i name="e_wo_entrp">    -35.10497983 </i>
    <i name="e_0_energy">    -35.10497983 </i>
   </energy>
  </scstep>
  <scstep>
   <time name="dav">   10.09   10.11</time>
   <time name="total">   25.62   25.67</time>
   <energy>
    <i name="e_fr_energy">    -35.10510997 </i>
    <i name="e_wo_entrp">    -35.10510997 </i>
    <i name="e_0_energy">    -35.10510997 </i>
   </energy>
  </scstep>
  <scstep>
   <time name="dav">   11.58   11.61</time>
   <time name="total">   27.16   27.23</time>
   <energy>
    <i name="e_fr_energy">    -35.10511851 </i>
    <i name="e_wo_entrp">    -35.10511851 </i>
    <i name="e_0_energy">    -35.10511851 </i>
   </energy>
  </scstep>
  <scstep>
   <time name="dav">    8.30    8.32</time>
   <time name="total">   23.99   24.04</time>
   <energy>
    <i name="e_fr_energy">    -35.10512464 </i>
    <i name="e_wo_entrp">    -35.10512464 </i>
    <i name="e_0_energy">    -35.10512464 </i>
   </energy>
  </scstep>
  <scstep>
   <time name="dav">   10.47   10.50</time>
   <time name="total">   26.08   26.19</time>
   <energy>
    <i name="e_fr_energy">    -35.10512711 </i>
    <i name="e_wo_entrp">    -35.10512711 </i>
    <i name="e_0_energy">    -35.10512711 </i>
   </energy>
  </scstep>
  <scstep>
   <time name="dav">   10.22   10.25</time>
   <time name="total">   25.83   26.02</time>
   <energy>
    <i name="e_fr_energy">    -35.10515403 </i>
    <i name="e_wo_entrp">    -35.10515403 </i>
    <i name="e_0_energy">    -35.10515403 </i>
   </energy>
  </scstep>
  <scstep>
   <time name="dav">   11.14   11.17</time>
   <time name="total">   26.76   26.93</time>
   <energy>
    <i name="e_fr_energy">    -35.10516948 </i>
    <i name="e_wo_entrp">    -35.10516948 </i>
    <i name="e_0_energy">    -35.10516948 </i>
   </energy>
  </scstep>
  <scstep>
   <time name="dav">   10.21   10.23</time>
   <time name="total">   26.01   26.09</time>
   <energy>
    <i name="e_fr_energy">    -35.10518800 </i>
    <i name="e_wo_entrp">    -35.10518800 </i>
    <i name="e_0_energy">    -35.10518800 </i>
   </energy>
  </scstep>
  <scstep>
   <time name="dav">   10.17   10.18</time>
   <time name="total">   25.98   26.01</time>
   <energy>
    <i name="e_fr_energy">    -35.10521469 </i>
    <i name="e_wo_entrp">    -35.10521469 </i>
    <i name="e_0_energy">    -35.10521469 </i>
   </energy>
  </scstep>
  <scstep>
   <time name="dav">    9.53    9.54</time>
   <time name="total">   25.35   25.40</time>
   <energy>
    <i name="e_fr_energy">    -35.10522690 </i>
    <i name="e_wo_entrp">    -35.10522690 </i>
    <i name="e_0_energy">    -35.10522690 </i>
   </energy>
  </scstep>
  <scstep>
   <time name="dav">   11.10   11.12</time>
   <time name="total">   27.00   27.04</time>
   <energy>
    <i name="e_fr_energy">    -35.10523394 </i>
    <i name="e_wo_entrp">    -35.10523394 </i>
    <i name="e_0_energy">    -35.10523394 </i>
   </energy>
  </scstep>
  <scstep>
   <time name="dav">    9.06    9.08</time>
   <time name="total">   24.96   25.00</time>
   <energy>
    <i name="e_fr_energy">    -35.10523732 </i>
    <i name="e_wo_entrp">    -35.10523732 </i>
    <i name="e_0_energy">    -35.10523732 </i>
   </energy>
  </scstep>
  <scstep>
   <time name="dav">   10.22   10.24</time>
   <time name="total">   26.22   26.26</time>
   <energy>
    <i name="e_fr_energy">    -35.10524152 </i>
    <i name="e_wo_entrp">    -35.10524152 </i>
    <i name="e_0_energy">    -35.10524152 </i>
   </energy>
  </scstep>
  <scstep>
   <time name="dav">   10.00   10.02</time>
   <time name="total">   26.03   26.08</time>
   <energy>
    <i name="e_fr_energy">    -35.10524409 </i>
    <i name="e_wo_entrp">    -35.10524409 </i>
    <i name="e_0_energy">    -35.10524409 </i>
   </energy>
  </scstep>
  <scstep>
   <time name="dav">    6.60    6.62</time>
   <time name="total">   17.06   17.09</time>
   <energy>
    <i name="alphaZ">     19.16410503 </i>
    <i name="ewald">  10048.61468678 </i>
    <i name="hartreedc"> -23626.82953353 </i>
    <i name="XCdc">    507.01785438 </i>
    <i name="pawpsdc">  16718.93297772 </i>
    <i name="pawaedc"> -16415.52270077 </i>
    <i name="eentropy">     -0.00000000 </i>
    <i name="bandstr">  -2854.98756880 </i>
    <i name="atom">  15568.50493531 </i>
    <i name="e_fr_energy">    -35.10524387 </i>
    <i name="e_wo_entrp">    -35.10524387 </i>
    <i name="e_0_energy">    -35.10524387 </i>
   </energy>
  </scstep>
  <structure>
   <crystal>
    <varray name="basis" >
     <v>      17.00000000       0.00000000       0.00000000 </v>
     <v>       0.00000000      17.00000000       0.00000000 </v>
     <v>       0.00000000       0.00000000      17.00000000 </v>
    </varray>
    <i name="volume">   4913.00000000 </i>
    <varray name="rec_basis" >
     <v>       0.05882353       0.00000000       0.00000000 </v>
     <v>       0.00000000       0.05882353       0.00000000 </v>
     <v>       0.00000000       0.00000000       0.05882353 </v>
    </varray>
   </crystal>
   <varray name="positions" >
    <v>       0.93140608       0.95944707       0.93237931 </v>
    <v>       0.06839726       0.95995594       0.93245939 </v>
    <v>       0.00018966       0.08059184       0.93231203 </v>
    <v>       0.93140913       0.95944837       0.06762848 </v>
    <v>       0.06840024       0.95996038       0.06754721 </v>
    <v>       0.00019768       0.08059634       0.06767364 </v>
   </varray>
  </structure>
  <varray name="forces" >
   <v>       0.04333475       0.10424480      -0.02981923 </v>
   <v>       0.05068690      -0.06322077       0.00885766 </v>
   <v>      -0.09403232      -0.04135958      -0.01646429 </v>
   <v>       0.04438988       0.10661979       0.02958183 </v>
   <v>       0.05092658      -0.06219434      -0.00910131 </v>
   <v>      -0.09530578      -0.04408990       0.01694534 </v>
  </varray>
  <energy>
   <i name="e_fr_energy">    -35.10524387 </i>
   <i name="e_wo_entrp">    -35.10524387 </i>
   <i name="e_0_energy">     -0.00000000 </i>
  </energy>
  <time name="totalsc">  692.86  694.75</time>
 </calculation>
 <calculation>
  <scstep>
   <time name="dav">    9.12    9.14</time>
   <time name="total">   24.38   24.43</time>
   <energy>
    <i name="alphaZ">     19.16410503 </i>
    <i name="ewald">  10051.75396756 </i>
    <i name="hartreedc"> -23630.08534812 </i>
    <i name="XCdc">    507.02898014 </i>
    <i name="pawpsdc">  16718.56708682 </i>
    <i name="pawaedc"> -16415.15842056 </i>
    <i name="eentropy">     -0.00000000 </i>
    <i name="bandstr">  -2854.86279997 </i>
    <i name="atom">  15568.50493531 </i>
    <i name="e_fr_energy">    -35.08749378 </i>
    <i name="e_wo_entrp">    -35.08749378 </i>
    <i name="e_0_energy">    -35.08749378 </i>
   </energy>
  </scstep>
  <scstep>
   <time name="dav">    9.58    9.59</time>
   <time name="total">   24.86   24.93</time>
   <energy>
    <i name="e_fr_energy">    -35.10524020 </i>
    <i name="e_wo_entrp">    -35.10524020 </i>
    <i name="e_0_energy">    -35.10524020 </i>
   </energy>
  </scstep>
  <scstep>
   <time name="dav">   11.87   11.89</time>
   <time name="total">   27.19   27.26</time>
   <energy>
    <i name="e_fr_energy">    -35.10585810 </i>
    <i name="e_wo_entrp">    -35.10585810 </i>
    <i name="e_0_energy">    -35.10585810 </i>
   </energy>
  </scstep>
  <scstep>
   <time name="dav">   11.30   11.32</time>
   <time name="total">   26.58   26.63</time>
   <energy>
    <i name="e_fr_energy">    -35.10593864 </i>
    <i name="e_wo_entrp">    -35.10593864 </i>
    <i name="e_0_energy">    -35.10593864 </i>
   </energy>
  </scstep>
  <scstep>
   <time name="dav">   10.27   10.29</time>
   <time name="total">   25.51   25.60</time>
   <energy>
    <i name="e_fr_energy">    -35.10611437 </i>
    <i name="e_wo_entrp">    -35.10611437 </i>
    <i name="e_0_energy">    -35.10611437 </i>
   </energy>
  </scstep>
  <scstep>
   <time name="dav">    9.35    9.37</time>
   <time name="total">   24.70   24.76</time>
   <energy>
    <i name="e_fr_energy">    -35.10620935 </i>
    <i name="e_wo_entrp">    -35.10620935 </i>
    <i name="e_0_energy">    -35.10620935 </i>
   </energy>
  </scstep>
  <scstep>
   <time name="dav">   12.30   12.32</time>
   <time name="total">   27.59   27.70</time>
   <energy>
    <i name="e_fr_energy">    -35.10631103 </i>
    <i name="e_wo_entrp">    -35.10631103 </i>
    <i name="e_0_energy">    -35.10631103 </i>
   </energy>
  </scstep>
  <scstep>
   <time name="dav">    9.65    9.67</time>
   <time name="total">   24.97   25.08</time>
   <energy>
    <i name="e_fr_energy">    -35.10671547 </i>
    <i name="e_wo_entrp">    -35.10671547 </i>
    <i name="e_0_energy">    -35.10671547 </i>
   </energy>
  </scstep>
  <scstep>
   <time name="dav">   11.00   11.02</time>
   <time name="total">   26.46   26.52</time>
   <energy>
    <i name="e_fr_energy">    -35.10680895 </i>
    <i name="e_wo_entrp">    -35.10680895 </i>
    <i name="e_0_energy">    -35.10680895 </i>
   </energy>
  </scstep>
  <scstep>
   <time name="dav">   12.40   12.42</time>
   <time name="total">   27.81   27.86</time>
   <energy>
    <i name="e_fr_energy">    -35.10681576 </i>
    <i name="e_wo_entrp">    -35.10681576 </i>
    <i name="e_0_energy">    -35.10681576 </i>
   </energy>
  </scstep>
  <scstep>
   <time name="dav">    9.32    9.34</time>
   <time name="total">   24.79   24.83</time>
   <energy>
    <i name="e_fr_energy">    -35.10682917 </i>
    <i name="e_wo_entrp">    -35.10682917 </i>
    <i name="e_0_energy">    -35.10682917 </i>
   </energy>
  </scstep>
  <scstep>
   <time name="dav">   10.05   10.06</time>
   <time name="total">   25.61   25.65</time>
   <energy>
    <i name="e_fr_energy">    -35.10683042 </i>
    <i name="e_wo_entrp">    -35.10683042 </i>
    <i name="e_0_energy">    -35.10683042 </i>
   </energy>
  </scstep>
  <scstep>
   <time name="dav">   11.36   11.38</time>
   <time name="total">   26.90   26.94</time>
   <energy>
    <i name="e_fr_energy">    -35.10683917 </i>
    <i name="e_wo_entrp">    -35.10683917 </i>
    <i name="e_0_energy">    -35.10683917 </i>
   </energy>
  </scstep>
  <scstep>
   <time name="dav">    7.29    7.30</time>
   <time name="total">   22.91   22.95</time>
   <energy>
    <i name="e_fr_energy">    -35.10683564 </i>
    <i name="e_wo_entrp">    -35.10683564 </i>
    <i name="e_0_energy">    -35.10683564 </i>
   </energy>
  </scstep>
  <scstep>
   <time name="dav">    9.77    9.78</time>
   <time name="total">   25.36   25.41</time>
   <energy>
    <i name="e_fr_energy">    -35.10691970 </i>
    <i name="e_wo_entrp">    -35.10691970 </i>
    <i name="e_0_energy">    -35.10691970 </i>
   </energy>
  </scstep>
  <scstep>
   <time name="dav">   11.12   11.15</time>
   <time name="total">   26.73   26.82</time>
   <energy>
    <i name="e_fr_energy">    -35.10693550 </i>
    <i name="e_wo_entrp">    -35.10693550 </i>
    <i name="e_0_energy">    -35.10693550 </i>
   </energy>
  </scstep>
  <scstep>
   <time name="dav">    7.98    8.01</time>
   <time name="total">   23.50   23.63</time>
   <energy>
    <i name="e_fr_energy">    -35.10693668 </i>
    <i name="e_wo_entrp">    -35.10693668 </i>
    <i name="e_0_energy">    -35.10693668 </i>
   </energy>
  </scstep>
  <scstep>
   <time name="dav">    6.75    6.78</time>
   <time name="total">   22.45   22.54</time>
   <energy>
    <i name="e_fr_energy">    -35.10694581 </i>
    <i name="e_wo_entrp">    -35.10694581 </i>
    <i name="e_0_energy">    -35.10694581 </i>
   </energy>
  </scstep>
  <scstep>
   <time name="dav">   10.24   10.26</time>
   <time name="total">   25.94   26.04</time>
   <energy>
    <i name="e_fr_energy">    -35.10700169 </i>
    <i name="e_wo_entrp">    -35.10700169 </i>
    <i name="e_0_energy">    -35.10700169 </i>
   </energy>
  </scstep>
  <scstep>
   <time name="dav">   11.62   11.64</time>
   <time name="total">   27.46   27.53</time>
   <energy>
    <i name="e_fr_energy">    -35.10701863 </i>
    <i name="e_wo_entrp">    -35.10701863 </i>
    <i name="e_0_energy">    -35.10701863 </i>
   </energy>
  </scstep>
  <scstep>
   <time name="dav">   10.59   10.61</time>
   <time name="total">   26.44   26.49</time>
   <energy>
    <i name="e_fr_energy">    -35.10705692 </i>
    <i name="e_wo_entrp">    -35.10705692 </i>
    <i name="e_0_energy">    -35.10705692 </i>
   </energy>
  </scstep>
  <scstep>
   <time name="dav">   11.51   11.53</time>
   <time name="total">   27.39   27.44</time>
   <energy>
    <i name="e_fr_energy">    -35.10710069 </i>
    <i name="e_wo_entrp">    -35.10710069 </i>
    <i name="e_0_energy">    -35.10710069 </i>
   </energy>
  </scstep>
  <scstep>
   <time name="dav">    9.44    9.48</time>
   <time name="total">   25.17   25.33</time>
   <energy>
    <i name="e_fr_energy">    -35.10711375 </i>
    <i name="e_wo_entrp">    -35.10711375 </i>
    <i name="e_0_energy">    -35.10711375 </i>
   </energy>
  </scstep>
  <scstep>
   <time name="dav">    9.92    9.94</time>
   <time name="total">   25.83   25.92</time>
   <energy>
    <i name="e_fr_energy">    -35.10710288 </i>
    <i name="e_wo_entrp">    -35.10710288 </i>
    <i name="e_0_energy">    -35.10710288 </i>
   </energy>
  </scstep>
  <scstep>
   <time name="dav">   10.94   10.96</time>
   <time name="total">   26.84   26.93</time>
   <energy>
    <i name="e_fr_energy">    -35.10719864 </i>
    <i name="e_wo_entrp">    -35.10719864 </i>
    <i name="e_0_energy">    -35.10719864 </i>
   </energy>
  </scstep>
  <scstep>
   <time name="dav">   10.85   10.87</time>
   <time name="total">   26.86   26.90</time>
   <energy>
    <i name="e_fr_energy">    -35.10721126 </i>
    <i name="e_wo_entrp">    -35.10721126 </i>
    <i name="e_0_energy">    -35.10721126 </i>
   </energy>
  </scstep>
  <scstep>
   <time name="dav">   10.83   10.85</time>
   <time name="total">   26.81   26.96</time>
   <energy>
    <i name="e_fr_energy">    -35.10718137 </i>
    <i name="e_wo_entrp">    -35.10718137 </i>
    <i name="e_0_energy">    -35.10718137 </i>
   </energy>
  </scstep>
  <scstep>
   <time name="dav">   11.92   11.96</time>
   <time name="total">   27.89   28.04</time>
   <energy>
    <i name="e_fr_energy">    -35.10719234 </i>
    <i name="e_wo_entrp">    -35.10719234 </i>
    <i name="e_0_energy">    -35.10719234 </i>
   </energy>
  </scstep>
  <scstep>
   <time name="dav">    9.89    9.92</time>
   <time name="total">   25.97   26.05</time>
   <energy>
    <i name="e_fr_energy">    -35.10722601 </i>
    <i name="e_wo_entrp">    -35.10722601 </i>
    <i name="e_0_energy">    -35.10722601 </i>
   </energy>
  </scstep>
  <scstep>
   <time name="dav">   11.71   11.73</time>
   <time name="total">   27.77   27.90</time>
   <energy>
    <i name="e_fr_energy">    -35.10722885 </i>
    <i name="e_wo_entrp">    -35.10722885 </i>
    <i name="e_0_energy">    -35.10722885 </i>
   </energy>
  </scstep>
  <scstep>
   <time name="dav">   10.99   11.01</time>
   <time name="total">   27.10   27.17</time>
   <energy>
    <i name="e_fr_energy">    -35.10723231 </i>
    <i name="e_wo_entrp">    -35.10723231 </i>
    <i name="e_0_energy">    -35.10723231 </i>
   </energy>
  </scstep>
  <scstep>
   <time name="dav">    9.71    9.73</time>
   <time name="total">   25.94   25.99</time>
   <energy>
    <i name="e_fr_energy">    -35.10724317 </i>
    <i name="e_wo_entrp">    -35.10724317 </i>
    <i name="e_0_energy">    -35.10724317 </i>
   </energy>
  </scstep>
  <scstep>
   <time name="dav">    9.05    9.07</time>
   <time name="total">   25.34   25.45</time>
   <energy>
    <i name="e_fr_energy">    -35.10724630 </i>
    <i name="e_wo_entrp">    -35.10724630 </i>
    <i name="e_0_energy">    -35.10724630 </i>
   </energy>
  </scstep>
  <scstep>
   <time name="dav">   10.12   10.14</time>
   <time name="total">   26.59   26.64</time>
   <energy>
    <i name="e_fr_energy">    -35.10724241 </i>
    <i name="e_wo_entrp">    -35.10724241 </i>
    <i name="e_0_energy">    -35.10724241 </i>
   </energy>
  </scstep>
  <scstep>
   <time name="dav">    9.92    9.95</time>
   <time name="total">   26.36   26.49</time>
   <energy>
    <i name="e_fr_energy">    -35.10724175 </i>
    <i name="e_wo_entrp">    -35.10724175 </i>
    <i name="e_0_energy">    -35.10724175 </i>
   </energy>
  </scstep>
  <scstep>
   <time name="dav">    7.68    7.70</time>
   <time name="total">   24.18   24.23</time>
   <energy>
    <i name="e_fr_energy">    -35.10724778 </i>
    <i name="e_wo_entrp">    -35.10724778 </i>
    <i name="e_0_energy">    -35.10724778 </i>
   </energy>
  </scstep>
  <scstep>
   <time name="dav">    7.03    7.04</time>
   <time name="total">   17.40   17.44</time>
   <energy>
    <i name="alphaZ">     19.16410503 </i>
    <i name="ewald">  10051.75396756 </i>
    <i name="hartreedc"> -23632.18959560 </i>
    <i name="XCdc">    507.05914529 </i>
    <i name="pawpsdc">  16713.77673004 </i>
    <i name="pawaedc"> -16410.37608728 </i>
    <i name="eentropy">     -0.00000000 </i>
    <i name="bandstr">  -2852.80044853 </i>
    <i name="atom">  15568.50493531 </i>
    <i name="e_fr_energy">    -35.10724819 </i>
    <i name="e_wo_entrp">    -35.10724819 </i>
    <i name="e_0_energy">    -35.10724819 </i>
   </energy>
  </scstep>
  <structure>
   <crystal>
    <varray name="basis" >
     <v>      17.00000000       0.00000000       0.00000000 </v>
     <v>       0.00000000      17.00000000       0.00000000 </v>
     <v>       0.00000000       0.00000000      17.00000000 </v>
    </varray>
    <i name="volume">   4913.00000000 </i>
    <varray name="rec_basis" >
     <v>       0.05882353       0.00000000       0.00000000 </v>
     <v>       0.00000000       0.05882353       0.00000000 </v>
     <v>       0.00000000       0.00000000       0.05882353 </v>
    </varray>
   </crystal>
   <varray name="positions" >
    <v>       0.93162495       0.95970206       0.93248414 </v>
    <v>       0.06852355       0.95959201       0.93246980 </v>
    <v>      -0.00015526       0.08070182       0.93239021 </v>
    <v>       0.93162791       0.95970207       0.06752417 </v>
    <v>       0.06852790       0.95959662       0.06753695 </v>
    <v>      -0.00014899       0.08070536       0.06759479 </v>
   </varray>
  </structure>
  <varray name="forces" >
   <v>      -0.08382651       0.15427789      -0.07225021 </v>
   <v>       0.16564855       0.00828391       0.04364561 </v>
   <v>      -0.08138204      -0.16370332      -0.05817562 </v>
   <v>      -0.08278173       0.15585964       0.07186733 </v>
   <v>       0.16429368       0.00935013      -0.04454732 </v>
   <v>      -0.08195194      -0.16406825       0.05946020 </v>
  </varray>
  <energy>
   <i name="e_fr_energy">    -35.10724819 </i>
   <i name="e_wo_entrp">    -35.10724819 </i>
   <i name="e_0_energy">     -0.00000000 </i>
  </energy>
  <time name="totalsc"> 1004.95 1008.01</time>
 </calculation>
 <calculation>
  <scstep>
   <time name="dav">    8.99    9.01</time>
   <time name="total">   24.16   24.21</time>
   <energy>
    <i name="alphaZ">     19.16410503 </i>
    <i name="ewald">  10058.31326177 </i>
    <i name="hartreedc"> -23638.59073093 </i>
    <i name="XCdc">    507.07824126 </i>
    <i name="pawpsdc">  16713.71363778 </i>
    <i name="pawaedc"> -16410.31322217 </i>
    <i name="eentropy">     -0.00000000 </i>
    <i name="bandstr">  -2852.89751341 </i>
    <i name="atom">  15568.50493531 </i>
    <i name="e_fr_energy">    -35.02728536 </i>
    <i name="e_wo_entrp">    -35.02728536 </i>
    <i name="e_0_energy">    -35.02728536 </i>
   </energy>
  </scstep>
  <scstep>
   <time name="dav">    9.43    9.46</time>
   <time name="total">   24.63   24.69</time>
   <energy>
    <i name="e_fr_energy">    -35.09944843 </i>
    <i name="e_wo_entrp">    -35.09944843 </i>
    <i name="e_0_energy">    -35.09944843 </i>
   </energy>
  </scstep>
  <scstep>
   <time name="dav">   11.89   11.91</time>
   <time name="total">   27.08   27.13</time>
   <energy>
    <i name="e_fr_energy">    -35.10146404 </i>
    <i name="e_wo_entrp">    -35.10146404 </i>
    <i name="e_0_energy">    -35.10146404 </i>
   </energy>
  </scstep>
  <scstep>
   <time name="dav">   11.54   11.56</time>
   <time name="total">   26.75   26.80</time>
   <energy>
    <i name="e_fr_energy">    -35.10212571 </i>
    <i name="e_wo_entrp">    -35.10212571 </i>
    <i name="e_0_energy">    -35.10212571 </i>
   </energy>
  </scstep>
  <scstep>
   <time name="dav">   10.60   10.63</time>
   <time name="total">   25.78   25.83</time>
   <energy>
    <i name="e_fr_energy">    -35.10266135 </i>
    <i name="e_wo_entrp">    -35.10266135 </i>
    <i name="e_0_energy">    -35.10266135 </i>
   </energy>
  </scstep>
  <scstep>
   <time name="dav">   10.95   10.98</time>
   <time name="total">   26.20   26.25</time>
   <energy>
    <i name="e_fr_energy">    -35.10456479 </i>
    <i name="e_wo_entrp">    -35.10456479 </i>
    <i name="e_0_energy">    -35.10456479 </i>
   </energy>
  </scstep>
  <scstep>
   <time name="dav">   11.49   11.51</time>
   <time name="total">   26.74   26.80</time>
   <energy>
    <i name="e_fr_energy">    -35.10472964 </i>
    <i name="e_wo_entrp">    -35.10472964 </i>
    <i name="e_0_energy">    -35.10472964 </i>
   </energy>
  </scstep>
  <scstep>
   <time name="dav">   10.15   10.18</time>
   <time name="total">   25.42   25.48</time>
   <energy>
    <i name="e_fr_energy">    -35.10533249 </i>
    <i name="e_wo_entrp">    -35.10533249 </i>
    <i name="e_0_energy">    -35.10533249 </i>
   </energy>
  </scstep>
  <scstep>
   <time name="dav">   11.13   11.15</time>
   <time name="total">   26.34   26.41</time>
   <energy>
    <i name="e_fr_energy">    -35.10720804 </i>
    <i name="e_wo_entrp">    -35.10720804 </i>
    <i name="e_0_energy">    -35.10720804 </i>
   </energy>
  </scstep>
  <scstep>
   <time name="dav">   12.32   12.35</time>
   <time name="total">   27.61   27.66</time>
   <energy>
    <i name="e_fr_energy">    -35.10746410 </i>
    <i name="e_wo_entrp">    -35.10746410 </i>
    <i name="e_0_energy">    -35.10746410 </i>
   </energy>
  </scstep>
  <scstep>
   <time name="dav">   10.75   10.77</time>
   <time name="total">   26.02   26.13</time>
   <energy>
    <i name="e_fr_energy">    -35.10768167 </i>
    <i name="e_wo_entrp">    -35.10768167 </i>
    <i name="e_0_energy">    -35.10768167 </i>
   </energy>
  </scstep>
  <scstep>
   <time name="dav">   11.18   11.20</time>
   <time name="total">   26.63   26.69</time>
   <energy>
    <i name="e_fr_energy">    -35.10840140 </i>
    <i name="e_wo_entrp">    -35.10840140 </i>
    <i name="e_0_energy">    -35.10840140 </i>
   </energy>
  </scstep>
  <scstep>
   <time name="dav">    9.40    9.42</time>
   <time name="total">   24.83   24.88</time>
   <energy>
    <i name="e_fr_energy">    -35.10841477 </i>
    <i name="e_wo_entrp">    -35.10841477 </i>
    <i name="e_0_energy">    -35.10841477 </i>
   </energy>
  </scstep>
  <scstep>
   <time name="dav">    9.39    9.41</time>
   <time name="total">   24.84   24.90</time>
   <energy>
    <i name="e_fr_energy">    -35.10831404 </i>
    <i name="e_wo_entrp">    -35.10831404 </i>
    <i name="e_0_energy">    -35.10831404 </i>
   </energy>
  </scstep>
  <scstep>
   <time name="dav">   10.28   10.30</time>
   <time name="total">   25.76   25.81</time>
   <energy>
    <i name="e_fr_energy">    -35.10811928 </i>
    <i name="e_wo_entrp">    -35.10811928 </i>
    <i name="e_0_energy">    -35.10811928 </i>
   </energy>
  </scstep>
  <scstep>
   <time name="dav">   10.28   10.30</time>
   <time name="total">   25.86   25.92</time>
   <energy>
    <i name="e_fr_energy">    -35.10852345 </i>
    <i name="e_wo_entrp">    -35.10852345 </i>
    <i name="e_0_energy">    -35.10852345 </i>
   </energy>
  </scstep>
  <scstep>
   <time name="dav">    9.67    9.70</time>
   <time name="total">   25.14   25.19</time>
   <energy>
    <i name="e_fr_energy">    -35.10824495 </i>
    <i name="e_wo_entrp">    -35.10824495 </i>
    <i name="e_0_energy">    -35.10824495 </i>
   </energy>
  </scstep>
  <scstep>
   <time name="dav">    9.68    9.70</time>
   <time name="total">   25.29   25.34</time>
   <energy>
    <i name="e_fr_energy">    -35.10857089 </i>
    <i name="e_wo_entrp">    -35.10857089 </i>
    <i name="e_0_energy">    -35.10857089 </i>
   </energy>
  </scstep>
  <scstep>
   <time name="dav">   11.12   11.14</time>
   <time name="total">   26.63   26.72</time>
   <energy>
    <i name="e_fr_energy">    -35.10823932 </i>
    <i name="e_wo_entrp">    -35.10823932 </i>
    <i name="e_0_energy">    -35.10823932 </i>
   </energy>
  </scstep>
  <scstep>
   <time name="dav">   11.05   11.07</time>
   <time name="total">   26.65   26.76</time>
   <energy>
    <i name="e_fr_energy">    -35.10911361 </i>
    <i name="e_wo_entrp">    -35.10911361 </i>
    <i name="e_0_energy">    -35.10911361 </i>
   </energy>
  </scstep>
  <scstep>
   <time name="dav">   12.04   12.06</time>
   <time name="total">   27.74   27.83</time>
   <energy>
    <i name="e_fr_energy">    -35.10929266 </i>
    <i name="e_wo_entrp">    -35.10929266 </i>
    <i name="e_0_energy">    -35.10929266 </i>
   </energy>
  </scstep>
  <scstep>
   <time name="dav">   11.86   11.88</time>
   <time name="total">   27.55   27.68</time>
   <energy>
    <i name="e_fr_energy">    -35.10967547 </i>
    <i name="e_wo_entrp">    -35.10967547 </i>
    <i name="e_0_energy">    -35.10967547 </i>
   </energy>
  </scstep>
  <scstep>
   <time name="dav">   10.70   10.72</time>
   <time name="total">   26.42   26.46</time>
   <energy>
    <i name="e_fr_energy">    -35.10988892 </i>
    <i name="e_wo_entrp">    -35.10988892 </i>
    <i name="e_0_energy">    -35.10988892 </i>
   </energy>
  </scstep>
  <scstep>
   <time name="dav">   11.53   11.54</time>
   <time name="total">   27.35   27.41</time>
   <energy>
    <i name="e_fr_energy">    -35.11014762 </i>
    <i name="e_wo_entrp">    -35.11014762 </i>
    <i name="e_0_energy">    -35.11014762 </i>
   </energy>
  </scstep>
  <scstep>
   <time name="dav">   12.00   12.02</time>
   <time name="total">   27.93   27.98</time>
   <energy>
    <i name="e_fr_energy">    -35.11022537 </i>
    <i name="e_wo_entrp">    -35.11022537 </i>
    <i name="e_0_energy">    -35.11022537 </i>
   </energy>
  </scstep>
  <scstep>
   <time name="dav">   11.07   11.09</time>
   <time name="total">   26.96   27.02</time>
   <energy>
    <i name="e_fr_energy">    -35.11041186 </i>
    <i name="e_wo_entrp">    -35.11041186 </i>
    <i name="e_0_energy">    -35.11041186 </i>
   </energy>
  </scstep>
  <scstep>
   <time name="dav">   11.11   11.13</time>
   <time name="total">   27.02   27.10</time>
   <energy>
    <i name="e_fr_energy">    -35.11061374 </i>
    <i name="e_wo_entrp">    -35.11061374 </i>
    <i name="e_0_energy">    -35.11061374 </i>
   </energy>
  </scstep>
  <scstep>
   <time name="dav">   10.05   10.07</time>
   <time name="total">   25.95   26.03</time>
   <energy>
    <i name="e_fr_energy">    -35.11051757 </i>
    <i name="e_wo_entrp">    -35.11051757 </i>
    <i name="e_0_energy">    -35.11051757 </i>
   </energy>
  </scstep>
  <scstep>
   <time name="dav">   10.95   10.96</time>
   <time name="total">   27.03   27.08</time>
   <energy>
    <i name="e_fr_energy">    -35.11052774 </i>
    <i name="e_wo_entrp">    -35.11052774 </i>
    <i name="e_0_energy">    -35.11052774 </i>
   </energy>
  </scstep>
  <scstep>
   <time name="dav">    8.85    8.86</time>
   <time name="total">   24.98   25.03</time>
   <energy>
    <i name="e_fr_energy">    -35.11053059 </i>
    <i name="e_wo_entrp">    -35.11053059 </i>
    <i name="e_0_energy">    -35.11053059 </i>
   </energy>
  </scstep>
  <scstep>
   <time name="dav">   10.80   10.82</time>
   <time name="total">   27.04   27.08</time>
   <energy>
    <i name="e_fr_energy">    -35.11076748 </i>
    <i name="e_wo_entrp">    -35.11076748 </i>
    <i name="e_0_energy">    -35.11076748 </i>
   </energy>
  </scstep>
  <scstep>
   <time name="dav">    9.02    9.04</time>
   <time name="total">   25.27   25.33</time>
   <energy>
    <i name="e_fr_energy">    -35.11078245 </i>
    <i name="e_wo_entrp">    -35.11078245 </i>
    <i name="e_0_energy">    -35.11078245 </i>
   </energy>
  </scstep>
  <scstep>
   <time name="dav">   10.57   10.58</time>
   <time name="total">   26.94   26.98</time>
   <energy>
    <i name="e_fr_energy">    -35.11053711 </i>
    <i name="e_wo_entrp">    -35.11053711 </i>
    <i name="e_0_energy">    -35.11053711 </i>
   </energy>
  </scstep>
  <scstep>
   <time name="dav">   11.87   11.89</time>
   <time name="total">   28.34   28.39</time>
   <energy>
    <i name="e_fr_energy">    -35.11001479 </i>
    <i name="e_wo_entrp">    -35.11001479 </i>
    <i name="e_0_energy">    -35.11001479 </i>
   </energy>
  </scstep>
  <scstep>
   <time name="dav">   11.59   11.61</time>
   <time name="total">   28.10   28.14</time>
   <energy>
    <i name="e_fr_energy">    -35.10965012 </i>
    <i name="e_wo_entrp">    -35.10965012 </i>
    <i name="e_0_energy">    -35.10965012 </i>
   </energy>
  </scstep>
  <scstep>
   <time name="dav">   11.01   11.03</time>
   <time name="total">   27.60   27.65</time>
   <energy>
    <i name="e_fr_energy">    -35.10872528 </i>
    <i name="e_wo_entrp">    -35.10872528 </i>
    <i name="e_0_energy">    -35.10872528 </i>
   </energy>
  </scstep>
  <scstep>
   <time name="dav">   12.06   12.08</time>
   <time name="total">   28.66   28.74</time>
   <energy>
    <i name="e_fr_energy">    -35.10906415 </i>
    <i name="e_wo_entrp">    -35.10906415 </i>
    <i name="e_0_energy">    -35.10906415 </i>
   </energy>
  </scstep>
  <scstep>
   <time name="dav">   11.46   11.48</time>
   <time name="total">   28.20   28.31</time>
   <energy>
    <i name="e_fr_energy">    -35.10872865 </i>
    <i name="e_wo_entrp">    -35.10872865 </i>
    <i name="e_0_energy">    -35.10872865 </i>
   </energy>
  </scstep>
  <scstep>
   <time name="dav">   10.81   10.83</time>
   <time name="total">   27.65   27.69</time>
   <energy>
    <i name="e_fr_energy">    -35.10491951 </i>
    <i name="e_wo_entrp">    -35.10491951 </i>
    <i name="e_0_energy">    -35.10491951 </i>
   </energy>
  </scstep>
  <scstep>
   <time name="dav">    9.04    9.05</time>
   <time name="total">   25.93   25.96</time>
   <energy>
    <i name="e_fr_energy">    -35.10785913 </i>
    <i name="e_wo_entrp">    -35.10785913 </i>
    <i name="e_0_energy">    -35.10785913 </i>
   </energy>
  </scstep>
  <scstep>
   <time name="dav">   11.74   11.76</time>
   <time name="total">   28.72   28.77</time>
   <energy>
    <i name="e_fr_energy">    -35.10815670 </i>
    <i name="e_wo_entrp">    -35.10815670 </i>
    <i name="e_0_energy">    -35.10815670 </i>
   </energy>
  </scstep>
  <scstep>
   <time name="dav">   11.05   11.07</time>
   <time name="total">   28.01   28.08</time>
   <energy>
    <i name="e_fr_energy">    -35.10836957 </i>
    <i name="e_wo_entrp">    -35.10836957 </i>
    <i name="e_0_energy">    -35.10836957 </i>
   </energy>
  </scstep>
  <scstep>
   <time name="dav">   11.27   11.30</time>
   <time name="total">   28.14   28.35</time>
   <energy>
    <i name="e_fr_energy">    -35.10792700 </i>
    <i name="e_wo_entrp">    -35.10792700 </i>
    <i name="e_0_energy">    -35.10792700 </i>
   </energy>
  </scstep>
  <scstep>
   <time name="dav">   12.29   12.31</time>
   <time name="total">   29.33   29.44</time>
   <energy>
    <i name="e_fr_energy">    -35.10929408 </i>
    <i name="e_wo_entrp">    -35.10929408 </i>
    <i name="e_0_energy">    -35.10929408 </i>
   </energy>
  </scstep>
  <scstep>
   <time name="dav">    9.02    9.03</time>
   <time name="total">   26.10   26.18</time>
   <energy>
    <i name="e_fr_energy">    -35.10979222 </i>
    <i name="e_wo_entrp">    -35.10979222 </i>
    <i name="e_0_energy">    -35.10979222 </i>
   </energy>
  </scstep>
  <scstep>
   <time name="dav">   11.23   11.25</time>
   <time name="total">   28.33   28.43</time>
   <energy>
    <i name="e_fr_energy">    -35.10982835 </i>
    <i name="e_wo_entrp">    -35.10982835 </i>
    <i name="e_0_energy">    -35.10982835 </i>
   </energy>
  </scstep>
  <scstep>
   <time name="dav">   11.42   11.44</time>
   <time name="total">   28.31   28.36</time>
   <energy>
    <i name="e_fr_energy">    -35.11000585 </i>
    <i name="e_wo_entrp">    -35.11000585 </i>
    <i name="e_0_energy">    -35.11000585 </i>
   </energy>
  </scstep>
  <scstep>
   <time name="dav">   10.98   11.00</time>
   <time name="total">   27.97   28.02</time>
   <energy>
    <i name="e_fr_energy">    -35.10991665 </i>
    <i name="e_wo_entrp">    -35.10991665 </i>
    <i name="e_0_energy">    -35.10991665 </i>
   </energy>
  </scstep>
  <scstep>
   <time name="dav">    9.88    9.89</time>
   <time name="total">   26.93   26.98</time>
   <energy>
    <i name="e_fr_energy">    -35.11094304 </i>
    <i name="e_wo_entrp">    -35.11094304 </i>
    <i name="e_0_energy">    -35.11094304 </i>
   </energy>
  </scstep>
  <scstep>
   <time name="dav">   10.07   10.09</time>
   <time name="total">   27.22   27.31</time>
   <energy>
    <i name="e_fr_energy">    -35.11074338 </i>
    <i name="e_wo_entrp">    -35.11074338 </i>
    <i name="e_0_energy">    -35.11074338 </i>
   </energy>
  </scstep>
  <scstep>
   <time name="dav">   11.22   11.24</time>
   <time name="total">   28.34   28.39</time>
   <energy>
    <i name="e_fr_energy">    -35.11072020 </i>
    <i name="e_wo_entrp">    -35.11072020 </i>
    <i name="e_0_energy">    -35.11072020 </i>
   </energy>
  </scstep>
  <scstep>
   <time name="dav">   10.91   10.93</time>
   <time name="total">   27.90   27.97</time>
   <energy>
    <i name="e_fr_energy">    -35.10927156 </i>
    <i name="e_wo_entrp">    -35.10927156 </i>
    <i name="e_0_energy">    -35.10927156 </i>
   </energy>
  </scstep>
  <scstep>
   <time name="dav">   12.29   12.32</time>
   <time name="total">   29.21   29.27</time>
   <energy>
    <i name="e_fr_energy">    -35.10944060 </i>
    <i name="e_wo_entrp">    -35.10944060 </i>
    <i name="e_0_energy">    -35.10944060 </i>
   </energy>
  </scstep>
  <scstep>
   <time name="dav">   10.93   10.95</time>
   <time name="total">   28.05   28.11</time>
   <energy>
    <i name="e_fr_energy">    -35.10902361 </i>
    <i name="e_wo_entrp">    -35.10902361 </i>
    <i name="e_0_energy">    -35.10902361 </i>
   </energy>
  </scstep>
  <scstep>
   <time name="dav">   11.87   11.89</time>
   <time name="total">   29.06   29.18</time>
   <energy>
    <i name="e_fr_energy">    -35.10905297 </i>
    <i name="e_wo_entrp">    -35.10905297 </i>
    <i name="e_0_energy">    -35.10905297 </i>
   </energy>
  </scstep>
  <scstep>
   <time name="dav">   10.80   10.83</time>
   <time name="total">   27.93   27.98</time>
   <energy>
    <i name="e_fr_energy">    -35.10915515 </i>
    <i name="e_wo_entrp">    -35.10915515 </i>
    <i name="e_0_energy">    -35.10915515 </i>
   </energy>
  </scstep>
  <scstep>
   <time name="dav">   11.12   11.15</time>
   <time name="total">   28.02   28.07</time>
   <energy>
    <i name="e_fr_energy">    -35.10321263 </i>
    <i name="e_wo_entrp">    -35.10321263 </i>
    <i name="e_0_energy">    -35.10321263 </i>
   </energy>
  </scstep>
  <scstep>
   <time name="dav">    9.89    9.91</time>
   <time name="total">   26.92   26.98</time>
   <energy>
    <i name="e_fr_energy">    -35.10644149 </i>
    <i name="e_wo_entrp">    -35.10644149 </i>
    <i name="e_0_energy">    -35.10644149 </i>
   </energy>
  </scstep>
  <scstep>
   <time name="dav">   12.26   12.28</time>
   <time name="total">   29.37   29.43</time>
   <energy>
    <i name="e_fr_energy">    -35.10650208 </i>
    <i name="e_wo_entrp">    -35.10650208 </i>
    <i name="e_0_energy">    -35.10650208 </i>
   </energy>
  </scstep>
  <scstep>
   <time name="dav">   11.60   11.62</time>
   <time name="total">   28.75   28.82</time>
   <energy>
    <i name="e_fr_energy">    -35.10612758 </i>
    <i name="e_wo_entrp">    -35.10612758 </i>
    <i name="e_0_energy">    -35.10612758 </i>
   </energy>
  </scstep>
  <scstep>
   <time name="dav">    9.33    9.35</time>
   <time name="total">   26.33   26.42</time>
   <energy>
    <i name="e_fr_energy">    -35.10614394 </i>
    <i name="e_wo_entrp">    -35.10614394 </i>
    <i name="e_0_energy">    -35.10614394 </i>
   </energy>
  </scstep>
  <scstep>
   <time name="dav">   11.01   11.02</time>
   <time name="total">   27.96   28.01</time>
   <energy>
    <i name="e_fr_energy">    -35.10582838 </i>
    <i name="e_wo_entrp">    -35.10582838 </i>
    <i name="e_0_energy">    -35.10582838 </i>
   </energy>
  </scstep>
  <scstep>
   <time name="dav">   11.03   11.05</time>
   <time name="total">   28.09   28.14</time>
   <energy>
    <i name="e_fr_energy">    -35.10699959 </i>
    <i name="e_wo_entrp">    -35.10699959 </i>
    <i name="e_0_energy">    -35.10699959 </i>
   </energy>
  </scstep>
  <scstep>
   <time name="dav">   11.87   11.89</time>
   <time name="total">   29.11   29.16</time>
   <energy>
    <i name="e_fr_energy">    -35.10732671 </i>
    <i name="e_wo_entrp">    -35.10732671 </i>
    <i name="e_0_energy">    -35.10732671 </i>
   </energy>
  </scstep>
  <scstep>
   <time name="dav">   11.16   11.18</time>
   <time name="total">   28.38   28.46</time>
   <energy>
    <i name="e_fr_energy">    -35.10820628 </i>
    <i name="e_wo_entrp">    -35.10820628 </i>
    <i name="e_0_energy">    -35.10820628 </i>
   </energy>
  </scstep>
  <scstep>
   <time name="dav">   12.53   12.55</time>
   <time name="total">   29.80   29.86</time>
   <energy>
    <i name="e_fr_energy">    -35.10877653 </i>
    <i name="e_wo_entrp">    -35.10877653 </i>
    <i name="e_0_energy">    -35.10877653 </i>
   </energy>
  </scstep>
  <scstep>
   <time name="dav">    9.13    9.15</time>
   <time name="total">   26.26   26.31</time>
   <energy>
    <i name="e_fr_energy">    -35.10889095 </i>
    <i name="e_wo_entrp">    -35.10889095 </i>
    <i name="e_0_energy">    -35.10889095 </i>
   </energy>
  </scstep>
  <scstep>
   <time name="dav">   11.64   11.66</time>
   <time name="total">   28.89   28.94</time>
   <energy>
    <i name="e_fr_energy">    -35.10893754 </i>
    <i name="e_wo_entrp">    -35.10893754 </i>
    <i name="e_0_energy">    -35.10893754 </i>
   </energy>
  </scstep>
  <scstep>
   <time name="dav">   11.09   11.11</time>
   <time name="total">   28.33   28.40</time>
   <energy>
    <i name="e_fr_energy">    -35.10865795 </i>
    <i name="e_wo_entrp">    -35.10865795 </i>
    <i name="e_0_energy">    -35.10865795 </i>
   </energy>
  </scstep>
  <scstep>
   <time name="dav">   10.84   10.85</time>
   <time name="total">   28.11   28.15</time>
   <energy>
    <i name="e_fr_energy">    -35.10849774 </i>
    <i name="e_wo_entrp">    -35.10849774 </i>
    <i name="e_0_energy">    -35.10849774 </i>
   </energy>
  </scstep>
  <scstep>
   <time name="dav">    9.97    9.99</time>
   <time name="total">   27.20   27.26</time>
   <energy>
    <i name="e_fr_energy">    -35.10970122 </i>
    <i name="e_wo_entrp">    -35.10970122 </i>
    <i name="e_0_energy">    -35.10970122 </i>
   </energy>
  </scstep>
  <scstep>
   <time name="dav">   10.98   10.99</time>
   <time name="total">   28.05   28.09</time>
   <energy>
    <i name="e_fr_energy">    -35.10929537 </i>
    <i name="e_wo_entrp">    -35.10929537 </i>
    <i name="e_0_energy">    -35.10929537 </i>
   </energy>
  </scstep>
  <scstep>
   <time name="dav">    9.10    9.11</time>
   <time name="total">   26.21   26.28</time>
   <energy>
    <i name="e_fr_energy">    -35.10950210 </i>
    <i name="e_wo_entrp">    -35.10950210 </i>
    <i name="e_0_energy">    -35.10950210 </i>
   </energy>
  </scstep>
  <scstep>
   <time name="dav">    9.36    9.38</time>
   <time name="total">   26.60   26.65</time>
   <energy>
    <i name="e_fr_energy">    -35.10950861 </i>
    <i name="e_wo_entrp">    -35.10950861 </i>
    <i name="e_0_energy">    -35.10950861 </i>
   </energy>
  </scstep>
  <scstep>
   <time name="dav">    6.22    6.23</time>
   <time name="total">   23.52   23.63</time>
   <energy>
    <i name="e_fr_energy">    -35.10951232 </i>
    <i name="e_wo_entrp">    -35.10951232 </i>
    <i name="e_0_energy">    -35.10951232 </i>
   </energy>
  </scstep>
  <scstep>
   <time name="dav">    5.73    5.74</time>
   <time name="total">   16.18   16.22</time>
   <energy>
    <i name="alphaZ">     19.16410503 </i>
    <i name="ewald">  10058.31326177 </i>
    <i name="hartreedc"> -23642.52616064 </i>
    <i name="XCdc">    507.08554187 </i>
    <i name="pawpsdc">  16695.93787777 </i>
    <i name="pawaedc"> -16392.54906720 </i>
    <i name="eentropy">     -0.00000000 </i>
    <i name="bandstr">  -2849.04000641 </i>
    <i name="atom">  15568.50493531 </i>
    <i name="e_fr_energy">    -35.10951250 </i>
    <i name="e_wo_entrp">    -35.10951250 </i>
    <i name="e_0_energy">    -35.10951250 </i>
   </energy>
  </scstep>
  <structure>
   <crystal>
    <varray name="basis" >
     <v>      17.00000000       0.00000000       0.00000000 </v>
     <v>       0.00000000      17.00000000       0.00000000 </v>
     <v>       0.00000000       0.00000000      17.00000000 </v>
    </varray>
    <i name="volume">   4913.00000000 </i>
    <varray name="rec_basis" >
     <v>       0.05882353       0.00000000       0.00000000 </v>
     <v>       0.00000000       0.05882353       0.00000000 </v>
     <v>       0.00000000       0.00000000       0.05882353 </v>
    </varray>
   </crystal>
   <varray name="positions" >
    <v>       0.93206269       0.96021204       0.93269380 </v>
    <v>       0.06877612       0.95886415       0.93249062 </v>
    <v>      -0.00084510       0.08092179       0.93254656 </v>
    <v>       0.93206547       0.96020948       0.06731557 </v>
    <v>       0.06878321       0.95886909       0.06751643 </v>
    <v>      -0.00084233       0.08092340       0.06743707 </v>
   </varray>
  </structure>
  <varray name="forces" >
   <v>      -0.14095212       0.29807064      -0.21928192 </v>
   <v>       0.26844496       0.06596844       0.09365673 </v>
   <v>      -0.12733529      -0.36596362      -0.08996075 </v>
   <v>      -0.13994894       0.30016902       0.21840733 </v>
   <v>       0.26658160       0.06667345      -0.09484976 </v>
   <v>      -0.12679021      -0.36491793       0.09202836 </v>
  </varray>
  <energy>
   <i name="e_fr_energy">    -35.10951250 </i>
   <i name="e_wo_entrp">    -35.10951250 </i>
   <i name="e_0_energy">     -0.00000000 </i>
  </energy>
  <time name="totalsc"> 2106.92 2112.04</time>
 </calculation>
 <calculation>
  <scstep>
   <time name="dav">    9.07    9.09</time>
   <time name="total">   24.34   24.43</time>
   <energy>
    <i name="alphaZ">     19.16410503 </i>
    <i name="ewald">  10062.39722115 </i>
    <i name="hartreedc"> -23646.72970850 </i>
    <i name="XCdc">    507.09960494 </i>
    <i name="pawpsdc">  16695.50772624 </i>
    <i name="pawaedc"> -16392.11784682 </i>
    <i name="eentropy">     -0.00000000 </i>
    <i name="bandstr">  -2848.91946346 </i>
    <i name="atom">  15568.50493531 </i>
    <i name="e_fr_energy">    -35.09342610 </i>
    <i name="e_wo_entrp">    -35.09342610 </i>
    <i name="e_0_energy">    -35.09342610 </i>
   </energy>
  </scstep>
  <scstep>
   <time name="dav">    9.63    9.65</time>
   <time name="total">   24.97   25.02</time>
   <energy>
    <i name="e_fr_energy">    -35.11652299 </i>
    <i name="e_wo_entrp">    -35.11652299 </i>
    <i name="e_0_energy">    -35.11652299 </i>
   </energy>
  </scstep>
  <scstep>
   <time name="dav">   11.84   11.86</time>
   <time name="total">   27.18   27.24</time>
   <energy>
    <i name="e_fr_energy">    -35.11733853 </i>
    <i name="e_wo_entrp">    -35.11733853 </i>
    <i name="e_0_energy">    -35.11733853 </i>
   </energy>
  </scstep>
  <scstep>
   <time name="dav">   12.02   12.04</time>
   <time name="total">   27.30   27.40</time>
   <energy>
    <i name="e_fr_energy">    -35.11783492 </i>
    <i name="e_wo_entrp">    -35.11783492 </i>
    <i name="e_0_energy">    -35.11783492 </i>
   </energy>
  </scstep>
  <scstep>
   <time name="dav">   11.33   11.35</time>
   <time name="total">   26.69   26.78</time>
   <energy>
    <i name="e_fr_energy">    -35.11844375 </i>
    <i name="e_wo_entrp">    -35.11844375 </i>
    <i name="e_0_energy">    -35.11844375 </i>
   </energy>
  </scstep>
  <scstep>
   <time name="dav">   11.85   11.88</time>
   <time name="total">   27.21   27.27</time>
   <energy>
    <i name="e_fr_energy">    -35.11847228 </i>
    <i name="e_wo_entrp">    -35.11847228 </i>
    <i name="e_0_energy">    -35.11847228 </i>
   </energy>
  </scstep>
  <scstep>
   <time name="dav">   10.89   10.91</time>
   <time name="total">   26.16   26.28</time>
   <energy>
    <i name="e_fr_energy">    -35.11853195 </i>
    <i name="e_wo_entrp">    -35.11853195 </i>
    <i name="e_0_energy">    -35.11853195 </i>
   </energy>
  </scstep>
  <scstep>
   <time name="dav">   10.84   10.86</time>
   <time name="total">   26.18   26.23</time>
   <energy>
    <i name="e_fr_energy">    -35.11905592 </i>
    <i name="e_wo_entrp">    -35.11905592 </i>
    <i name="e_0_energy">    -35.11905592 </i>
   </energy>
  </scstep>
  <scstep>
   <time name="dav">    9.55    9.57</time>
   <time name="total">   24.89   24.94</time>
   <energy>
    <i name="e_fr_energy">    -35.11893317 </i>
    <i name="e_wo_entrp">    -35.11893317 </i>
    <i name="e_0_energy">    -35.11893317 </i>
   </energy>
  </scstep>
  <scstep>
   <time name="dav">   10.98   11.00</time>
   <time name="total">   26.37   26.48</time>
   <energy>
    <i name="e_fr_energy">    -35.11891490 </i>
    <i name="e_wo_entrp">    -35.11891490 </i>
    <i name="e_0_energy">    -35.11891490 </i>
   </energy>
  </scstep>
  <scstep>
   <time name="dav">   11.17   11.19</time>
   <time name="total">   26.51   26.68</time>
   <energy>
    <i name="e_fr_energy">    -35.11883332 </i>
    <i name="e_wo_entrp">    -35.11883332 </i>
    <i name="e_0_energy">    -35.11883332 </i>
   </energy>
  </scstep>
  <scstep>
   <time name="dav">   10.90   10.92</time>
   <time name="total">   26.36   26.41</time>
   <energy>
    <i name="e_fr_energy">    -35.11873452 </i>
    <i name="e_wo_entrp">    -35.11873452 </i>
    <i name="e_0_energy">    -35.11873452 </i>
   </energy>
  </scstep>
  <scstep>
   <time name="dav">   10.67   10.69</time>
   <time name="total">   26.13   26.18</time>
   <energy>
    <i name="e_fr_energy">    -35.11915295 </i>
    <i name="e_wo_entrp">    -35.11915295 </i>
    <i name="e_0_energy">    -35.11915295 </i>
   </energy>
  </scstep>
  <scstep>
   <time name="dav">   12.05   12.07</time>
   <time name="total">   27.56   27.62</time>
   <energy>
    <i name="e_fr_energy">    -35.11970196 </i>
    <i name="e_wo_entrp">    -35.11970196 </i>
    <i name="e_0_energy">    -35.11970196 </i>
   </energy>
  </scstep>
  <scstep>
   <time name="dav">   10.45   10.47</time>
   <time name="total">   25.98   26.05</time>
   <energy>
    <i name="e_fr_energy">    -35.12014836 </i>
    <i name="e_wo_entrp">    -35.12014836 </i>
    <i name="e_0_energy">    -35.12014836 </i>
   </energy>
  </scstep>
  <scstep>
   <time name="dav">   11.79   11.82</time>
   <time name="total">   27.32   27.40</time>
   <energy>
    <i name="e_fr_energy">    -35.12052579 </i>
    <i name="e_wo_entrp">    -35.12052579 </i>
    <i name="e_0_energy">    -35.12052579 </i>
   </energy>
  </scstep>
  <scstep>
   <time name="dav">   11.17   11.19</time>
   <time name="total">   26.81   26.94</time>
   <energy>
    <i name="e_fr_energy">    -35.12093996 </i>
    <i name="e_wo_entrp">    -35.12093996 </i>
    <i name="e_0_energy">    -35.12093996 </i>
   </energy>
  </scstep>
  <scstep>
   <time name="dav">   11.74   11.76</time>
   <time name="total">   27.46   27.51</time>
   <energy>
    <i name="e_fr_energy">    -35.12124870 </i>
    <i name="e_wo_entrp">    -35.12124870 </i>
    <i name="e_0_energy">    -35.12124870 </i>
   </energy>
  </scstep>
  <scstep>
   <time name="dav">   11.32   11.36</time>
   <time name="total">   27.14   27.20</time>
   <energy>
    <i name="e_fr_energy">    -35.12166309 </i>
    <i name="e_wo_entrp">    -35.12166309 </i>
    <i name="e_0_energy">    -35.12166309 </i>
   </energy>
  </scstep>
  <scstep>
   <time name="dav">   12.05   12.07</time>
   <time name="total">   27.89   27.93</time>
   <energy>
    <i name="e_fr_energy">    -35.12177050 </i>
    <i name="e_wo_entrp">    -35.12177050 </i>
    <i name="e_0_energy">    -35.12177050 </i>
   </energy>
  </scstep>
  <scstep>
   <time name="dav">   11.93   11.95</time>
   <time name="total">   27.75   27.79</time>
   <energy>
    <i name="e_fr_energy">    -35.12190925 </i>
    <i name="e_wo_entrp">    -35.12190925 </i>
    <i name="e_0_energy">    -35.12190925 </i>
   </energy>
  </scstep>
  <scstep>
   <time name="dav">   11.91   11.93</time>
   <time name="total">   27.61   27.72</time>
   <energy>
    <i name="e_fr_energy">    -35.12192563 </i>
    <i name="e_wo_entrp">    -35.12192563 </i>
    <i name="e_0_energy">    -35.12192563 </i>
   </energy>
  </scstep>
  <scstep>
   <time name="dav">   11.20   11.22</time>
   <time name="total">   27.06   27.11</time>
   <energy>
    <i name="e_fr_energy">    -35.12192813 </i>
    <i name="e_wo_entrp">    -35.12192813 </i>
    <i name="e_0_energy">    -35.12192813 </i>
   </energy>
  </scstep>
  <scstep>
   <time name="dav">   11.19   11.20</time>
   <time name="total">   27.12   27.17</time>
   <energy>
    <i name="e_fr_energy">    -35.12190286 </i>
    <i name="e_wo_entrp">    -35.12190286 </i>
    <i name="e_0_energy">    -35.12190286 </i>
   </energy>
  </scstep>
  <scstep>
   <time name="dav">    9.82    9.84</time>
   <time name="total">   25.80   25.85</time>
   <energy>
    <i name="e_fr_energy">    -35.12193043 </i>
    <i name="e_wo_entrp">    -35.12193043 </i>
    <i name="e_0_energy">    -35.12193043 </i>
   </energy>
  </scstep>
  <scstep>
   <time name="dav">    9.96    9.97</time>
   <time name="total">   25.98   26.02</time>
   <energy>
    <i name="e_fr_energy">    -35.12193502 </i>
    <i name="e_wo_entrp">    -35.12193502 </i>
    <i name="e_0_energy">    -35.12193502 </i>
   </energy>
  </scstep>
  <scstep>
   <time name="dav">   11.58   11.60</time>
   <time name="total">   27.72   27.76</time>
   <energy>
    <i name="e_fr_energy">    -35.12193874 </i>
    <i name="e_wo_entrp">    -35.12193874 </i>
    <i name="e_0_energy">    -35.12193874 </i>
   </energy>
  </scstep>
  <scstep>
   <time name="dav">    9.32    9.33</time>
   <time name="total">   25.44   25.48</time>
   <energy>
    <i name="e_fr_energy">    -35.12194368 </i>
    <i name="e_wo_entrp">    -35.12194368 </i>
    <i name="e_0_energy">    -35.12194368 </i>
   </energy>
  </scstep>
  <scstep>
   <time name="dav">    9.97    9.98</time>
   <time name="total">   26.16   26.20</time>
   <energy>
    <i name="e_fr_energy">    -35.12195527 </i>
    <i name="e_wo_entrp">    -35.12195527 </i>
    <i name="e_0_energy">    -35.12195527 </i>
   </energy>
  </scstep>
  <scstep>
   <time name="dav">    8.86    8.88</time>
   <time name="total">   25.02   25.06</time>
   <energy>
    <i name="e_fr_energy">    -35.12195956 </i>
    <i name="e_wo_entrp">    -35.12195956 </i>
    <i name="e_0_energy">    -35.12195956 </i>
   </energy>
  </scstep>
  <scstep>
   <time name="dav">    8.19    8.21</time>
   <time name="total">   24.47   24.51</time>
   <energy>
    <i name="e_fr_energy">    -35.12196240 </i>
    <i name="e_wo_entrp">    -35.12196240 </i>
    <i name="e_0_energy">    -35.12196240 </i>
   </energy>
  </scstep>
  <scstep>
   <time name="dav">   10.34   10.36</time>
   <time name="total">   26.47   26.64</time>
   <energy>
    <i name="e_fr_energy">    -35.12195613 </i>
    <i name="e_wo_entrp">    -35.12195613 </i>
    <i name="e_0_energy">    -35.12195613 </i>
   </energy>
  </scstep>
  <scstep>
   <time name="dav">    9.29    9.31</time>
   <time name="total">   25.53   25.63</time>
   <energy>
    <i name="e_fr_energy">    -35.12196590 </i>
    <i name="e_wo_entrp">    -35.12196590 </i>
    <i name="e_0_energy">    -35.12196590 </i>
   </energy>
  </scstep>
  <scstep>
   <time name="dav">    7.50    7.52</time>
   <time name="total">   23.85   23.96</time>
   <energy>
    <i name="e_fr_energy">    -35.12196798 </i>
    <i name="e_wo_entrp">    -35.12196798 </i>
    <i name="e_0_energy">    -35.12196798 </i>
   </energy>
  </scstep>
  <scstep>
   <time name="dav">    6.58    6.59</time>
   <time name="total">   16.86   16.94</time>
   <energy>
    <i name="alphaZ">     19.16410503 </i>
    <i name="ewald">  10062.39722115 </i>
    <i name="hartreedc"> -23652.46155103 </i>
    <i name="XCdc">    507.17543556 </i>
    <i name="pawpsdc">  16692.66605242 </i>
    <i name="pawaedc"> -16389.26434201 </i>
    <i name="eentropy">     -0.00000000 </i>
    <i name="bandstr">  -2843.30382434 </i>
    <i name="atom">  15568.50493531 </i>
    <i name="e_fr_energy">    -35.12196790 </i>
    <i name="e_wo_entrp">    -35.12196790 </i>
    <i name="e_0_energy">    -35.12196790 </i>
   </energy>
  </scstep>
  <structure>
   <crystal>
    <varray name="basis" >
     <v>      17.00000000       0.00000000       0.00000000 </v>
     <v>       0.00000000      17.00000000       0.00000000 </v>
     <v>       0.00000000       0.00000000      17.00000000 </v>
    </varray>
    <i name="volume">   4913.00000000 </i>
    <varray name="rec_basis" >
     <v>       0.05882353       0.00000000       0.00000000 </v>
     <v>       0.00000000       0.05882353       0.00000000 </v>
     <v>       0.00000000       0.00000000       0.05882353 </v>
    </varray>
   </crystal>
   <varray name="positions" >
    <v>       0.93215735       0.96063576       0.93263623 </v>
    <v>       0.06906789       0.95859257       0.93256318 </v>
    <v>      -0.00123122       0.08076925       0.93255352 </v>
    <v>       0.93216073       0.96063350       0.06737300 </v>
    <v>       0.06907491       0.95859813       0.06744320 </v>
    <v>      -0.00122960       0.08077073       0.06743093 </v>
   </varray>
  </structure>
  <varray name="forces" >
   <v>      -0.14011963       0.20043788      -0.25421981 </v>
   <v>       0.21169015       0.06727828       0.10280937 </v>
   <v>      -0.07139379      -0.26923907      -0.01966510 </v>
   <v>      -0.13954999       0.20253520       0.25316206 </v>
   <v>       0.21044751       0.06757170      -0.10393359 </v>
   <v>      -0.07107426      -0.26858399       0.02184707 </v>
  </varray>
  <energy>
   <i name="e_fr_energy">    -35.12196790 </i>
   <i name="e_wo_entrp">    -35.12196790 </i>
   <i name="e_0_energy">     -0.00000000 </i>
  </energy>
  <time name="totalsc">  966.36  968.97</time>
 </calculation>
 <calculation>
  <scstep>
   <time name="dav">    8.98    9.00</time>
   <time name="total">   24.04   24.17</time>
   <energy>
    <i name="alphaZ">     19.16410503 </i>
    <i name="ewald">  10071.99362098 </i>
    <i name="hartreedc"> -23661.80956635 </i>
    <i name="XCdc">    507.21310585 </i>
    <i name="pawpsdc">  16692.66479706 </i>
    <i name="pawaedc"> -16389.26312679 </i>
    <i name="eentropy">     -0.00000000 </i>
    <i name="bandstr">  -2843.46869724 </i>
    <i name="atom">  15568.50493531 </i>
    <i name="e_fr_energy">    -35.00082614 </i>
    <i name="e_wo_entrp">    -35.00082614 </i>
    <i name="e_0_energy">    -35.00082614 </i>
   </energy>
  </scstep>
  <scstep>
   <time name="dav">    9.51    9.54</time>
   <time name="total">   24.68   24.75</time>
   <energy>
    <i name="e_fr_energy">    -35.12100553 </i>
    <i name="e_wo_entrp">    -35.12100553 </i>
    <i name="e_0_energy">    -35.12100553 </i>
   </energy>
  </scstep>
  <scstep>
   <time name="dav">   12.09   12.12</time>
   <time name="total">   27.25   27.36</time>
   <energy>
    <i name="e_fr_energy">    -35.12459336 </i>
    <i name="e_wo_entrp">    -35.12459336 </i>
    <i name="e_0_energy">    -35.12459336 </i>
   </energy>
  </scstep>
  <scstep>
   <time name="dav">   11.46   11.48</time>
   <time name="total">   26.58   26.69</time>
   <energy>
    <i name="e_fr_energy">    -35.12576623 </i>
    <i name="e_wo_entrp">    -35.12576623 </i>
    <i name="e_0_energy">    -35.12576623 </i>
   </energy>
  </scstep>
  <scstep>
   <time name="dav">   11.30   11.41</time>
   <time name="total">   26.46   26.60</time>
   <energy>
    <i name="e_fr_energy">    -35.12728264 </i>
    <i name="e_wo_entrp">    -35.12728264 </i>
    <i name="e_0_energy">    -35.12728264 </i>
   </energy>
  </scstep>
  <scstep>
   <time name="dav">   11.06   11.08</time>
   <time name="total">   26.33   26.42</time>
   <energy>
    <i name="e_fr_energy">    -35.12562128 </i>
    <i name="e_wo_entrp">    -35.12562128 </i>
    <i name="e_0_energy">    -35.12562128 </i>
   </energy>
  </scstep>
  <scstep>
   <time name="dav">   11.05   11.07</time>
   <time name="total">   26.34   26.42</time>
   <energy>
    <i name="e_fr_energy">    -35.12566501 </i>
    <i name="e_wo_entrp">    -35.12566501 </i>
    <i name="e_0_energy">    -35.12566501 </i>
   </energy>
  </scstep>
  <scstep>
   <time name="dav">    9.79    9.81</time>
   <time name="total">   25.10   25.19</time>
   <energy>
    <i name="e_fr_energy">    -35.12644836 </i>
    <i name="e_wo_entrp">    -35.12644836 </i>
    <i name="e_0_energy">    -35.12644836 </i>
   </energy>
  </scstep>
  <scstep>
   <time name="dav">   11.22   11.24</time>
   <time name="total">   26.59   26.65</time>
   <energy>
    <i name="e_fr_energy">    -35.12615249 </i>
    <i name="e_wo_entrp">    -35.12615249 </i>
    <i name="e_0_energy">    -35.12615249 </i>
   </energy>
  </scstep>
  <scstep>
   <time name="dav">   10.32   10.34</time>
   <time name="total">   25.72   25.80</time>
   <energy>
    <i name="e_fr_energy">    -35.12678867 </i>
    <i name="e_wo_entrp">    -35.12678867 </i>
    <i name="e_0_energy">    -35.12678867 </i>
   </energy>
  </scstep>
  <scstep>
   <time name="dav">   10.54   10.57</time>
   <time name="total">   25.85   26.00</time>
   <energy>
    <i name="e_fr_energy">    -35.12719276 </i>
    <i name="e_wo_entrp">    -35.12719276 </i>
    <i name="e_0_energy">    -35.12719276 </i>
   </energy>
  </scstep>
  <scstep>
   <time name="dav">   11.98   12.00</time>
   <time name="total">   27.43   27.54</time>
   <energy>
    <i name="e_fr_energy">    -35.12709787 </i>
    <i name="e_wo_entrp">    -35.12709787 </i>
    <i name="e_0_energy">    -35.12709787 </i>
   </energy>
  </scstep>
  <scstep>
   <time name="dav">    9.13    9.14</time>
   <time name="total">   24.61   24.65</time>
   <energy>
    <i name="e_fr_energy">    -35.12718220 </i>
    <i name="e_wo_entrp">    -35.12718220 </i>
    <i name="e_0_energy">    -35.12718220 </i>
   </energy>
  </scstep>
  <scstep>
   <time name="dav">   10.22   10.23</time>
   <time name="total">   25.68   25.77</time>
   <energy>
    <i name="e_fr_energy">    -35.12705493 </i>
    <i name="e_wo_entrp">    -35.12705493 </i>
    <i name="e_0_energy">    -35.12705493 </i>
   </energy>
  </scstep>
  <scstep>
   <time name="dav">   11.08   11.09</time>
   <time name="total">   26.58   26.66</time>
   <energy>
    <i name="e_fr_energy">    -35.12706807 </i>
    <i name="e_wo_entrp">    -35.12706807 </i>
    <i name="e_0_energy">    -35.12706807 </i>
   </energy>
  </scstep>
  <scstep>
   <time name="dav">    9.27    9.29</time>
   <time name="total">   24.82   24.90</time>
   <energy>
    <i name="e_fr_energy">    -35.12709600 </i>
    <i name="e_wo_entrp">    -35.12709600 </i>
    <i name="e_0_energy">    -35.12709600 </i>
   </energy>
  </scstep>
  <scstep>
   <time name="dav">   10.03   10.05</time>
   <time name="total">   25.58   25.69</time>
   <energy>
    <i name="e_fr_energy">    -35.12724220 </i>
    <i name="e_wo_entrp">    -35.12724220 </i>
    <i name="e_0_energy">    -35.12724220 </i>
   </energy>
  </scstep>
  <scstep>
   <time name="dav">   11.02   11.05</time>
   <time name="total">   26.59   26.68</time>
   <energy>
    <i name="e_fr_energy">    -35.12728429 </i>
    <i name="e_wo_entrp">    -35.12728429 </i>
    <i name="e_0_energy">    -35.12728429 </i>
   </energy>
  </scstep>
  <scstep>
   <time name="dav">    8.96    8.97</time>
   <time name="total">   24.61   24.66</time>
   <energy>
    <i name="e_fr_energy">    -35.12728699 </i>
    <i name="e_wo_entrp">    -35.12728699 </i>
    <i name="e_0_energy">    -35.12728699 </i>
   </energy>
  </scstep>
  <scstep>
   <time name="dav">   10.60   10.61</time>
   <time name="total">   26.34   26.39</time>
   <energy>
    <i name="e_fr_energy">    -35.12729009 </i>
    <i name="e_wo_entrp">    -35.12729009 </i>
    <i name="e_0_energy">    -35.12729009 </i>
   </energy>
  </scstep>
  <scstep>
   <time name="dav">   10.45   10.47</time>
   <time name="total">   26.23   26.27</time>
   <energy>
    <i name="e_fr_energy">    -35.12729409 </i>
    <i name="e_wo_entrp">    -35.12729409 </i>
    <i name="e_0_energy">    -35.12729409 </i>
   </energy>
  </scstep>
  <scstep>
   <time name="dav">   10.67   10.69</time>
   <time name="total">   26.35   26.49</time>
   <energy>
    <i name="e_fr_energy">    -35.12729629 </i>
    <i name="e_wo_entrp">    -35.12729629 </i>
    <i name="e_0_energy">    -35.12729629 </i>
   </energy>
  </scstep>
  <scstep>
   <time name="dav">    6.64    6.65</time>
   <time name="total">   22.43   22.54</time>
   <energy>
    <i name="e_fr_energy">    -35.12729751 </i>
    <i name="e_wo_entrp">    -35.12729751 </i>
    <i name="e_0_energy">    -35.12729751 </i>
   </energy>
  </scstep>
  <scstep>
   <time name="dav">    7.13    7.14</time>
   <time name="total">   17.42   17.51</time>
   <energy>
    <i name="alphaZ">     19.16410503 </i>
    <i name="ewald">  10071.99362098 </i>
    <i name="hartreedc"> -23663.29813984 </i>
    <i name="XCdc">    507.23338573 </i>
    <i name="pawpsdc">  16702.87928297 </i>
    <i name="pawaedc"> -16399.46285314 </i>
    <i name="eentropy">     -0.00000000 </i>
    <i name="bandstr">  -2842.14163515 </i>
    <i name="atom">  15568.50493531 </i>
    <i name="e_fr_energy">    -35.12729811 </i>
    <i name="e_wo_entrp">    -35.12729811 </i>
    <i name="e_0_energy">    -35.12729811 </i>
   </energy>
  </scstep>
  <structure>
   <crystal>
    <varray name="basis" >
     <v>      17.00000000       0.00000000       0.00000000 </v>
     <v>       0.00000000      17.00000000       0.00000000 </v>
     <v>       0.00000000       0.00000000      17.00000000 </v>
    </varray>
    <i name="volume">   4913.00000000 </i>
    <varray name="rec_basis" >
     <v>       0.05882353       0.00000000       0.00000000 </v>
     <v>       0.00000000       0.05882353       0.00000000 </v>
     <v>       0.00000000       0.00000000       0.05882353 </v>
    </varray>
   </crystal>
   <varray name="positions" >
    <v>       0.93237095       0.96159190       0.93250633 </v>
    <v>       0.06972627       0.95797976       0.93272689 </v>
    <v>      -0.00210250       0.08042504       0.93256920 </v>
    <v>       0.93237568       0.96159031       0.06750260 </v>
    <v>       0.06973313       0.95798670       0.06727796 </v>
    <v>      -0.00210347       0.08042623       0.06741708 </v>
   </varray>
  </structure>
  <varray name="forces" >
   <v>      -0.20440516      -0.04847019      -0.20864972 </v>
   <v>       0.07877878       0.16309808       0.07357205 </v>
   <v>       0.12569584      -0.11638168      -0.05045416 </v>
   <v>      -0.20451424      -0.04739362       0.20765767 </v>
   <v>       0.07745022       0.16284967      -0.07457992 </v>
   <v>       0.12699456      -0.11370226       0.05245408 </v>
  </varray>
  <energy>
   <i name="e_fr_energy">    -35.12729811 </i>
   <i name="e_wo_entrp">    -35.12729811 </i>
   <i name="e_0_energy">     -0.00000000 </i>
  </energy>
  <time name="totalsc">  662.39  664.71</time>
 </calculation>
 <calculation>
  <scstep>
   <time name="dav">    9.13    9.14</time>
   <time name="total">   24.32   24.36</time>
   <energy>
    <i name="alphaZ">     19.16410503 </i>
    <i name="ewald">  10069.36767482 </i>
    <i name="hartreedc"> -23660.75390714 </i>
    <i name="XCdc">    507.22290058 </i>
    <i name="pawpsdc">  16702.88347717 </i>
    <i name="pawaedc"> -16399.46718171 </i>
    <i name="eentropy">     -0.00000000 </i>
    <i name="bandstr">  -2842.04103241 </i>
    <i name="atom">  15568.50493531 </i>
    <i name="e_fr_energy">    -35.11902835 </i>
    <i name="e_wo_entrp">    -35.11902835 </i>
    <i name="e_0_energy">    -35.11902835 </i>
   </energy>
  </scstep>
  <scstep>
   <time name="dav">    9.64    9.66</time>
   <time name="total">   24.92   24.96</time>
   <energy>
    <i name="e_fr_energy">    -35.12735281 </i>
    <i name="e_wo_entrp">    -35.12735281 </i>
    <i name="e_0_energy">    -35.12735281 </i>
   </energy>
  </scstep>
  <scstep>
   <time name="dav">   11.88   11.90</time>
   <time name="total">   27.14   27.18</time>
   <energy>
    <i name="e_fr_energy">    -35.12770251 </i>
    <i name="e_wo_entrp">    -35.12770251 </i>
    <i name="e_0_energy">    -35.12770251 </i>
   </energy>
  </scstep>
  <scstep>
   <time name="dav">   11.42   11.43</time>
   <time name="total">   26.68   26.72</time>
   <energy>
    <i name="e_fr_energy">    -35.12784422 </i>
    <i name="e_wo_entrp">    -35.12784422 </i>
    <i name="e_0_energy">    -35.12784422 </i>
   </energy>
  </scstep>
  <scstep>
   <time name="dav">   11.21   11.22</time>
   <time name="total">   26.59   26.65</time>
   <energy>
    <i name="e_fr_energy">    -35.12798668 </i>
    <i name="e_wo_entrp">    -35.12798668 </i>
    <i name="e_0_energy">    -35.12798668 </i>
   </energy>
  </scstep>
  <scstep>
   <time name="dav">   11.27   11.30</time>
   <time name="total">   26.64   26.73</time>
   <energy>
    <i name="e_fr_energy">    -35.12778628 </i>
    <i name="e_wo_entrp">    -35.12778628 </i>
    <i name="e_0_energy">    -35.12778628 </i>
   </energy>
  </scstep>
  <scstep>
   <time name="dav">   10.16   10.18</time>
   <time name="total">   25.53   25.60</time>
   <energy>
    <i name="e_fr_energy">    -35.12782977 </i>
    <i name="e_wo_entrp">    -35.12782977 </i>
    <i name="e_0_energy">    -35.12782977 </i>
   </energy>
  </scstep>
  <scstep>
   <time name="dav">    9.56    9.57</time>
   <time name="total">   24.96   25.05</time>
   <energy>
    <i name="e_fr_energy">    -35.12790720 </i>
    <i name="e_wo_entrp">    -35.12790720 </i>
    <i name="e_0_energy">    -35.12790720 </i>
   </energy>
  </scstep>
  <scstep>
   <time name="dav">   10.21   10.24</time>
   <time name="total">   25.62   25.76</time>
   <energy>
    <i name="e_fr_energy">    -35.12790247 </i>
    <i name="e_wo_entrp">    -35.12790247 </i>
    <i name="e_0_energy">    -35.12790247 </i>
   </energy>
  </scstep>
  <scstep>
   <time name="dav">   10.34   10.37</time>
   <time name="total">   25.76   25.84</time>
   <energy>
    <i name="e_fr_energy">    -35.12797926 </i>
    <i name="e_wo_entrp">    -35.12797926 </i>
    <i name="e_0_energy">    -35.12797926 </i>
   </energy>
  </scstep>
  <scstep>
   <time name="dav">   11.26   11.29</time>
   <time name="total">   26.77   26.85</time>
   <energy>
    <i name="e_fr_energy">    -35.12800745 </i>
    <i name="e_wo_entrp">    -35.12800745 </i>
    <i name="e_0_energy">    -35.12800745 </i>
   </energy>
  </scstep>
  <scstep>
   <time name="dav">    9.34    9.37</time>
   <time name="total">   24.81   24.89</time>
   <energy>
    <i name="e_fr_energy">    -35.12800555 </i>
    <i name="e_wo_entrp">    -35.12800555 </i>
    <i name="e_0_energy">    -35.12800555 </i>
   </energy>
  </scstep>
  <scstep>
   <time name="dav">   10.67   10.69</time>
   <time name="total">   26.23   26.32</time>
   <energy>
    <i name="e_fr_energy">    -35.12800937 </i>
    <i name="e_wo_entrp">    -35.12800937 </i>
    <i name="e_0_energy">    -35.12800937 </i>
   </energy>
  </scstep>
  <scstep>
   <time name="dav">   10.74   10.76</time>
   <time name="total">   26.31   26.36</time>
   <energy>
    <i name="e_fr_energy">    -35.12800607 </i>
    <i name="e_wo_entrp">    -35.12800607 </i>
    <i name="e_0_energy">    -35.12800607 </i>
   </energy>
  </scstep>
  <scstep>
   <time name="dav">    9.88    9.89</time>
   <time name="total">   20.25   20.32</time>
   <energy>
    <i name="alphaZ">     19.16410503 </i>
    <i name="ewald">  10069.36767482 </i>
    <i name="hartreedc"> -23660.29253658 </i>
    <i name="XCdc">    507.21504834 </i>
    <i name="pawpsdc">  16699.85485602 </i>
    <i name="pawaedc"> -16396.44124177 </i>
    <i name="eentropy">     -0.00000000 </i>
    <i name="bandstr">  -2842.50084693 </i>
    <i name="atom">  15568.50493531 </i>
    <i name="e_fr_energy">    -35.12800577 </i>
    <i name="e_wo_entrp">    -35.12800577 </i>
    <i name="e_0_energy">    -35.12800577 </i>
   </energy>
  </scstep>
  <structure>
   <crystal>
    <varray name="basis" >
     <v>      17.00000000       0.00000000       0.00000000 </v>
     <v>       0.00000000      17.00000000       0.00000000 </v>
     <v>       0.00000000       0.00000000      17.00000000 </v>
    </varray>
    <i name="volume">   4913.00000000 </i>
    <varray name="rec_basis" >
     <v>       0.05882353       0.00000000       0.00000000 </v>
     <v>       0.00000000       0.05882353       0.00000000 </v>
     <v>       0.00000000       0.00000000       0.05882353 </v>
    </varray>
   </crystal>
   <varray name="positions" >
    <v>       0.93231370       0.96133563       0.93254115 </v>
    <v>       0.06954981       0.95814401       0.93268301 </v>
    <v>      -0.00186898       0.08051730       0.93256500 </v>
    <v>       0.93231807       0.96133387       0.06746786 </v>
    <v>       0.06955671       0.95815058       0.06732225 </v>
    <v>      -0.00186925       0.08051856       0.06742079 </v>
   </varray>
  </structure>
  <varray name="forces" >
   <v>      -0.18424089       0.02586609      -0.21878863 </v>
   <v>       0.11603443       0.13735761       0.08058581 </v>
   <v>       0.06802634      -0.16518333      -0.04163824 </v>
   <v>      -0.18247514       0.02746418       0.21807640 </v>
   <v>       0.11410796       0.13696013      -0.08174240 </v>
   <v>       0.06854731      -0.16246468       0.04350707 </v>
  </varray>
  <energy>
   <i name="e_fr_energy">    -35.12800577 </i>
   <i name="e_wo_entrp">    -35.12800577 </i>
   <i name="e_0_energy">     -0.00000000 </i>
  </energy>
  <time name="totalsc">  434.85  436.05</time>
 </calculation>
 <calculation>
  <scstep>
   <time name="dav">    9.34    9.35</time>
   <time name="total">   24.58   24.62</time>
   <energy>
    <i name="alphaZ">     19.16410503 </i>
    <i name="ewald">  10061.79039953 </i>
    <i name="hartreedc"> -23652.89002354 </i>
    <i name="XCdc">    507.19456199 </i>
    <i name="pawpsdc">  16699.66123237 </i>
    <i name="pawaedc"> -16396.24808342 </i>
    <i name="eentropy">     -0.00000000 </i>
    <i name="bandstr">  -2842.30323259 </i>
    <i name="atom">  15568.50493531 </i>
    <i name="e_fr_energy">    -35.12610531 </i>
    <i name="e_wo_entrp">    -35.12610531 </i>
    <i name="e_0_energy">    -35.12610531 </i>
   </energy>
  </scstep>
  <scstep>
   <time name="dav">    9.12    9.13</time>
   <time name="total">   24.46   24.51</time>
   <energy>
    <i name="e_fr_energy">    -35.13179440 </i>
    <i name="e_wo_entrp">    -35.13179440 </i>
    <i name="e_0_energy">    -35.13179440 </i>
   </energy>
  </scstep>
  <scstep>
   <time name="dav">   12.32   12.34</time>
   <time name="total">   27.64   27.68</time>
   <energy>
    <i name="e_fr_energy">    -35.13195040 </i>
    <i name="e_wo_entrp">    -35.13195040 </i>
    <i name="e_0_energy">    -35.13195040 </i>
   </energy>
  </scstep>
  <scstep>
   <time name="dav">    9.82    9.84</time>
   <time name="total">   25.08   25.13</time>
   <energy>
    <i name="e_fr_energy">    -35.13195457 </i>
    <i name="e_wo_entrp">    -35.13195457 </i>
    <i name="e_0_energy">    -35.13195457 </i>
   </energy>
  </scstep>
  <scstep>
   <time name="dav">   10.06   10.07</time>
   <time name="total">   25.39   25.45</time>
   <energy>
    <i name="e_fr_energy">    -35.13201756 </i>
    <i name="e_wo_entrp">    -35.13201756 </i>
    <i name="e_0_energy">    -35.13201756 </i>
   </energy>
  </scstep>
  <scstep>
   <time name="dav">   10.29   10.31</time>
   <time name="total">   25.67   25.73</time>
   <energy>
    <i name="e_fr_energy">    -35.13204341 </i>
    <i name="e_wo_entrp">    -35.13204341 </i>
    <i name="e_0_energy">    -35.13204341 </i>
   </energy>
  </scstep>
  <scstep>
   <time name="dav">   10.73   10.75</time>
   <time name="total">   26.12   26.16</time>
   <energy>
    <i name="e_fr_energy">    -35.13206807 </i>
    <i name="e_wo_entrp">    -35.13206807 </i>
    <i name="e_0_energy">    -35.13206807 </i>
   </energy>
  </scstep>
  <scstep>
   <time name="dav">   11.07   11.08</time>
   <time name="total">   26.50   26.54</time>
   <energy>
    <i name="e_fr_energy">    -35.13212985 </i>
    <i name="e_wo_entrp">    -35.13212985 </i>
    <i name="e_0_energy">    -35.13212985 </i>
   </energy>
  </scstep>
  <scstep>
   <time name="dav">   10.41   10.43</time>
   <time name="total">   25.72   25.81</time>
   <energy>
    <i name="e_fr_energy">    -35.13215359 </i>
    <i name="e_wo_entrp">    -35.13215359 </i>
    <i name="e_0_energy">    -35.13215359 </i>
   </energy>
  </scstep>
  <scstep>
   <time name="dav">   10.95   10.97</time>
   <time name="total">   26.26   26.31</time>
   <energy>
    <i name="e_fr_energy">    -35.13215580 </i>
    <i name="e_wo_entrp">    -35.13215580 </i>
    <i name="e_0_energy">    -35.13215580 </i>
   </energy>
  </scstep>
  <scstep>
   <time name="dav">    7.58    7.59</time>
   <time name="total">   22.89   22.97</time>
   <energy>
    <i name="e_fr_energy">    -35.13217774 </i>
    <i name="e_wo_entrp">    -35.13217774 </i>
    <i name="e_0_energy">    -35.13217774 </i>
   </energy>
  </scstep>
  <scstep>
   <time name="dav">   10.60   10.62</time>
   <time name="total">   25.86   26.04</time>
   <energy>
    <i name="e_fr_energy">    -35.13220151 </i>
    <i name="e_wo_entrp">    -35.13220151 </i>
    <i name="e_0_energy">    -35.13220151 </i>
   </energy>
  </scstep>
  <scstep>
   <time name="dav">    8.81    8.83</time>
   <time name="total">   24.18   24.28</time>
   <energy>
    <i name="e_fr_energy">    -35.13220545 </i>
    <i name="e_wo_entrp">    -35.13220545 </i>
    <i name="e_0_energy">    -35.13220545 </i>
   </energy>
  </scstep>
  <scstep>
   <time name="dav">    7.73    7.74</time>
   <time name="total">   18.02   18.11</time>
   <energy>
    <i name="alphaZ">     19.16410503 </i>
    <i name="ewald">  10061.79039953 </i>
    <i name="hartreedc"> -23652.27217080 </i>
    <i name="XCdc">    507.18453212 </i>
    <i name="pawpsdc">  16691.93089592 </i>
    <i name="pawaedc"> -16388.53492559 </i>
    <i name="eentropy">     -0.00000000 </i>
    <i name="bandstr">  -2842.89997751 </i>
    <i name="atom">  15568.50493531 </i>
    <i name="e_fr_energy">    -35.13220599 </i>
    <i name="e_wo_entrp">    -35.13220599 </i>
    <i name="e_0_energy">    -35.13220599 </i>
   </energy>
  </scstep>
  <structure>
   <crystal>
    <varray name="basis" >
     <v>      17.00000000       0.00000000       0.00000000 </v>
     <v>       0.00000000      17.00000000       0.00000000 </v>
     <v>       0.00000000       0.00000000      17.00000000 </v>
    </varray>
    <i name="volume">   4913.00000000 </i>
    <varray name="rec_basis" >
     <v>       0.05882353       0.00000000       0.00000000 </v>
     <v>       0.00000000       0.05882353       0.00000000 </v>
     <v>       0.00000000       0.00000000       0.05882353 </v>
    </varray>
   </crystal>
   <varray name="positions" >
    <v>       0.93213803       0.96131650       0.93234957 </v>
    <v>       0.06962523       0.95829512       0.93274843 </v>
    <v>      -0.00176892       0.08038359       0.93252674 </v>
    <v>       0.93214393       0.96131614       0.06765881 </v>
    <v>       0.06963040       0.95830127       0.06725586 </v>
    <v>      -0.00176861       0.08038732       0.06746065 </v>
   </varray>
  </structure>
  <varray name="forces" >
   <v>      -0.15148701       0.03792559      -0.12091185 </v>
   <v>       0.09532512       0.12588972       0.05411665 </v>
   <v>       0.05625452      -0.16482154      -0.03294570 </v>
   <v>      -0.15180682       0.03918238       0.12020707 </v>
   <v>       0.09469384       0.12591081      -0.05489568 </v>
   <v>       0.05702034      -0.16408696       0.03442952 </v>
  </varray>
  <energy>
   <i name="e_fr_energy">    -35.13220599 </i>
   <i name="e_wo_entrp">    -35.13220599 </i>
   <i name="e_0_energy">     -0.00000000 </i>
  </energy>
  <time name="totalsc">  400.12  401.32</time>
 </calculation>
 <calculation>
  <scstep>
   <time name="dav">    9.21    9.23</time>
   <time name="total">   24.31   24.43</time>
   <energy>
    <i name="alphaZ">     19.16410503 </i>
    <i name="ewald">  10044.31874224 </i>
    <i name="hartreedc"> -23635.23967378 </i>
    <i name="XCdc">    507.13966072 </i>
    <i name="pawpsdc">  16691.67725409 </i>
    <i name="pawaedc"> -16388.28090511 </i>
    <i name="eentropy">     -0.00000000 </i>
    <i name="bandstr">  -2842.38900370 </i>
    <i name="atom">  15568.50493531 </i>
    <i name="e_fr_energy">    -35.10488520 </i>
    <i name="e_wo_entrp">    -35.10488520 </i>
    <i name="e_0_energy">    -35.10488520 </i>
   </energy>
  </scstep>
  <scstep>
   <time name="dav">    9.30    9.31</time>
   <time name="total">   24.47   24.51</time>
   <energy>
    <i name="e_fr_energy">    -35.13610949 </i>
    <i name="e_wo_entrp">    -35.13610949 </i>
    <i name="e_0_energy">    -35.13610949 </i>
   </energy>
  </scstep>
  <scstep>
   <time name="dav">   11.97   11.99</time>
   <time name="total">   27.19   27.24</time>
   <energy>
    <i name="e_fr_energy">    -35.13685138 </i>
    <i name="e_wo_entrp">    -35.13685138 </i>
    <i name="e_0_energy">    -35.13685138 </i>
   </energy>
  </scstep>
  <scstep>
   <time name="dav">   11.05   11.07</time>
   <time name="total">   26.27   26.31</time>
   <energy>
    <i name="e_fr_energy">    -35.13688461 </i>
    <i name="e_wo_entrp">    -35.13688461 </i>
    <i name="e_0_energy">    -35.13688461 </i>
   </energy>
  </scstep>
  <scstep>
   <time name="dav">   10.12   10.13</time>
   <time name="total">   25.37   25.42</time>
   <energy>
    <i name="e_fr_energy">    -35.13708496 </i>
    <i name="e_wo_entrp">    -35.13708496 </i>
    <i name="e_0_energy">    -35.13708496 </i>
   </energy>
  </scstep>
  <scstep>
   <time name="dav">    9.93    9.95</time>
   <time name="total">   25.21   25.26</time>
   <energy>
    <i name="e_fr_energy">    -35.13709633 </i>
    <i name="e_wo_entrp">    -35.13709633 </i>
    <i name="e_0_energy">    -35.13709633 </i>
   </energy>
  </scstep>
  <scstep>
   <time name="dav">   11.48   11.50</time>
   <time name="total">   26.77   26.81</time>
   <energy>
    <i name="e_fr_energy">    -35.13704523 </i>
    <i name="e_wo_entrp">    -35.13704523 </i>
    <i name="e_0_energy">    -35.13704523 </i>
   </energy>
  </scstep>
  <scstep>
   <time name="dav">   10.80   10.82</time>
   <time name="total">   26.08   26.12</time>
   <energy>
    <i name="e_fr_energy">    -35.13742791 </i>
    <i name="e_wo_entrp">    -35.13742791 </i>
    <i name="e_0_energy">    -35.13742791 </i>
   </energy>
  </scstep>
  <scstep>
   <time name="dav">    9.57    9.59</time>
   <time name="total">   25.03   25.11</time>
   <energy>
    <i name="e_fr_energy">    -35.13760638 </i>
    <i name="e_wo_entrp">    -35.13760638 </i>
    <i name="e_0_energy">    -35.13760638 </i>
   </energy>
  </scstep>
  <scstep>
   <time name="dav">   10.65   10.67</time>
   <time name="total">   26.13   26.22</time>
   <energy>
    <i name="e_fr_energy">    -35.13761409 </i>
    <i name="e_wo_entrp">    -35.13761409 </i>
    <i name="e_0_energy">    -35.13761409 </i>
   </energy>
  </scstep>
  <scstep>
   <time name="dav">   10.42   10.44</time>
   <time name="total">   25.87   25.96</time>
   <energy>
    <i name="e_fr_energy">    -35.13764648 </i>
    <i name="e_wo_entrp">    -35.13764648 </i>
    <i name="e_0_energy">    -35.13764648 </i>
   </energy>
  </scstep>
  <scstep>
   <time name="dav">   10.51   10.52</time>
   <time name="total">   25.98   26.10</time>
   <energy>
    <i name="e_fr_energy">    -35.13773553 </i>
    <i name="e_wo_entrp">    -35.13773553 </i>
    <i name="e_0_energy">    -35.13773553 </i>
   </energy>
  </scstep>
  <scstep>
   <time name="dav">   10.43   10.44</time>
   <time name="total">   25.94   25.98</time>
   <energy>
    <i name="e_fr_energy">    -35.13773914 </i>
    <i name="e_wo_entrp">    -35.13773914 </i>
    <i name="e_0_energy">    -35.13773914 </i>
   </energy>
  </scstep>
  <scstep>
   <time name="dav">    8.05    8.07</time>
   <time name="total">   23.63   23.68</time>
   <energy>
    <i name="e_fr_energy">    -35.13773372 </i>
    <i name="e_wo_entrp">    -35.13773372 </i>
    <i name="e_0_energy">    -35.13773372 </i>
   </energy>
  </scstep>
  <scstep>
   <time name="dav">    9.13    9.15</time>
   <time name="total">   24.74   24.78</time>
   <energy>
    <i name="e_fr_energy">    -35.13773654 </i>
    <i name="e_wo_entrp">    -35.13773654 </i>
    <i name="e_0_energy">    -35.13773654 </i>
   </energy>
  </scstep>
  <scstep>
   <time name="dav">   10.99   11.01</time>
   <time name="total">   26.60   26.64</time>
   <energy>
    <i name="e_fr_energy">    -35.13773020 </i>
    <i name="e_wo_entrp">    -35.13773020 </i>
    <i name="e_0_energy">    -35.13773020 </i>
   </energy>
  </scstep>
  <scstep>
   <time name="dav">   10.94   10.96</time>
   <time name="total">   26.66   26.73</time>
   <energy>
    <i name="e_fr_energy">    -35.13774186 </i>
    <i name="e_wo_entrp">    -35.13774186 </i>
    <i name="e_0_energy">    -35.13774186 </i>
   </energy>
  </scstep>
  <scstep>
   <time name="dav">   10.62   10.64</time>
   <time name="total">   26.33   26.38</time>
   <energy>
    <i name="e_fr_energy">    -35.13774139 </i>
    <i name="e_wo_entrp">    -35.13774139 </i>
    <i name="e_0_energy">    -35.13774139 </i>
   </energy>
  </scstep>
  <scstep>
   <time name="dav">    7.62    7.63</time>
   <time name="total">   23.36   23.39</time>
   <energy>
    <i name="e_fr_energy">    -35.13774913 </i>
    <i name="e_wo_entrp">    -35.13774913 </i>
    <i name="e_0_energy">    -35.13774913 </i>
   </energy>
  </scstep>
  <scstep>
   <time name="dav">    8.33    8.35</time>
   <time name="total">   24.15   24.19</time>
   <energy>
    <i name="e_fr_energy">    -35.13775349 </i>
    <i name="e_wo_entrp">    -35.13775349 </i>
    <i name="e_0_energy">    -35.13775349 </i>
   </energy>
  </scstep>
  <scstep>
   <time name="dav">    6.75    6.76</time>
   <time name="total">   17.22   17.25</time>
   <energy>
    <i name="alphaZ">     19.16410503 </i>
    <i name="ewald">  10044.31874224 </i>
    <i name="hartreedc"> -23634.35266141 </i>
    <i name="XCdc">    507.12329463 </i>
    <i name="pawpsdc">  16674.03796117 </i>
    <i name="pawaedc"> -16370.67655085 </i>
    <i name="eentropy">     -0.00000000 </i>
    <i name="bandstr">  -2843.25757932 </i>
    <i name="atom">  15568.50493531 </i>
    <i name="e_fr_energy">    -35.13775319 </i>
    <i name="e_wo_entrp">    -35.13775319 </i>
    <i name="e_0_energy">    -35.13775319 </i>
   </energy>
  </scstep>
  <structure>
   <crystal>
    <varray name="basis" >
     <v>      17.00000000       0.00000000       0.00000000 </v>
     <v>       0.00000000      17.00000000       0.00000000 </v>
     <v>       0.00000000       0.00000000      17.00000000 </v>
    </varray>
    <i name="volume">   4913.00000000 </i>
    <varray name="rec_basis" >
     <v>       0.05882353       0.00000000       0.00000000 </v>
     <v>       0.00000000       0.05882353       0.00000000 </v>
     <v>       0.00000000       0.00000000       0.05882353 </v>
    </varray>
   </crystal>
   <varray name="positions" >
    <v>       0.93172941       0.96127200       0.93190395 </v>
    <v>       0.06980067       0.95864661       0.93290059 </v>
    <v>      -0.00153619       0.08007258       0.93243776 </v>
    <v>       0.93173888       0.96127493       0.06810297 </v>
    <v>       0.06980182       0.95865179       0.06710143 </v>
    <v>      -0.00153452       0.08008204       0.06755336 </v>
   </varray>
  </structure>
  <varray name="forces" >
   <v>      -0.06772242       0.06596625       0.09532571 </v>
   <v>       0.04781170       0.09189938      -0.00209434 </v>
   <v>       0.02020372      -0.15775115      -0.00729405 </v>
   <v>      -0.06957539       0.06631095      -0.09515830 </v>
   <v>       0.04863550       0.09184407       0.00180938 </v>
   <v>       0.02064688      -0.15826950       0.00741161 </v>
  </varray>
  <energy>
   <i name="e_fr_energy">    -35.13775319 </i>
   <i name="e_wo_entrp">    -35.13775319 </i>
   <i name="e_0_energy">     -0.00000000 </i>
  </energy>
  <time name="totalsc">  580.40  581.71</time>
 </calculation>
 <calculation>
  <scstep>
   <time name="dav">    9.34    9.36</time>
   <time name="total">   24.56   24.61</time>
   <energy>
    <i name="alphaZ">     19.16410503 </i>
    <i name="ewald">  10036.57379879 </i>
    <i name="hartreedc"> -23626.73792360 </i>
    <i name="XCdc">    507.10341376 </i>
    <i name="pawpsdc">  16674.01549981 </i>
    <i name="pawaedc"> -16370.65420055 </i>
    <i name="eentropy">     -0.00000000 </i>
    <i name="bandstr">  -2843.10143424 </i>
    <i name="atom">  15568.50493531 </i>
    <i name="e_fr_energy">    -35.13180567 </i>
    <i name="e_wo_entrp">    -35.13180567 </i>
    <i name="e_0_energy">    -35.13180567 </i>
   </energy>
  </scstep>
  <scstep>
   <time name="dav">    9.39    9.41</time>
   <time name="total">   24.62   24.71</time>
   <energy>
    <i name="e_fr_energy">    -35.13792343 </i>
    <i name="e_wo_entrp">    -35.13792343 </i>
    <i name="e_0_energy">    -35.13792343 </i>
   </energy>
  </scstep>
  <scstep>
   <time name="dav">   11.99   12.11</time>
   <time name="total">   27.26   27.43</time>
   <energy>
    <i name="e_fr_energy">    -35.13810148 </i>
    <i name="e_wo_entrp">    -35.13810148 </i>
    <i name="e_0_energy">    -35.13810148 </i>
   </energy>
  </scstep>
  <scstep>
   <time name="dav">   10.61   10.63</time>
   <time name="total">   25.96   26.01</time>
   <energy>
    <i name="e_fr_energy">    -35.13810261 </i>
    <i name="e_wo_entrp">    -35.13810261 </i>
    <i name="e_0_energy">    -35.13810261 </i>
   </energy>
  </scstep>
  <scstep>
   <time name="dav">   10.01   10.03</time>
   <time name="total">   25.31   25.35</time>
   <energy>
    <i name="e_fr_energy">    -35.13815860 </i>
    <i name="e_wo_entrp">    -35.13815860 </i>
    <i name="e_0_energy">    -35.13815860 </i>
   </energy>
  </scstep>
  <scstep>
   <time name="dav">   10.28   10.30</time>
   <time name="total">   25.64   25.69</time>
   <energy>
    <i name="e_fr_energy">    -35.13816355 </i>
    <i name="e_wo_entrp">    -35.13816355 </i>
    <i name="e_0_energy">    -35.13816355 </i>
   </energy>
  </scstep>
  <scstep>
   <time name="dav">   11.12   11.15</time>
   <time name="total">   26.47   26.52</time>
   <energy>
    <i name="e_fr_energy">    -35.13817022 </i>
    <i name="e_wo_entrp">    -35.13817022 </i>
    <i name="e_0_energy">    -35.13817022 </i>
   </energy>
  </scstep>
  <scstep>
   <time name="dav">   11.17   11.19</time>
   <time name="total">   26.70   26.74</time>
   <energy>
    <i name="e_fr_energy">    -35.13823261 </i>
    <i name="e_wo_entrp">    -35.13823261 </i>
    <i name="e_0_energy">    -35.13823261 </i>
   </energy>
  </scstep>
  <scstep>
   <time name="dav">    9.25    9.27</time>
   <time name="total">   24.70   24.75</time>
   <energy>
    <i name="e_fr_energy">    -35.13830458 </i>
    <i name="e_wo_entrp">    -35.13830458 </i>
    <i name="e_0_energy">    -35.13830458 </i>
   </energy>
  </scstep>
  <scstep>
   <time name="dav">   10.64   10.66</time>
   <time name="total">   26.12   26.17</time>
   <energy>
    <i name="e_fr_energy">    -35.13831095 </i>
    <i name="e_wo_entrp">    -35.13831095 </i>
    <i name="e_0_energy">    -35.13831095 </i>
   </energy>
  </scstep>
  <scstep>
   <time name="dav">    8.64    8.67</time>
   <time name="total">   24.11   24.19</time>
   <energy>
    <i name="e_fr_energy">    -35.13832096 </i>
    <i name="e_wo_entrp">    -35.13832096 </i>
    <i name="e_0_energy">    -35.13832096 </i>
   </energy>
  </scstep>
  <scstep>
   <time name="dav">   10.10   10.13</time>
   <time name="total">   25.69   25.79</time>
   <energy>
    <i name="e_fr_energy">    -35.13834798 </i>
    <i name="e_wo_entrp">    -35.13834798 </i>
    <i name="e_0_energy">    -35.13834798 </i>
   </energy>
  </scstep>
  <scstep>
   <time name="dav">   10.71   10.73</time>
   <time name="total">   26.22   26.30</time>
   <energy>
    <i name="e_fr_energy">    -35.13834723 </i>
    <i name="e_wo_entrp">    -35.13834723 </i>
    <i name="e_0_energy">    -35.13834723 </i>
   </energy>
  </scstep>
  <scstep>
   <time name="dav">    6.61    6.63</time>
   <time name="total">   16.94   17.06</time>
   <energy>
    <i name="alphaZ">     19.16410503 </i>
    <i name="ewald">  10036.57379879 </i>
    <i name="hartreedc"> -23626.28250726 </i>
    <i name="XCdc">    507.09555777 </i>
    <i name="pawpsdc">  16667.52085979 </i>
    <i name="pawaedc"> -16364.17344066 </i>
    <i name="eentropy">     -0.00000000 </i>
    <i name="bandstr">  -2843.54165623 </i>
    <i name="atom">  15568.50493531 </i>
    <i name="e_fr_energy">    -35.13834746 </i>
    <i name="e_wo_entrp">    -35.13834746 </i>
    <i name="e_0_energy">    -35.13834746 </i>
   </energy>
  </scstep>
  <structure>
   <crystal>
    <varray name="basis" >
     <v>      17.00000000       0.00000000       0.00000000 </v>
     <v>       0.00000000      17.00000000       0.00000000 </v>
     <v>       0.00000000       0.00000000      17.00000000 </v>
    </varray>
    <i name="volume">   4913.00000000 </i>
    <varray name="rec_basis" >
     <v>       0.05882353       0.00000000       0.00000000 </v>
     <v>       0.00000000       0.05882353       0.00000000 </v>
     <v>       0.00000000       0.00000000       0.05882353 </v>
    </varray>
   </crystal>
   <varray name="positions" >
    <v>       0.93154665       0.96125209       0.93170464 </v>
    <v>       0.06987914       0.95880382       0.93296865 </v>
    <v>      -0.00143210       0.07993348       0.93239797 </v>
    <v>       0.93155771       0.96125649       0.06830162 </v>
    <v>       0.06987848       0.95880856       0.06703235 </v>
    <v>      -0.00142982       0.07994550       0.06759483 </v>
   </varray>
  </structure>
  <varray name="forces" >
   <v>      -0.03229009       0.08013876       0.18980567 </v>
   <v>       0.03017613       0.07449086      -0.03043297 </v>
   <v>       0.00236102      -0.15383182       0.00433644 </v>
   <v>      -0.03433113       0.07998526      -0.18900059 </v>
   <v>       0.03149415       0.07418315       0.03028827 </v>
   <v>       0.00258992      -0.15496620      -0.00499683 </v>
  </varray>
  <energy>
   <i name="e_fr_energy">    -35.13834746 </i>
   <i name="e_wo_entrp">    -35.13834746 </i>
   <i name="e_0_energy">     -0.00000000 </i>
  </energy>
  <time name="totalsc">  402.85  404.08</time>
 </calculation>
 <calculation>
  <scstep>
   <time name="dav">    9.06    9.08</time>
   <time name="total">   24.30   24.37</time>
   <energy>
    <i name="alphaZ">     19.16410503 </i>
    <i name="ewald">  10054.56146355 </i>
    <i name="hartreedc"> -23644.08284882 </i>
    <i name="XCdc">    507.14237657 </i>
    <i name="pawpsdc">  16667.23354233 </i>
    <i name="pawaedc"> -16363.88587193 </i>
    <i name="eentropy">     -0.00000000 </i>
    <i name="bandstr">  -2843.76735446 </i>
    <i name="atom">  15568.50493531 </i>
    <i name="e_fr_energy">    -35.12965243 </i>
    <i name="e_wo_entrp">    -35.12965243 </i>
    <i name="e_0_energy">    -35.12965243 </i>
   </energy>
  </scstep>
  <scstep>
   <time name="dav">    9.58    9.61</time>
   <time name="total">   24.77   24.86</time>
   <energy>
    <i name="e_fr_energy">    -35.14044209 </i>
    <i name="e_wo_entrp">    -35.14044209 </i>
    <i name="e_0_energy">    -35.14044209 </i>
   </energy>
  </scstep>
  <scstep>
   <time name="dav">   12.01   12.04</time>
   <time name="total">   27.22   27.35</time>
   <energy>
    <i name="e_fr_energy">    -35.14082104 </i>
    <i name="e_wo_entrp">    -35.14082104 </i>
    <i name="e_0_energy">    -35.14082104 </i>
   </energy>
  </scstep>
  <scstep>
   <time name="dav">   10.30   10.32</time>
   <time name="total">   25.58   25.63</time>
   <energy>
    <i name="e_fr_energy">    -35.14088785 </i>
    <i name="e_wo_entrp">    -35.14088785 </i>
    <i name="e_0_energy">    -35.14088785 </i>
   </energy>
  </scstep>
  <scstep>
   <time name="dav">   10.05   10.08</time>
   <time name="total">   25.35   25.46</time>
   <energy>
    <i name="e_fr_energy">    -35.14096908 </i>
    <i name="e_wo_entrp">    -35.14096908 </i>
    <i name="e_0_energy">    -35.14096908 </i>
   </energy>
  </scstep>
  <scstep>
   <time name="dav">    9.77    9.78</time>
   <time name="total">   25.08   25.14</time>
   <energy>
    <i name="e_fr_energy">    -35.14111332 </i>
    <i name="e_wo_entrp">    -35.14111332 </i>
    <i name="e_0_energy">    -35.14111332 </i>
   </energy>
  </scstep>
  <scstep>
   <time name="dav">   11.34   11.36</time>
   <time name="total">   26.65   26.70</time>
   <energy>
    <i name="e_fr_energy">    -35.14121227 </i>
    <i name="e_wo_entrp">    -35.14121227 </i>
    <i name="e_0_energy">    -35.14121227 </i>
   </energy>
  </scstep>
  <scstep>
   <time name="dav">   10.93   10.94</time>
   <time name="total">   26.26   26.30</time>
   <energy>
    <i name="e_fr_energy">    -35.14129066 </i>
    <i name="e_wo_entrp">    -35.14129066 </i>
    <i name="e_0_energy">    -35.14129066 </i>
   </energy>
  </scstep>
  <scstep>
   <time name="dav">    9.32    9.34</time>
   <time name="total">   24.71   24.76</time>
   <energy>
    <i name="e_fr_energy">    -35.14135704 </i>
    <i name="e_wo_entrp">    -35.14135704 </i>
    <i name="e_0_energy">    -35.14135704 </i>
   </energy>
  </scstep>
  <scstep>
   <time name="dav">   11.13   11.15</time>
   <time name="total">   26.58   26.66</time>
   <energy>
    <i name="e_fr_energy">    -35.14128124 </i>
    <i name="e_wo_entrp">    -35.14128124 </i>
    <i name="e_0_energy">    -35.14128124 </i>
   </energy>
  </scstep>
  <scstep>
   <time name="dav">    9.55    9.56</time>
   <time name="total">   25.04   25.10</time>
   <energy>
    <i name="e_fr_energy">    -35.14130954 </i>
    <i name="e_wo_entrp">    -35.14130954 </i>
    <i name="e_0_energy">    -35.14130954 </i>
   </energy>
  </scstep>
  <scstep>
   <time name="dav">    9.71    9.72</time>
   <time name="total">   25.14   25.19</time>
   <energy>
    <i name="e_fr_energy">    -35.14138348 </i>
    <i name="e_wo_entrp">    -35.14138348 </i>
    <i name="e_0_energy">    -35.14138348 </i>
   </energy>
  </scstep>
  <scstep>
   <time name="dav">   11.01   11.03</time>
   <time name="total">   26.42   26.53</time>
   <energy>
    <i name="e_fr_energy">    -35.14139946 </i>
    <i name="e_wo_entrp">    -35.14139946 </i>
    <i name="e_0_energy">    -35.14139946 </i>
   </energy>
  </scstep>
  <scstep>
   <time name="dav">    8.87    8.88</time>
   <time name="total">   24.41   24.46</time>
   <energy>
    <i name="e_fr_energy">    -35.14140488 </i>
    <i name="e_wo_entrp">    -35.14140488 </i>
    <i name="e_0_energy">    -35.14140488 </i>
   </energy>
  </scstep>
  <scstep>
   <time name="dav">   10.35   10.36</time>
   <time name="total">   25.97   26.01</time>
   <energy>
    <i name="e_fr_energy">    -35.14140662 </i>
    <i name="e_wo_entrp">    -35.14140662 </i>
    <i name="e_0_energy">    -35.14140662 </i>
   </energy>
  </scstep>
  <scstep>
   <time name="dav">    7.97    7.98</time>
   <time name="total">   18.37   18.40</time>
   <energy>
    <i name="alphaZ">     19.16410503 </i>
    <i name="ewald">  10054.56146355 </i>
    <i name="hartreedc"> -23643.56508803 </i>
    <i name="XCdc">    507.13728372 </i>
    <i name="pawpsdc">  16685.26824561 </i>
    <i name="pawaedc"> -16381.88472626 </i>
    <i name="eentropy">     -0.00000000 </i>
    <i name="bandstr">  -2844.32762560 </i>
    <i name="atom">  15568.50493531 </i>
    <i name="e_fr_energy">    -35.14140666 </i>
    <i name="e_wo_entrp">    -35.14140666 </i>
    <i name="e_0_energy">    -35.14140666 </i>
   </energy>
  </scstep>
  <structure>
   <crystal>
    <varray name="basis" >
     <v>      17.00000000       0.00000000       0.00000000 </v>
     <v>       0.00000000      17.00000000       0.00000000 </v>
     <v>       0.00000000       0.00000000      17.00000000 </v>
    </varray>
    <i name="volume">   4913.00000000 </i>
    <varray name="rec_basis" >
     <v>       0.05882353       0.00000000       0.00000000 </v>
     <v>       0.00000000       0.05882353       0.00000000 </v>
     <v>       0.00000000       0.00000000       0.05882353 </v>
    </varray>
   </crystal>
   <varray name="positions" >
    <v>       0.93136193       0.96135823       0.93184281 </v>
    <v>       0.06998307       0.95903323       0.93297336 </v>
    <v>      -0.00135108       0.07959779       0.93237490 </v>
    <v>       0.93137109       0.96136349       0.06816418 </v>
    <v>       0.06998306       0.95903718       0.06702667 </v>
    <v>      -0.00134800       0.07961001       0.06761814 </v>
   </varray>
  </structure>
  <varray name="forces" >
   <v>      -0.05060129       0.03182287       0.13714469 </v>
   <v>       0.04623144       0.03283141      -0.03783444 </v>
   <v>       0.00429964      -0.06443749      -0.01707170 </v>
   <v>      -0.05150264       0.03231075      -0.13656987 </v>
   <v>       0.04702903       0.03298271       0.03759987 </v>
   <v>       0.00454383      -0.06551026       0.01673145 </v>
  </varray>
  <energy>
   <i name="e_fr_energy">    -35.14140666 </i>
   <i name="e_wo_entrp">    -35.14140666 </i>
   <i name="e_0_energy">     -0.00000000 </i>
  </energy>
  <time name="totalsc">  454.37  455.51</time>
 </calculation>
 <calculation>
  <scstep>
   <time name="dav">    9.07    9.09</time>
   <time name="total">   24.36   24.40</time>
   <energy>
    <i name="alphaZ">     19.16410503 </i>
    <i name="ewald">  10078.27662776 </i>
    <i name="hartreedc"> -23666.92743164 </i>
    <i name="XCdc">    507.19899896 </i>
    <i name="pawpsdc">  16685.36792473 </i>
    <i name="pawaedc"> -16381.98415405 </i>
    <i name="eentropy">     -0.00000000 </i>
    <i name="bandstr">  -2844.72381547 </i>
    <i name="atom">  15568.50493531 </i>
    <i name="e_fr_energy">    -35.12280937 </i>
    <i name="e_wo_entrp">    -35.12280937 </i>
    <i name="e_0_energy">    -35.12280937 </i>
   </energy>
  </scstep>
  <scstep>
   <time name="dav">    9.61    9.63</time>
   <time name="total">   24.91   24.95</time>
   <energy>
    <i name="e_fr_energy">    -35.14150537 </i>
    <i name="e_wo_entrp">    -35.14150537 </i>
    <i name="e_0_energy">    -35.14150537 </i>
   </energy>
  </scstep>
  <scstep>
   <time name="dav">   12.07   12.09</time>
   <time name="total">   27.39   27.44</time>
   <energy>
    <i name="e_fr_energy">    -35.14213536 </i>
    <i name="e_wo_entrp">    -35.14213536 </i>
    <i name="e_0_energy">    -35.14213536 </i>
   </energy>
  </scstep>
  <scstep>
   <time name="dav">   11.01   11.03</time>
   <time name="total">   26.34   26.39</time>
   <energy>
    <i name="e_fr_energy">    -35.14219237 </i>
    <i name="e_wo_entrp">    -35.14219237 </i>
    <i name="e_0_energy">    -35.14219237 </i>
   </energy>
  </scstep>
  <scstep>
   <time name="dav">   10.29   10.30</time>
   <time name="total">   25.60   25.65</time>
   <energy>
    <i name="e_fr_energy">    -35.14230951 </i>
    <i name="e_wo_entrp">    -35.14230951 </i>
    <i name="e_0_energy">    -35.14230951 </i>
   </energy>
  </scstep>
  <scstep>
   <time name="dav">    9.91    9.92</time>
   <time name="total">   25.25   25.29</time>
   <energy>
    <i name="e_fr_energy">    -35.14259118 </i>
    <i name="e_wo_entrp">    -35.14259118 </i>
    <i name="e_0_energy">    -35.14259118 </i>
   </energy>
  </scstep>
  <scstep>
   <time name="dav">   10.77   10.79</time>
   <time name="total">   26.03   26.10</time>
   <energy>
    <i name="e_fr_energy">    -35.14275978 </i>
    <i name="e_wo_entrp">    -35.14275978 </i>
    <i name="e_0_energy">    -35.14275978 </i>
   </energy>
  </scstep>
  <scstep>
   <time name="dav">   10.43   10.45</time>
   <time name="total">   25.78   25.84</time>
   <energy>
    <i name="e_fr_energy">    -35.14286595 </i>
    <i name="e_wo_entrp">    -35.14286595 </i>
    <i name="e_0_energy">    -35.14286595 </i>
   </energy>
  </scstep>
  <scstep>
   <time name="dav">    9.34    9.35</time>
   <time name="total">   24.69   24.75</time>
   <energy>
    <i name="e_fr_energy">    -35.14297281 </i>
    <i name="e_wo_entrp">    -35.14297281 </i>
    <i name="e_0_energy">    -35.14297281 </i>
   </energy>
  </scstep>
  <scstep>
   <time name="dav">   11.37   11.39</time>
   <time name="total">   26.73   26.81</time>
   <energy>
    <i name="e_fr_energy">    -35.14287874 </i>
    <i name="e_wo_entrp">    -35.14287874 </i>
    <i name="e_0_energy">    -35.14287874 </i>
   </energy>
  </scstep>
  <scstep>
   <time name="dav">   10.04   10.06</time>
   <time name="total">   25.45   25.51</time>
   <energy>
    <i name="e_fr_energy">    -35.14289612 </i>
    <i name="e_wo_entrp">    -35.14289612 </i>
    <i name="e_0_energy">    -35.14289612 </i>
   </energy>
  </scstep>
  <scstep>
   <time name="dav">    9.83    9.85</time>
   <time name="total">   25.32   25.41</time>
   <energy>
    <i name="e_fr_energy">    -35.14299895 </i>
    <i name="e_wo_entrp">    -35.14299895 </i>
    <i name="e_0_energy">    -35.14299895 </i>
   </energy>
  </scstep>
  <scstep>
   <time name="dav">   11.07   11.09</time>
   <time name="total">   26.63   26.68</time>
   <energy>
    <i name="e_fr_energy">    -35.14301894 </i>
    <i name="e_wo_entrp">    -35.14301894 </i>
    <i name="e_0_energy">    -35.14301894 </i>
   </energy>
  </scstep>
  <scstep>
   <time name="dav">    8.47    8.48</time>
   <time name="total">   24.02   24.07</time>
   <energy>
    <i name="e_fr_energy">    -35.14302734 </i>
    <i name="e_wo_entrp">    -35.14302734 </i>
    <i name="e_0_energy">    -35.14302734 </i>
   </energy>
  </scstep>
  <scstep>
   <time name="dav">   10.16   10.18</time>
   <time name="total">   25.77   25.81</time>
   <energy>
    <i name="e_fr_energy">    -35.14303093 </i>
    <i name="e_wo_entrp">    -35.14303093 </i>
    <i name="e_0_energy">    -35.14303093 </i>
   </energy>
  </scstep>
  <scstep>
   <time name="dav">    8.48    8.50</time>
   <time name="total">   24.09   24.17</time>
   <energy>
    <i name="e_fr_energy">    -35.14303265 </i>
    <i name="e_wo_entrp">    -35.14303265 </i>
    <i name="e_0_energy">    -35.14303265 </i>
   </energy>
  </scstep>
  <scstep>
   <time name="dav">    6.47    6.48</time>
   <time name="total">   16.94   16.97</time>
   <energy>
    <i name="alphaZ">     19.16410503 </i>
    <i name="ewald">  10078.27662776 </i>
    <i name="hartreedc"> -23666.57810080 </i>
    <i name="XCdc">    507.19713085 </i>
    <i name="pawpsdc">  16710.22879424 </i>
    <i name="pawaedc"> -16406.79643461 </i>
    <i name="eentropy">     -0.00000000 </i>
    <i name="bandstr">  -2845.14009082 </i>
    <i name="atom">  15568.50493531 </i>
    <i name="e_fr_energy">    -35.14303305 </i>
    <i name="e_wo_entrp">    -35.14303305 </i>
    <i name="e_0_energy">    -35.14303305 </i>
   </energy>
  </scstep>
  <structure>
   <crystal>
    <varray name="basis" >
     <v>      17.00000000       0.00000000       0.00000000 </v>
     <v>       0.00000000      17.00000000       0.00000000 </v>
     <v>       0.00000000       0.00000000      17.00000000 </v>
    </varray>
    <i name="volume">   4913.00000000 </i>
    <varray name="rec_basis" >
     <v>       0.05882353       0.00000000       0.00000000 </v>
     <v>       0.00000000       0.05882353       0.00000000 </v>
     <v>       0.00000000       0.00000000       0.05882353 </v>
    </varray>
   </crystal>
   <varray name="positions" >
    <v>       0.93111942       0.96149758       0.93202420 </v>
    <v>       0.07011951       0.95933440       0.93297954 </v>
    <v>      -0.00124472       0.07915710       0.93234461 </v>
    <v>       0.93112610       0.96150397       0.06798375 </v>
    <v>       0.07012036       0.95933731       0.06701921 </v>
    <v>      -0.00124060       0.07916958       0.06764875 </v>
   </varray>
  </structure>
  <varray name="forces" >
   <v>      -0.07657262      -0.03411880       0.07138583 </v>
   <v>       0.06787740      -0.02376086      -0.04947014 </v>
   <v>       0.00878359       0.05809456      -0.04265121 </v>
   <v>      -0.07721839      -0.03422732      -0.07019786 </v>
   <v>       0.06834144      -0.02335732       0.04945474 </v>
   <v>       0.00878858       0.05736974       0.04147863 </v>
  </varray>
  <energy>
   <i name="e_fr_energy">    -35.14303305 </i>
   <i name="e_wo_entrp">    -35.14303305 </i>
   <i name="e_0_energy">     -0.00000000 </i>
  </energy>
  <time name="totalsc">  478.35  479.41</time>
 </calculation>
 <calculation>
  <scstep>
   <time name="dav">    9.58    9.61</time>
   <time name="total">   24.85   24.94</time>
   <energy>
    <i name="alphaZ">     19.16410503 </i>
    <i name="ewald">  10061.13564575 </i>
    <i name="hartreedc"> -23649.72079035 </i>
    <i name="XCdc">    507.15161561 </i>
    <i name="pawpsdc">  16710.25205949 </i>
    <i name="pawaedc"> -16406.81970424 </i>
    <i name="eentropy">     -0.00000000 </i>
    <i name="bandstr">  -2844.80618944 </i>
    <i name="atom">  15568.50493531 </i>
    <i name="e_fr_energy">    -35.13832283 </i>
    <i name="e_wo_entrp">    -35.13832283 </i>
    <i name="e_0_energy">    -35.13832283 </i>
   </energy>
  </scstep>
  <scstep>
   <time name="dav">    9.13    9.16</time>
   <time name="total">   24.39   24.47</time>
   <energy>
    <i name="e_fr_energy">    -35.14369685 </i>
    <i name="e_wo_entrp">    -35.14369685 </i>
    <i name="e_0_energy">    -35.14369685 </i>
   </energy>
  </scstep>
  <scstep>
   <time name="dav">   11.88   11.91</time>
   <time name="total">   27.11   27.21</time>
   <energy>
    <i name="e_fr_energy">    -35.14380661 </i>
    <i name="e_wo_entrp">    -35.14380661 </i>
    <i name="e_0_energy">    -35.14380661 </i>
   </energy>
  </scstep>
  <scstep>
   <time name="dav">    9.84    9.88</time>
   <time name="total">   25.02   25.10</time>
   <energy>
    <i name="e_fr_energy">    -35.14378967 </i>
    <i name="e_wo_entrp">    -35.14378967 </i>
    <i name="e_0_energy">    -35.14378967 </i>
   </energy>
  </scstep>
  <scstep>
   <time name="dav">   10.15   10.18</time>
   <time name="total">   25.38   25.46</time>
   <energy>
    <i name="e_fr_energy">    -35.14386112 </i>
    <i name="e_wo_entrp">    -35.14386112 </i>
    <i name="e_0_energy">    -35.14386112 </i>
   </energy>
  </scstep>
  <scstep>
   <time name="dav">   10.27   10.29</time>
   <time name="total">   25.51   25.60</time>
   <energy>
    <i name="e_fr_energy">    -35.14384280 </i>
    <i name="e_wo_entrp">    -35.14384280 </i>
    <i name="e_0_energy">    -35.14384280 </i>
   </energy>
  </scstep>
  <scstep>
   <time name="dav">   11.31   11.46</time>
   <time name="total">   26.56   26.79</time>
   <energy>
    <i name="e_fr_energy">    -35.14383656 </i>
    <i name="e_wo_entrp">    -35.14383656 </i>
    <i name="e_0_energy">    -35.14383656 </i>
   </energy>
  </scstep>
  <scstep>
   <time name="dav">    9.02    9.05</time>
   <time name="total">   24.38   24.46</time>
   <energy>
    <i name="e_fr_energy">    -35.14386439 </i>
    <i name="e_wo_entrp">    -35.14386439 </i>
    <i name="e_0_energy">    -35.14386439 </i>
   </energy>
  </scstep>
  <scstep>
   <time name="dav">   10.73   10.76</time>
   <time name="total">   26.02   26.10</time>
   <energy>
    <i name="e_fr_energy">    -35.14392315 </i>
    <i name="e_wo_entrp">    -35.14392315 </i>
    <i name="e_0_energy">    -35.14392315 </i>
   </energy>
  </scstep>
  <scstep>
   <time name="dav">   11.84   11.87</time>
   <time name="total">   27.20   27.36</time>
   <energy>
    <i name="e_fr_energy">    -35.14392402 </i>
    <i name="e_wo_entrp">    -35.14392402 </i>
    <i name="e_0_energy">    -35.14392402 </i>
   </energy>
  </scstep>
  <scstep>
   <time name="dav">   10.06   10.10</time>
   <time name="total">   20.39   20.48</time>
   <energy>
    <i name="alphaZ">     19.16410503 </i>
    <i name="ewald">  10061.13564575 </i>
    <i name="hartreedc"> -23649.80952831 </i>
    <i name="XCdc">    507.15037852 </i>
    <i name="pawpsdc">  16692.54919908 </i>
    <i name="pawaedc"> -16389.15785034 </i>
    <i name="eentropy">     -0.00000000 </i>
    <i name="bandstr">  -2844.68080894 </i>
    <i name="atom">  15568.50493531 </i>
    <i name="e_fr_energy">    -35.14392390 </i>
    <i name="e_wo_entrp">    -35.14392390 </i>
    <i name="e_0_energy">    -35.14392390 </i>
   </energy>
  </scstep>
  <structure>
   <crystal>
    <varray name="basis" >
     <v>      17.00000000       0.00000000       0.00000000 </v>
     <v>       0.00000000      17.00000000       0.00000000 </v>
     <v>       0.00000000       0.00000000      17.00000000 </v>
    </varray>
    <i name="volume">   4913.00000000 </i>
    <varray name="rec_basis" >
     <v>       0.05882353       0.00000000       0.00000000 </v>
     <v>       0.00000000       0.05882353       0.00000000 </v>
     <v>       0.00000000       0.00000000       0.05882353 </v>
    </varray>
   </crystal>
   <varray name="positions" >
    <v>       0.93091441       0.96146652       0.93220443 </v>
    <v>       0.07028210       0.95936250       0.93288677 </v>
    <v>      -0.00120207       0.07916043       0.93225596 </v>
    <v>       0.93091925       0.96147297       0.06780601 </v>
    <v>       0.07028404       0.95936593       0.06711164 </v>
    <v>      -0.00119768       0.07917159       0.06773525 </v>
   </varray>
  </structure>
  <varray name="forces" >
   <v>      -0.00573881      -0.00149431       0.00643121 </v>
   <v>      -0.00285999       0.00670133      -0.00026498 </v>
   <v>       0.00856151      -0.00538337      -0.00446332 </v>
   <v>      -0.00538651      -0.00108140      -0.00683680 </v>
   <v>      -0.00279622       0.00724095       0.00050738 </v>
   <v>       0.00822002      -0.00598320       0.00462651 </v>
  </varray>
  <energy>
   <i name="e_fr_energy">    -35.14392390 </i>
   <i name="e_wo_entrp">    -35.14392390 </i>
   <i name="e_0_energy">     -0.00000000 </i>
  </energy>
  <time name="totalsc">  329.38  330.73</time>
 </calculation>
 <calculation>
  <scstep>
   <time name="dav">    9.32    9.34</time>
   <time name="total">   24.63   24.68</time>
   <energy>
    <i name="alphaZ">     19.16410503 </i>
    <i name="ewald">  10060.11030416 </i>
    <i name="hartreedc"> -23648.73957038 </i>
    <i name="XCdc">    507.14683302 </i>
    <i name="pawpsdc">  16691.58834477 </i>
    <i name="pawaedc"> -16388.19895582 </i>
    <i name="eentropy">     -0.00000000 </i>
    <i name="bandstr">  -2844.71990116 </i>
    <i name="atom">  15568.50493531 </i>
    <i name="e_fr_energy">    -35.14390507 </i>
    <i name="e_wo_entrp">    -35.14390507 </i>
    <i name="e_0_energy">    -35.14390507 </i>
   </energy>
  </scstep>
  <scstep>
   <time name="dav">    9.26    9.29</time>
   <time name="total">   24.49   24.60</time>
   <energy>
    <i name="e_fr_energy">    -35.14392206 </i>
    <i name="e_wo_entrp">    -35.14392206 </i>
    <i name="e_0_energy">    -35.14392206 </i>
   </energy>
  </scstep>
  <scstep>
   <time name="dav">    8.51    8.52</time>
   <time name="total">   23.78   23.85</time>
   <energy>
    <i name="e_fr_energy">    -35.14392177 </i>
    <i name="e_wo_entrp">    -35.14392177 </i>
    <i name="e_0_energy">    -35.14392177 </i>
   </energy>
  </scstep>
  <scstep>
   <time name="dav">    6.50    6.51</time>
   <time name="total">   21.77   21.83</time>
   <energy>
    <i name="e_fr_energy">    -35.14392321 </i>
    <i name="e_wo_entrp">    -35.14392321 </i>
    <i name="e_0_energy">    -35.14392321 </i>
   </energy>
  </scstep>
  <scstep>
   <time name="dav">   10.56   10.57</time>
   <time name="total">   25.87   25.91</time>
   <energy>
    <i name="e_fr_energy">    -35.14392947 </i>
    <i name="e_wo_entrp">    -35.14392947 </i>
    <i name="e_0_energy">    -35.14392947 </i>
   </energy>
  </scstep>
  <scstep>
   <time name="dav">    9.66    9.68</time>
   <time name="total">   20.15   20.18</time>
   <energy>
    <i name="alphaZ">     19.16410503 </i>
    <i name="ewald">  10060.11030416 </i>
    <i name="hartreedc"> -23648.94696559 </i>
    <i name="XCdc">    507.15064051 </i>
    <i name="pawpsdc">  16690.96278546 </i>
    <i name="pawaedc"> -16387.56945401 </i>
    <i name="eentropy">     -0.00000000 </i>
    <i name="bandstr">  -2844.52028029 </i>
    <i name="atom">  15568.50493531 </i>
    <i name="e_fr_energy">    -35.14392942 </i>
    <i name="e_wo_entrp">    -35.14392942 </i>
    <i name="e_0_energy">    -35.14392942 </i>
   </energy>
  </scstep>
  <structure>
   <crystal>
    <varray name="basis" >
     <v>      17.00000000       0.00000000       0.00000000 </v>
     <v>       0.00000000      17.00000000       0.00000000 </v>
     <v>       0.00000000       0.00000000      17.00000000 </v>
    </varray>
    <i name="volume">   4913.00000000 </i>
    <varray name="rec_basis" >
     <v>       0.05882353       0.00000000       0.00000000 </v>
     <v>       0.00000000       0.05882353       0.00000000 </v>
     <v>       0.00000000       0.00000000       0.05882353 </v>
    </varray>
   </crystal>
   <varray name="positions" >
    <v>       0.93090213       0.96146466       0.93221523 </v>
    <v>       0.07029184       0.95936419       0.93288122 </v>
    <v>      -0.00119951       0.07916063       0.93225065 </v>
    <v>       0.93090686       0.96147112       0.06779537 </v>
    <v>       0.07029385       0.95936765       0.06711717 </v>
    <v>      -0.00119511       0.07917171       0.06774043 </v>
   </varray>
  </structure>
  <varray name="forces" >
   <v>      -0.00157718       0.00144795       0.00870306 </v>
   <v>      -0.00518140       0.00597655       0.00094980 </v>
   <v>       0.00674969      -0.00798238      -0.00612731 </v>
   <v>      -0.00081530       0.00208780      -0.00882508 </v>
   <v>      -0.00575746       0.00679711      -0.00098172 </v>
   <v>       0.00658166      -0.00832704       0.00628124 </v>
  </varray>
  <energy>
   <i name="e_fr_energy">    -35.14392942 </i>
   <i name="e_wo_entrp">    -35.14392942 </i>
   <i name="e_0_energy">     -0.00000000 </i>
  </energy>
  <time name="totalsc">  193.12  193.61</time>
 </calculation>
 <calculation>
  <scstep>
   <time name="dav">    9.36    9.38</time>
   <time name="total">   24.68   24.72</time>
   <energy>
    <i name="alphaZ">     19.16410503 </i>
    <i name="ewald">  10058.06014927 </i>
    <i name="hartreedc"> -23646.91707113 </i>
    <i name="XCdc">    507.14499063 </i>
    <i name="pawpsdc">  16690.89543078 </i>
    <i name="pawaedc"> -16387.50242199 </i>
    <i name="eentropy">     -0.00000000 </i>
    <i name="bandstr">  -2844.49396358 </i>
    <i name="atom">  15568.50493531 </i>
    <i name="e_fr_energy">    -35.14384566 </i>
    <i name="e_wo_entrp">    -35.14384566 </i>
    <i name="e_0_energy">    -35.14384566 </i>
   </energy>
  </scstep>
  <scstep>
   <time name="dav">    9.17    9.18</time>
   <time name="total">   24.36   24.44</time>
   <energy>
    <i name="e_fr_energy">    -35.14392216 </i>
    <i name="e_wo_entrp">    -35.14392216 </i>
    <i name="e_0_energy">    -35.14392216 </i>
   </energy>
  </scstep>
  <scstep>
   <time name="dav">   10.98   11.00</time>
   <time name="total">   26.21   26.29</time>
   <energy>
    <i name="e_fr_energy">    -35.14392378 </i>
    <i name="e_wo_entrp">    -35.14392378 </i>
    <i name="e_0_energy">    -35.14392378 </i>
   </energy>
  </scstep>
  <scstep>
   <time name="dav">    7.17    7.18</time>
   <time name="total">   22.49   22.53</time>
   <energy>
    <i name="e_fr_energy">    -35.14392359 </i>
    <i name="e_wo_entrp">    -35.14392359 </i>
    <i name="e_0_energy">    -35.14392359 </i>
   </energy>
  </scstep>
  <scstep>
   <time name="dav">    8.49    8.51</time>
   <time name="total">   23.81   23.85</time>
   <energy>
    <i name="e_fr_energy">    -35.14392689 </i>
    <i name="e_wo_entrp">    -35.14392689 </i>
    <i name="e_0_energy">    -35.14392689 </i>
   </energy>
  </scstep>
  <scstep>
   <time name="dav">    9.17    9.18</time>
   <time name="total">   19.59   19.69</time>
   <energy>
    <i name="alphaZ">     19.16410503 </i>
    <i name="ewald">  10058.06014927 </i>
    <i name="hartreedc"> -23646.90372945 </i>
    <i name="XCdc">    507.14405984 </i>
    <i name="pawpsdc">  16688.86896259 </i>
    <i name="pawaedc"> -16385.48170095 </i>
    <i name="eentropy">     -0.00000000 </i>
    <i name="bandstr">  -2844.50070772 </i>
    <i name="atom">  15568.50493531 </i>
    <i name="e_fr_energy">    -35.14392609 </i>
    <i name="e_wo_entrp">    -35.14392609 </i>
    <i name="e_0_energy">    -35.14392609 </i>
   </energy>
  </scstep>
  <structure>
   <crystal>
    <varray name="basis" >
     <v>      17.00000000       0.00000000       0.00000000 </v>
     <v>       0.00000000      17.00000000       0.00000000 </v>
     <v>       0.00000000       0.00000000      17.00000000 </v>
    </varray>
    <i name="volume">   4913.00000000 </i>
    <varray name="rec_basis" >
     <v>       0.05882353       0.00000000       0.00000000 </v>
     <v>       0.00000000       0.05882353       0.00000000 </v>
     <v>       0.00000000       0.00000000       0.05882353 </v>
    </varray>
   </crystal>
   <varray name="positions" >
    <v>       0.93087756       0.96146093       0.93223682 </v>
    <v>       0.07031132       0.95936756       0.93287010 </v>
    <v>      -0.00119440       0.07916102       0.93224002 </v>
    <v>       0.93088208       0.96146740       0.06777407 </v>
    <v>       0.07031346       0.95937108       0.06712825 </v>
    <v>      -0.00118996       0.07917195       0.06775079 </v>
   </varray>
  </structure>
  <varray name="forces" >
   <v>       0.00733670       0.00602789       0.00198601 </v>
   <v>      -0.01341847       0.00907707       0.00961724 </v>
   <v>       0.00567431      -0.01573015      -0.00226152 </v>
   <v>       0.00822619       0.00735570      -0.00213296 </v>
   <v>      -0.01335492       0.00966813      -0.00930400 </v>
   <v>       0.00553619      -0.01639865       0.00209523 </v>
  </varray>
  <energy>
   <i name="e_fr_energy">    -35.14392609 </i>
   <i name="e_wo_entrp">    -35.14392609 </i>
   <i name="e_0_energy">     -0.00000000 </i>
  </energy>
  <time name="totalsc">  193.38  193.92</time>
 </calculation>
 <calculation>
  <scstep>
   <time name="dav">    9.27    9.28</time>
   <time name="total">   24.44   24.51</time>
   <energy>
    <i name="alphaZ">     19.16410503 </i>
    <i name="ewald">  10059.46529174 </i>
    <i name="hartreedc"> -23648.29799049 </i>
    <i name="XCdc">    507.14773090 </i>
    <i name="pawpsdc">  16688.00768327 </i>
    <i name="pawaedc"> -16384.62256258 </i>
    <i name="eentropy">     -0.00000000 </i>
    <i name="bandstr">  -2844.51308738 </i>
    <i name="atom">  15568.50493531 </i>
    <i name="e_fr_energy">    -35.14389419 </i>
    <i name="e_wo_entrp">    -35.14389419 </i>
    <i name="e_0_energy">    -35.14389419 </i>
   </energy>
  </scstep>
  <scstep>
   <time name="dav">    9.07    9.09</time>
   <time name="total">   24.21   24.26</time>
   <energy>
    <i name="e_fr_energy">    -35.14393243 </i>
    <i name="e_wo_entrp">    -35.14393243 </i>
    <i name="e_0_energy">    -35.14393243 </i>
   </energy>
  </scstep>
  <scstep>
   <time name="dav">    8.87    8.88</time>
   <time name="total">   23.89   23.99</time>
   <energy>
    <i name="e_fr_energy">    -35.14393370 </i>
    <i name="e_wo_entrp">    -35.14393370 </i>
    <i name="e_0_energy">    -35.14393370 </i>
   </energy>
  </scstep>
  <scstep>
   <time name="dav">    6.19    6.20</time>
   <time name="total">   21.31   21.38</time>
   <energy>
    <i name="e_fr_energy">    -35.14393330 </i>
    <i name="e_wo_entrp">    -35.14393330 </i>
    <i name="e_0_energy">    -35.14393330 </i>
   </energy>
  </scstep>
  <scstep>
   <time name="dav">    5.96    5.97</time>
   <time name="total">   21.12   21.17</time>
   <energy>
    <i name="e_fr_energy">    -35.14393408 </i>
    <i name="e_wo_entrp">    -35.14393408 </i>
    <i name="e_0_energy">    -35.14393408 </i>
   </energy>
  </scstep>
  <scstep>
   <time name="dav">    7.19    7.20</time>
   <time name="total">   22.42   22.46</time>
   <energy>
    <i name="e_fr_energy">    -35.14393654 </i>
    <i name="e_wo_entrp">    -35.14393654 </i>
    <i name="e_0_energy">    -35.14393654 </i>
   </energy>
  </scstep>
  <scstep>
   <time name="dav">    8.50    8.52</time>
   <time name="total">   18.85   18.90</time>
   <energy>
    <i name="alphaZ">     19.16410503 </i>
    <i name="ewald">  10059.46529174 </i>
    <i name="hartreedc"> -23648.28070660 </i>
    <i name="XCdc">    507.14782911 </i>
    <i name="pawpsdc">  16688.28774564 </i>
    <i name="pawaedc"> -16384.90167507 </i>
    <i name="eentropy">     -0.00000000 </i>
    <i name="bandstr">  -2844.53146266 </i>
    <i name="atom">  15568.50493531 </i>
    <i name="e_fr_energy">    -35.14393748 </i>
    <i name="e_wo_entrp">    -35.14393748 </i>
    <i name="e_0_energy">    -35.14393748 </i>
   </energy>
  </scstep>
  <structure>
   <crystal>
    <varray name="basis" >
     <v>      17.00000000       0.00000000       0.00000000 </v>
     <v>       0.00000000      17.00000000       0.00000000 </v>
     <v>       0.00000000       0.00000000      17.00000000 </v>
    </varray>
    <i name="volume">   4913.00000000 </i>
    <varray name="rec_basis" >
     <v>       0.05882353       0.00000000       0.00000000 </v>
     <v>       0.00000000       0.05882353       0.00000000 </v>
     <v>       0.00000000       0.00000000       0.05882353 </v>
    </varray>
   </crystal>
   <varray name="positions" >
    <v>       0.93089440       0.96146348       0.93222202 </v>
    <v>       0.07029797       0.95936525       0.93287772 </v>
    <v>      -0.00119791       0.07916075       0.93224731 </v>
    <v>       0.93089907       0.96146995       0.06778867 </v>
    <v>       0.07030002       0.95936873       0.06712066 </v>
    <v>      -0.00119349       0.07917178       0.06774369 </v>
   </varray>
  </structure>
  <varray name="forces" >
   <v>       0.00266763       0.00293940       0.00417666 </v>
   <v>      -0.00949300       0.00755108       0.00486224 </v>
   <v>       0.00678797      -0.01057101      -0.00310823 </v>
   <v>       0.00309015       0.00307770      -0.00404549 </v>
   <v>      -0.00953470       0.00817548      -0.00491452 </v>
   <v>       0.00648195      -0.01117265       0.00302934 </v>
  </varray>
  <energy>
   <i name="e_fr_energy">    -35.14393748 </i>
   <i name="e_wo_entrp">    -35.14393748 </i>
   <i name="e_0_energy">     -0.00000000 </i>
  </energy>
  <time name="totalsc">  208.16  208.72</time>
 </calculation>
 <calculation>
  <scstep>
   <time name="dav">    9.46    9.47</time>
   <time name="total">   24.65   24.73</time>
   <energy>
    <i name="alphaZ">     19.16410503 </i>
    <i name="ewald">  10059.72730564 </i>
    <i name="hartreedc"> -23648.53069513 </i>
    <i name="XCdc">    507.14842558 </i>
    <i name="pawpsdc">  16688.31413873 </i>
    <i name="pawaedc"> -16384.92803868 </i>
    <i name="eentropy">     -0.00000000 </i>
    <i name="bandstr">  -2844.54411255 </i>
    <i name="atom">  15568.50493531 </i>
    <i name="e_fr_energy">    -35.14393605 </i>
    <i name="e_wo_entrp">    -35.14393605 </i>
    <i name="e_0_energy">    -35.14393605 </i>
   </energy>
  </scstep>
  <scstep>
   <time name="dav">    9.29    9.31</time>
   <time name="total">   24.31   24.40</time>
   <energy>
    <i name="e_fr_energy">    -35.14393681 </i>
    <i name="e_wo_entrp">    -35.14393681 </i>
    <i name="e_0_energy">    -35.14393681 </i>
   </energy>
  </scstep>
  <scstep>
   <time name="dav">    5.92    5.93</time>
   <time name="total">   21.09   21.17</time>
   <energy>
    <i name="e_fr_energy">    -35.14393624 </i>
    <i name="e_wo_entrp">    -35.14393624 </i>
    <i name="e_0_energy">    -35.14393624 </i>
   </energy>
  </scstep>
  <scstep>
   <time name="dav">    7.70    7.72</time>
   <time name="total">   22.81   22.89</time>
   <energy>
    <i name="e_fr_energy">    -35.14393699 </i>
    <i name="e_wo_entrp">    -35.14393699 </i>
    <i name="e_0_energy">    -35.14393699 </i>
   </energy>
  </scstep>
  <scstep>
   <time name="dav">    6.27    6.29</time>
   <time name="total">   21.41   21.47</time>
   <energy>
    <i name="e_fr_energy">    -35.14393695 </i>
    <i name="e_wo_entrp">    -35.14393695 </i>
    <i name="e_0_energy">    -35.14393695 </i>
   </energy>
  </scstep>
  <scstep>
   <time name="dav">    6.59    6.61</time>
   <time name="total">   16.98   17.04</time>
   <energy>
    <i name="alphaZ">     19.16410503 </i>
    <i name="ewald">  10059.72730564 </i>
    <i name="hartreedc"> -23648.46543579 </i>
    <i name="XCdc">    507.14768314 </i>
    <i name="pawpsdc">  16688.90492307 </i>
    <i name="pawaedc"> -16385.51788380 </i>
    <i name="eentropy">     -0.00000000 </i>
    <i name="bandstr">  -2844.60956957 </i>
    <i name="atom">  15568.50493531 </i>
    <i name="e_fr_energy">    -35.14393697 </i>
    <i name="e_wo_entrp">    -35.14393697 </i>
    <i name="e_0_energy">    -35.14393697 </i>
   </energy>
  </scstep>
  <structure>
   <crystal>
    <varray name="basis" >
     <v>      17.00000000       0.00000000       0.00000000 </v>
     <v>       0.00000000      17.00000000       0.00000000 </v>
     <v>       0.00000000       0.00000000      17.00000000 </v>
    </varray>
    <i name="volume">   4913.00000000 </i>
    <varray name="rec_basis" >
     <v>       0.05882353       0.00000000       0.00000000 </v>
     <v>       0.00000000       0.05882353       0.00000000 </v>
     <v>       0.00000000       0.00000000       0.05882353 </v>
    </varray>
   </crystal>
   <varray name="positions" >
    <v>       0.93089754       0.96146396       0.93221926 </v>
    <v>       0.07029548       0.95936482       0.93287914 </v>
    <v>      -0.00119856       0.07916070       0.93224866 </v>
    <v>       0.93090223       0.96147042       0.06779139 </v>
    <v>       0.07029751       0.95936829       0.06711924 </v>
    <v>      -0.00119415       0.07917175       0.06774236 </v>
   </varray>
  </structure>
  <varray name="forces" >
   <v>       0.00107669       0.00210784       0.00666579 </v>
   <v>      -0.00799744       0.00691784       0.00278199 </v>
   <v>       0.00685251      -0.00924244      -0.00479312 </v>
   <v>       0.00157787       0.00259547      -0.00710760 </v>
   <v>      -0.00804760       0.00755863      -0.00252974 </v>
   <v>       0.00653797      -0.00993735       0.00498268 </v>
  </varray>
  <energy>
   <i name="e_fr_energy">    -35.14393697 </i>
   <i name="e_wo_entrp">    -35.14393697 </i>
   <i name="e_0_energy">     -0.00000000 </i>
  </energy>
  <time name="totalsc">  183.18  183.79</time>
 </calculation>
 <calculation>
  <scstep>
   <time name="dav">    9.00    9.03</time>
   <time name="total">   24.10   24.20</time>
   <energy>
    <i name="alphaZ">     19.16410503 </i>
    <i name="ewald">  10059.68608212 </i>
    <i name="hartreedc"> -23648.42754932 </i>
    <i name="XCdc">    507.14762098 </i>
    <i name="pawpsdc">  16688.96661291 </i>
    <i name="pawaedc"> -16385.57937556 </i>
    <i name="eentropy">     -0.00000000 </i>
    <i name="bandstr">  -2844.60636873 </i>
    <i name="atom">  15568.50493531 </i>
    <i name="e_fr_energy">    -35.14393726 </i>
    <i name="e_wo_entrp">    -35.14393726 </i>
    <i name="e_0_energy">    -35.14393726 </i>
   </energy>
  </scstep>
  <scstep>
   <time name="dav">    5.68    5.70</time>
   <time name="total">   20.79   20.90</time>
   <energy>
    <i name="e_fr_energy">    -35.14393740 </i>
    <i name="e_wo_entrp">    -35.14393740 </i>
    <i name="e_0_energy">    -35.14393740 </i>
   </energy>
  </scstep>
  <scstep>
   <time name="dav">    5.92    5.94</time>
   <time name="total">   21.03   21.12</time>
   <energy>
    <i name="e_fr_energy">    -35.14393797 </i>
    <i name="e_wo_entrp">    -35.14393797 </i>
    <i name="e_0_energy">    -35.14393797 </i>
   </energy>
  </scstep>
  <scstep>
   <time name="dav">    6.38    6.39</time>
   <time name="total">   21.46   21.55</time>
   <energy>
    <i name="e_fr_energy">    -35.14393824 </i>
    <i name="e_wo_entrp">    -35.14393824 </i>
    <i name="e_0_energy">    -35.14393824 </i>
   </energy>
  </scstep>
  <scstep>
   <time name="dav">    5.94    5.95</time>
   <time name="total">   21.07   21.11</time>
   <energy>
    <i name="e_fr_energy">    -35.14393834 </i>
    <i name="e_wo_entrp">    -35.14393834 </i>
    <i name="e_0_energy">    -35.14393834 </i>
   </energy>
  </scstep>
  <scstep>
   <time name="dav">    5.71    5.71</time>
   <time name="total">   16.06   16.10</time>
   <energy>
    <i name="alphaZ">     19.16410503 </i>
    <i name="ewald">  10059.68608212 </i>
    <i name="hartreedc"> -23648.47319619 </i>
    <i name="XCdc">    507.14830906 </i>
    <i name="pawpsdc">  16689.32910545 </i>
    <i name="pawaedc"> -16385.94045838 </i>
    <i name="eentropy">     -0.00000000 </i>
    <i name="bandstr">  -2844.56282079 </i>
    <i name="atom">  15568.50493531 </i>
    <i name="e_fr_energy">    -35.14393838 </i>
    <i name="e_wo_entrp">    -35.14393838 </i>
    <i name="e_0_energy">    -35.14393838 </i>
   </energy>
  </scstep>
  <structure>
   <crystal>
    <varray name="basis" >
     <v>      17.00000000       0.00000000       0.00000000 </v>
     <v>       0.00000000      17.00000000       0.00000000 </v>
     <v>       0.00000000       0.00000000      17.00000000 </v>
    </varray>
    <i name="volume">   4913.00000000 </i>
    <varray name="rec_basis" >
     <v>       0.05882353       0.00000000       0.00000000 </v>
     <v>       0.00000000       0.05882353       0.00000000 </v>
     <v>       0.00000000       0.00000000       0.05882353 </v>
    </varray>
   </crystal>
   <varray name="positions" >
    <v>       0.93089705       0.96146389       0.93221970 </v>
    <v>       0.07029587       0.95936488       0.93287892 </v>
    <v>      -0.00119846       0.07916071       0.93224845 </v>
    <v>       0.93090173       0.96147035       0.06779096 </v>
    <v>       0.07029791       0.95936836       0.06711946 </v>
    <v>      -0.00119404       0.07917176       0.06774257 </v>
   </varray>
  </structure>
  <varray name="forces" >
   <v>       0.00116313       0.00294568       0.00743766 </v>
   <v>      -0.00766881       0.00666062       0.00323256 </v>
   <v>       0.00647011      -0.00966715      -0.00458002 </v>
   <v>       0.00157878       0.00310017      -0.00727012 </v>
   <v>      -0.00770408       0.00729725      -0.00328238 </v>
   <v>       0.00616087      -0.01033658       0.00446230 </v>
  </varray>
  <energy>
   <i name="e_fr_energy">    -35.14393838 </i>
   <i name="e_wo_entrp">    -35.14393838 </i>
   <i name="e_0_energy">     -0.00000000 </i>
  </energy>
  <time name="totalsc">  176.68  177.27</time>
 </calculation>
 <calculation>
  <scstep>
   <time name="dav">    9.49    9.50</time>
   <time name="total">   24.65   24.70</time>
   <energy>
    <i name="alphaZ">     19.16410503 </i>
    <i name="ewald">  10059.57568591 </i>
    <i name="hartreedc"> -23648.37203230 </i>
    <i name="XCdc">    507.14812624 </i>
    <i name="pawpsdc">  16689.42877117 </i>
    <i name="pawaedc"> -16386.03985851 </i>
    <i name="eentropy">     -0.00000000 </i>
    <i name="bandstr">  -2844.55367111 </i>
    <i name="atom">  15568.50493531 </i>
    <i name="e_fr_energy">    -35.14393826 </i>
    <i name="e_wo_entrp">    -35.14393826 </i>
    <i name="e_0_energy">    -35.14393826 </i>
   </energy>
  </scstep>
  <scstep>
   <time name="dav">    7.18    7.19</time>
   <time name="total">   22.23   22.36</time>
   <energy>
    <i name="e_fr_energy">    -35.14393848 </i>
    <i name="e_wo_entrp">    -35.14393848 </i>
    <i name="e_0_energy">    -35.14393848 </i>
   </energy>
  </scstep>
  <scstep>
   <time name="dav">    5.75    5.76</time>
   <time name="total">   20.92   20.99</time>
   <energy>
    <i name="e_fr_energy">    -35.14393851 </i>
    <i name="e_wo_entrp">    -35.14393851 </i>
    <i name="e_0_energy">    -35.14393851 </i>
   </energy>
  </scstep>
  <scstep>
   <time name="dav">    5.74    5.75</time>
   <time name="total">   20.93   20.98</time>
   <energy>
    <i name="e_fr_energy">    -35.14393851 </i>
    <i name="e_wo_entrp">    -35.14393851 </i>
    <i name="e_0_energy">    -35.14393851 </i>
   </energy>
  </scstep>
  <scstep>
   <time name="dav">    5.73    5.74</time>
   <time name="total">   20.91   20.96</time>
   <energy>
    <i name="e_fr_energy">    -35.14393851 </i>
    <i name="e_wo_entrp">    -35.14393851 </i>
    <i name="e_0_energy">    -35.14393851 </i>
   </energy>
  </scstep>
  <scstep>
   <time name="dav">    5.74    5.75</time>
   <time name="total">   16.02   16.09</time>
   <energy>
    <i name="alphaZ">     19.16410503 </i>
    <i name="ewald">  10059.57568591 </i>
    <i name="hartreedc"> -23648.36703895 </i>
    <i name="XCdc">    507.14802382 </i>
    <i name="pawpsdc">  16689.42638085 </i>
    <i name="pawaedc"> -16386.03770813 </i>
    <i name="eentropy">     -0.00000000 </i>
    <i name="bandstr">  -2844.55832234 </i>
    <i name="atom">  15568.50493531 </i>
    <i name="e_fr_energy">    -35.14393849 </i>
    <i name="e_wo_entrp">    -35.14393849 </i>
    <i name="e_0_energy">    -35.14393849 </i>
   </energy>
  </scstep>
  <structure>
   <crystal>
    <varray name="basis" >
     <v>      17.00000000       0.00000000       0.00000000 </v>
     <v>       0.00000000      17.00000000       0.00000000 </v>
     <v>       0.00000000       0.00000000      17.00000000 </v>
    </varray>
    <i name="volume">   4913.00000000 </i>
    <varray name="rec_basis" >
     <v>       0.05882353       0.00000000       0.00000000 </v>
     <v>       0.00000000       0.05882353       0.00000000 </v>
     <v>       0.00000000       0.00000000       0.05882353 </v>
    </varray>
   </crystal>
   <varray name="positions" >
    <v>       0.93089572       0.96146368       0.93222086 </v>
    <v>       0.07029692       0.95936507       0.93287832 </v>
    <v>      -0.00119818       0.07916073       0.93224788 </v>
    <v>       0.93090040       0.96147015       0.06778981 </v>
    <v>       0.07029896       0.95936854       0.06712006 </v>
    <v>      -0.00119376       0.07917177       0.06774313 </v>
   </varray>
  </structure>
  <varray name="forces" >
   <v>       0.00139941       0.00298784       0.00667957 </v>
   <v>      -0.00802801       0.00689114       0.00368061 </v>
   <v>       0.00659115      -0.00994327      -0.00442311 </v>
   <v>       0.00181970       0.00314115      -0.00651315 </v>
   <v>      -0.00806253       0.00752023      -0.00373130 </v>
   <v>       0.00628028      -0.01059709       0.00430738 </v>
  </varray>
  <energy>
   <i name="e_fr_energy">    -35.14393849 </i>
   <i name="e_wo_entrp">    -35.14393849 </i>
   <i name="e_0_energy">     -0.00000000 </i>
  </energy>
  <time name="totalsc">  177.88  178.40</time>
 </calculation>
 <calculation>
  <scstep>
   <time name="dav">    9.53    9.54</time>
   <time name="total">   24.50   24.61</time>
   <energy>
    <i name="alphaZ">     19.16410503 </i>
    <i name="ewald">  10061.50285265 </i>
    <i name="hartreedc"> -23650.26305326 </i>
    <i name="XCdc">    507.15294876 </i>
    <i name="pawpsdc">  16689.42529773 </i>
    <i name="pawaedc"> -16386.03667640 </i>
    <i name="eentropy">     -0.00000000 </i>
    <i name="bandstr">  -2844.59428406 </i>
    <i name="atom">  15568.50493531 </i>
    <i name="e_fr_energy">    -35.14387425 </i>
    <i name="e_wo_entrp">    -35.14387425 </i>
    <i name="e_0_energy">    -35.14387425 </i>
   </energy>
  </scstep>
  <scstep>
   <time name="dav">    9.05    9.07</time>
   <time name="total">   24.23   24.28</time>
   <energy>
    <i name="e_fr_energy">    -35.14394196 </i>
    <i name="e_wo_entrp">    -35.14394196 </i>
    <i name="e_0_energy">    -35.14394196 </i>
   </energy>
  </scstep>
  <scstep>
   <time name="dav">   11.09   11.10</time>
   <time name="total">   26.30   26.35</time>
   <energy>
    <i name="e_fr_energy">    -35.14394551 </i>
    <i name="e_wo_entrp">    -35.14394551 </i>
    <i name="e_0_energy">    -35.14394551 </i>
   </energy>
  </scstep>
  <scstep>
   <time name="dav">    6.19    6.20</time>
   <time name="total">   21.38   21.42</time>
   <energy>
    <i name="e_fr_energy">    -35.14394569 </i>
    <i name="e_wo_entrp">    -35.14394569 </i>
    <i name="e_0_energy">    -35.14394569 </i>
   </energy>
  </scstep>
  <scstep>
   <time name="dav">    7.96    7.97</time>
   <time name="total">   23.18   23.22</time>
   <energy>
    <i name="e_fr_energy">    -35.14394921 </i>
    <i name="e_wo_entrp">    -35.14394921 </i>
    <i name="e_0_energy">    -35.14394921 </i>
   </energy>
  </scstep>
  <scstep>
   <time name="dav">    8.59    8.60</time>
   <time name="total">   23.87   23.94</time>
   <energy>
    <i name="e_fr_energy">    -35.14394648 </i>
    <i name="e_wo_entrp">    -35.14394648 </i>
    <i name="e_0_energy">    -35.14394648 </i>
   </energy>
  </scstep>
  <scstep>
   <time name="dav">    6.24    6.25</time>
   <time name="total">   16.63   16.66</time>
   <energy>
    <i name="alphaZ">     19.16410503 </i>
    <i name="ewald">  10061.50285265 </i>
    <i name="hartreedc"> -23650.18471961 </i>
    <i name="XCdc">    507.15209342 </i>
    <i name="pawpsdc">  16690.52607675 </i>
    <i name="pawaedc"> -16387.13557280 </i>
    <i name="eentropy">     -0.00000000 </i>
    <i name="bandstr">  -2844.67371780 </i>
    <i name="atom">  15568.50493531 </i>
    <i name="e_fr_energy">    -35.14394705 </i>
    <i name="e_wo_entrp">    -35.14394705 </i>
    <i name="e_0_energy">    -35.14394705 </i>
   </energy>
  </scstep>
  <structure>
   <crystal>
    <varray name="basis" >
     <v>      17.00000000       0.00000000       0.00000000 </v>
     <v>       0.00000000      17.00000000       0.00000000 </v>
     <v>       0.00000000       0.00000000      17.00000000 </v>
    </varray>
    <i name="volume">   4913.00000000 </i>
    <varray name="rec_basis" >
     <v>       0.05882353       0.00000000       0.00000000 </v>
     <v>       0.00000000       0.05882353       0.00000000 </v>
     <v>       0.00000000       0.00000000       0.05882353 </v>
    </varray>
   </crystal>
   <varray name="positions" >
    <v>       0.93088698       0.96146775       0.93224389 </v>
    <v>       0.07029043       0.95938001       0.93288028 </v>
    <v>      -0.00118301       0.07914162       0.93223434 </v>
    <v>       0.93089237       0.96147451       0.06776725 </v>
    <v>       0.07029246       0.95938473       0.06711798 </v>
    <v>      -0.00117918       0.07915132       0.06775632 </v>
   </varray>
  </structure>
  <varray name="forces" >
   <v>      -0.00252772       0.00061352      -0.00283819 </v>
   <v>      -0.00338106       0.00320281       0.00143444 </v>
   <v>       0.00559099      -0.00382711      -0.00079384 </v>
   <v>      -0.00253781       0.00077240       0.00250652 </v>
   <v>      -0.00301832       0.00345977      -0.00100758 </v>
   <v>       0.00587392      -0.00422139       0.00069865 </v>
  </varray>
  <energy>
   <i name="e_fr_energy">    -35.14394705 </i>
   <i name="e_wo_entrp">    -35.14394705 </i>
   <i name="e_0_energy">     -0.00000000 </i>
  </energy>
  <time name="totalsc">  211.27  211.74</time>
  <eigenvalues>
   <array>
    <dimension dim="1">band</dimension>
    <dimension dim="2">kpoint</dimension>
    <dimension dim="3">spin</dimension>
    <field>eigene</field>
    <field>occ</field>
    <set>
     <set comment="spin 1">
      <set comment="kpoint 1">
       <r>  -76.2758    1.0000 </r>
       <r>  -76.1099    1.0000 </r>
       <r>  -76.0928    1.0000 </r>
       <r>  -75.9319    1.0000 </r>
       <r>  -75.9065    1.0000 </r>
       <r>  -75.7272    1.0000 </r>
       <r>  -47.0983    1.0000 </r>
       <r>  -46.9449    1.0000 </r>
       <r>  -46.7949    1.0000 </r>
       <r>  -46.6338    1.0000 </r>
       <r>  -46.5669    1.0000 </r>
       <r>  -46.3963    1.0000 </r>
       <r>  -46.2889    1.0000 </r>
       <r>  -46.2720    1.0000 </r>
       <r>  -46.1647    1.0000 </r>
       <r>  -45.7607    1.0000 </r>
       <r>  -45.7406    1.0000 </r>
       <r>  -45.7260    1.0000 </r>
       <r>  -45.6451    1.0000 </r>
       <r>  -45.6025    1.0000 </r>
       <r>  -45.5992    1.0000 </r>
       <r>  -45.5535    1.0000 </r>
       <r>  -45.4214    1.0000 </r>
       <r>  -45.4211    1.0000 </r>
       <r>   -8.9240    1.0000 </r>
       <r>   -8.2073    1.0000 </r>
       <r>   -7.4894    1.0000 </r>
       <r>   -7.3124    1.0000 </r>
       <r>   -7.2203    1.0000 </r>
       <r>   -7.1154    1.0000 </r>
       <r>   -6.9216    1.0000 </r>
       <r>   -6.7683    1.0000 </r>
       <r>   -6.3251    1.0000 </r>
       <r>   -6.3041    1.0000 </r>
       <r>   -6.2063    1.0000 </r>
       <r>   -6.1366    1.0000 </r>
       <r>   -6.0156    1.0000 </r>
       <r>   -5.6569    1.0000 </r>
       <r>   -5.1554    1.0000 </r>
       <r>   -5.1309    1.0000 </r>
       <r>   -5.1115    1.0000 </r>
       <r>   -4.8831    1.0000 </r>
       <r>   -4.4035    1.0000 </r>
       <r>   -4.2275    1.0000 </r>
       <r>   -4.2260    1.0000 </r>
       <r>   -4.2212    1.0000 </r>
       <r>   -3.4864    1.0000 </r>
       <r>   -3.4455    1.0000 </r>
       <r>   -3.3137    1.0000 </r>
       <r>   -3.1101    0.0000 </r>
       <r>   -3.0772    0.0000 </r>
       <r>   -3.0152    0.0000 </r>
       <r>   -2.8923    0.0000 </r>
       <r>   -2.8113    0.0000 </r>
       <r>   -2.7227    0.0000 </r>
       <r>   -2.2666    0.0000 </r>
       <r>   -2.2000    0.0000 </r>
       <r>   -1.8733    0.0000 </r>
       <r>   -1.1370    0.0000 </r>
       <r>   -0.9338    0.0000 </r>
      </set>
     </set>
     <set comment="spin 2">
      <set comment="kpoint 1">
       <r>  -76.0514    1.0000 </r>
       <r>  -75.8774    1.0000 </r>
       <r>  -75.8753    1.0000 </r>
       <r>  -75.8153    1.0000 </r>
       <r>  -75.7016    1.0000 </r>
       <r>  -75.6528    1.0000 </r>
       <r>  -46.8849    1.0000 </r>
       <r>  -46.7092    1.0000 </r>
       <r>  -46.7054    1.0000 </r>
       <r>  -46.5297    1.0000 </r>
       <r>  -46.4243    1.0000 </r>
       <r>  -46.1689    1.0000 </r>
       <r>  -46.0464    1.0000 </r>
       <r>  -46.0422    1.0000 </r>
       <r>  -45.9028    1.0000 </r>
       <r>  -45.6034    1.0000 </r>
       <r>  -45.5152    1.0000 </r>
       <r>  -45.4893    1.0000 </r>
       <r>  -45.4648    1.0000 </r>
       <r>  -45.3983    1.0000 </r>
       <r>  -45.3704    1.0000 </r>
       <r>  -45.3682    1.0000 </r>
       <r>  -45.3584    1.0000 </r>
       <r>  -45.2467    1.0000 </r>
       <r>   -8.8439    1.0000 </r>
       <r>   -7.9795    1.0000 </r>
       <r>   -7.2162    1.0000 </r>
       <r>   -7.1851    1.0000 </r>
       <r>   -7.0298    1.0000 </r>
       <r>   -7.0159    1.0000 </r>
       <r>   -6.8509    1.0000 </r>
       <r>   -6.6463    1.0000 </r>
       <r>   -6.1915    1.0000 </r>
       <r>   -6.1466    1.0000 </r>
       <r>   -6.0795    1.0000 </r>
       <r>   -6.0007    1.0000 </r>
       <r>   -5.9805    1.0000 </r>
       <r>   -5.4854    1.0000 </r>
       <r>   -5.1147    1.0000 </r>
       <r>   -4.9208    1.0000 </r>
       <r>   -4.8399    1.0000 </r>
       <r>   -4.7602    1.0000 </r>
       <r>   -4.2284    1.0000 </r>
       <r>   -4.0894    1.0000 </r>
       <r>   -3.9503    1.0000 </r>
       <r>   -3.7713    1.0000 </r>
       <r>   -3.2622    1.0000 </r>
       <r>   -3.0301    0.0000 </r>
       <r>   -3.0070    0.0000 </r>
       <r>   -2.9341    0.0000 </r>
       <r>   -2.8625    0.0000 </r>
       <r>   -2.7975    0.0000 </r>
       <r>   -2.7949    0.0000 </r>
       <r>   -2.7148    0.0000 </r>
       <r>   -2.5716    0.0000 </r>
       <r>   -2.1158    0.0000 </r>
       <r>   -1.9591    0.0000 </r>
       <r>   -1.7841    0.0000 </r>
       <r>   -0.9441    0.0000 </r>
       <r>   -0.8781    0.0000 </r>
      </set>
     </set>
    </set>
   </array>
  </eigenvalues>
  <separator name="orbital magnetization" >
   <v name="MAGDIPOLOUT">      0.00000000      0.00000000      0.00000000</v>
  </separator>
  <dos>
   <i name="efermi">     -3.22483067 </i>
   <total>
    <array>
     <dimension dim="1">gridpoints</dimension>
     <dimension dim="2">spin</dimension>
     <field>energy</field>
     <field>total</field>
     <field>integrated</field>
     <set>
      <set comment="spin 1">
       <r>   -80.0456     0.0000     0.0000 </r>
       <r>   -79.7692     0.0000     0.0000 </r>
       <r>   -79.4927     0.0000     0.0000 </r>
       <r>   -79.2163     0.0000     0.0000 </r>
       <r>   -78.9398     0.0000     0.0000 </r>
       <r>   -78.6634     0.0000     0.0000 </r>
       <r>   -78.3869     0.0000     0.0000 </r>
       <r>   -78.1104     0.0000     0.0000 </r>
       <r>   -77.8340     0.0000     0.0000 </r>
       <r>   -77.5575     0.0000     0.0000 </r>
       <r>   -77.2811     0.0000     0.0000 </r>
       <r>   -77.0046     0.0000     0.0000 </r>
       <r>   -76.7281     0.0000     0.0000 </r>
       <r>   -76.4517     0.0000     0.0000 </r>
       <r>   -76.1752     0.0000     1.0000 </r>
       <r>   -75.8988     7.1836     4.9860 </r>
       <r>   -75.6223     0.0000     6.0000 </r>
       <r>   -75.3459     0.0000     6.0000 </r>
       <r>   -75.0694     0.0000     6.0000 </r>
       <r>   -74.7929     0.0000     6.0000 </r>
       <r>   -74.5165     0.0000     6.0000 </r>
       <r>   -74.2400     0.0000     6.0000 </r>
       <r>   -73.9636     0.0000     6.0000 </r>
       <r>   -73.6871     0.0000     6.0000 </r>
       <r>   -73.4106     0.0000     6.0000 </r>
       <r>   -73.1342     0.0000     6.0000 </r>
       <r>   -72.8577     0.0000     6.0000 </r>
       <r>   -72.5813     0.0000     6.0000 </r>
       <r>   -72.3048     0.0000     6.0000 </r>
       <r>   -72.0284     0.0000     6.0000 </r>
       <r>   -71.7519     0.0000     6.0000 </r>
       <r>   -71.4754     0.0000     6.0000 </r>
       <r>   -71.1990     0.0000     6.0000 </r>
       <r>   -70.9225     0.0000     6.0000 </r>
       <r>   -70.6461     0.0000     6.0000 </r>
       <r>   -70.3696     0.0000     6.0000 </r>
       <r>   -70.0931     0.0000     6.0000 </r>
       <r>   -69.8167     0.0000     6.0000 </r>
       <r>   -69.5402     0.0000     6.0000 </r>
       <r>   -69.2638     0.0000     6.0000 </r>
       <r>   -68.9873     0.0000     6.0000 </r>
       <r>   -68.7109     0.0000     6.0000 </r>
       <r>   -68.4344     0.0000     6.0000 </r>
       <r>   -68.1579     0.0000     6.0000 </r>
       <r>   -67.8815     0.0000     6.0000 </r>
       <r>   -67.6050     0.0000     6.0000 </r>
       <r>   -67.3286     0.0000     6.0000 </r>
       <r>   -67.0521     0.0000     6.0000 </r>
       <r>   -66.7756     0.0000     6.0000 </r>
       <r>   -66.4992     0.0000     6.0000 </r>
       <r>   -66.2227     0.0000     6.0000 </r>
       <r>   -65.9463     0.0000     6.0000 </r>
       <r>   -65.6698     0.0000     6.0000 </r>
       <r>   -65.3934     0.0000     6.0000 </r>
       <r>   -65.1169     0.0000     6.0000 </r>
       <r>   -64.8404     0.0000     6.0000 </r>
       <r>   -64.5640     0.0000     6.0000 </r>
       <r>   -64.2875     0.0000     6.0000 </r>
       <r>   -64.0111     0.0000     6.0000 </r>
       <r>   -63.7346     0.0000     6.0000 </r>
       <r>   -63.4582     0.0000     6.0000 </r>
       <r>   -63.1817     0.0000     6.0000 </r>
       <r>   -62.9052     0.0000     6.0000 </r>
       <r>   -62.6288     0.0000     6.0000 </r>
       <r>   -62.3523     0.0000     6.0000 </r>
       <r>   -62.0759     0.0000     6.0000 </r>
       <r>   -61.7994     0.0000     6.0000 </r>
       <r>   -61.5229     0.0000     6.0000 </r>
       <r>   -61.2465     0.0000     6.0000 </r>
       <r>   -60.9700     0.0000     6.0000 </r>
       <r>   -60.6936     0.0000     6.0000 </r>
       <r>   -60.4171     0.0000     6.0000 </r>
       <r>   -60.1407     0.0000     6.0000 </r>
       <r>   -59.8642     0.0000     6.0000 </r>
       <r>   -59.5877     0.0000     6.0000 </r>
       <r>   -59.3113     0.0000     6.0000 </r>
       <r>   -59.0348     0.0000     6.0000 </r>
       <r>   -58.7584     0.0000     6.0000 </r>
       <r>   -58.4819     0.0000     6.0000 </r>
       <r>   -58.2054     0.0000     6.0000 </r>
       <r>   -57.9290     0.0000     6.0000 </r>
       <r>   -57.6525     0.0000     6.0000 </r>
       <r>   -57.3761     0.0000     6.0000 </r>
       <r>   -57.0996     0.0000     6.0000 </r>
       <r>   -56.8232     0.0000     6.0000 </r>
       <r>   -56.5467     0.0000     6.0000 </r>
       <r>   -56.2702     0.0000     6.0000 </r>
       <r>   -55.9938     0.0000     6.0000 </r>
       <r>   -55.7173     0.0000     6.0000 </r>
       <r>   -55.4409     0.0000     6.0000 </r>
       <r>   -55.1644     0.0000     6.0000 </r>
       <r>   -54.8879     0.0000     6.0000 </r>
       <r>   -54.6115     0.0000     6.0000 </r>
       <r>   -54.3350     0.0000     6.0000 </r>
       <r>   -54.0586     0.0000     6.0000 </r>
       <r>   -53.7821     0.0000     6.0000 </r>
       <r>   -53.5057     0.0000     6.0000 </r>
       <r>   -53.2292     0.0000     6.0000 </r>
       <r>   -52.9527     0.0000     6.0000 </r>
       <r>   -52.6763     0.0000     6.0000 </r>
       <r>   -52.3998     0.0000     6.0000 </r>
       <r>   -52.1234     0.0000     6.0000 </r>
       <r>   -51.8469     0.0000     6.0000 </r>
       <r>   -51.5705     0.0000     6.0000 </r>
       <r>   -51.2940     0.0000     6.0000 </r>
       <r>   -51.0175     0.0000     6.0000 </r>
       <r>   -50.7411     0.0000     6.0000 </r>
       <r>   -50.4646     0.0000     6.0000 </r>
       <r>   -50.1882     0.0000     6.0000 </r>
       <r>   -49.9117     0.0000     6.0000 </r>
       <r>   -49.6352     0.0000     6.0000 </r>
       <r>   -49.3588     0.0000     6.0000 </r>
       <r>   -49.0823     0.0000     6.0000 </r>
       <r>   -48.8059     0.0000     6.0000 </r>
       <r>   -48.5294     0.0000     6.0000 </r>
       <r>   -48.2530     0.0000     6.0000 </r>
       <r>   -47.9765     0.0000     6.0000 </r>
       <r>   -47.7000     0.0000     6.0000 </r>
       <r>   -47.4236     0.0000     6.0000 </r>
       <r>   -47.1471     0.0000     6.0000 </r>
       <r>   -46.8707     0.0000     8.0000 </r>
       <r>   -46.5942     3.6172    10.0000 </r>
       <r>   -46.3177     0.0000    12.0000 </r>
       <r>   -46.0413     0.0000    15.0000 </r>
       <r>   -45.7648     0.4341    15.1200 </r>
       <r>   -45.4884     0.0000    22.0000 </r>
       <r>   -45.2119     0.0000    24.0000 </r>
       <r>   -44.9355     0.0000    24.0000 </r>
       <r>   -44.6590     0.0000    24.0000 </r>
       <r>   -44.3825     0.0000    24.0000 </r>
       <r>   -44.1061     0.0000    24.0000 </r>
       <r>   -43.8296     0.0000    24.0000 </r>
       <r>   -43.5532     0.0000    24.0000 </r>
       <r>   -43.2767     0.0000    24.0000 </r>
       <r>   -43.0002     0.0000    24.0000 </r>
       <r>   -42.7238     0.0000    24.0000 </r>
       <r>   -42.4473     0.0000    24.0000 </r>
       <r>   -42.1709     0.0000    24.0000 </r>
       <r>   -41.8944     0.0000    24.0000 </r>
       <r>   -41.6180     0.0000    24.0000 </r>
       <r>   -41.3415     0.0000    24.0000 </r>
       <r>   -41.0650     0.0000    24.0000 </r>
       <r>   -40.7886     0.0000    24.0000 </r>
       <r>   -40.5121     0.0000    24.0000 </r>
       <r>   -40.2357     0.0000    24.0000 </r>
       <r>   -39.9592     0.0000    24.0000 </r>
       <r>   -39.6828     0.0000    24.0000 </r>
       <r>   -39.4063     0.0000    24.0000 </r>
       <r>   -39.1298     0.0000    24.0000 </r>
       <r>   -38.8534     0.0000    24.0000 </r>
       <r>   -38.5769     0.0000    24.0000 </r>
       <r>   -38.3005     0.0000    24.0000 </r>
       <r>   -38.0240     0.0000    24.0000 </r>
       <r>   -37.7475     0.0000    24.0000 </r>
       <r>   -37.4711     0.0000    24.0000 </r>
       <r>   -37.1946     0.0000    24.0000 </r>
       <r>   -36.9182     0.0000    24.0000 </r>
       <r>   -36.6417     0.0000    24.0000 </r>
       <r>   -36.3653     0.0000    24.0000 </r>
       <r>   -36.0888     0.0000    24.0000 </r>
       <r>   -35.8123     0.0000    24.0000 </r>
       <r>   -35.5359     0.0000    24.0000 </r>
       <r>   -35.2594     0.0000    24.0000 </r>
       <r>   -34.9830     0.0000    24.0000 </r>
       <r>   -34.7065     0.0000    24.0000 </r>
       <r>   -34.4300     0.0000    24.0000 </r>
       <r>   -34.1536     0.0000    24.0000 </r>
       <r>   -33.8771     0.0000    24.0000 </r>
       <r>   -33.6007     0.0000    24.0000 </r>
       <r>   -33.3242     0.0000    24.0000 </r>
       <r>   -33.0478     0.0000    24.0000 </r>
       <r>   -32.7713     0.0000    24.0000 </r>
       <r>   -32.4948     0.0000    24.0000 </r>
       <r>   -32.2184     0.0000    24.0000 </r>
       <r>   -31.9419     0.0000    24.0000 </r>
       <r>   -31.6655     0.0000    24.0000 </r>
       <r>   -31.3890     0.0000    24.0000 </r>
       <r>   -31.1125     0.0000    24.0000 </r>
       <r>   -30.8361     0.0000    24.0000 </r>
       <r>   -30.5596     0.0000    24.0000 </r>
       <r>   -30.2832     0.0000    24.0000 </r>
       <r>   -30.0067     0.0000    24.0000 </r>
       <r>   -29.7303     0.0000    24.0000 </r>
       <r>   -29.4538     0.0000    24.0000 </r>
       <r>   -29.1773     0.0000    24.0000 </r>
       <r>   -28.9009     0.0000    24.0000 </r>
       <r>   -28.6244     0.0000    24.0000 </r>
       <r>   -28.3480     0.0000    24.0000 </r>
       <r>   -28.0715     0.0000    24.0000 </r>
       <r>   -27.7950     0.0000    24.0000 </r>
       <r>   -27.5186     0.0000    24.0000 </r>
       <r>   -27.2421     0.0000    24.0000 </r>
       <r>   -26.9657     0.0000    24.0000 </r>
       <r>   -26.6892     0.0000    24.0000 </r>
       <r>   -26.4128     0.0000    24.0000 </r>
       <r>   -26.1363     0.0000    24.0000 </r>
       <r>   -25.8598     0.0000    24.0000 </r>
       <r>   -25.5834     0.0000    24.0000 </r>
       <r>   -25.3069     0.0000    24.0000 </r>
       <r>   -25.0305     0.0000    24.0000 </r>
       <r>   -24.7540     0.0000    24.0000 </r>
       <r>   -24.4776     0.0000    24.0000 </r>
       <r>   -24.2011     0.0000    24.0000 </r>
       <r>   -23.9246     0.0000    24.0000 </r>
       <r>   -23.6482     0.0000    24.0000 </r>
       <r>   -23.3717     0.0000    24.0000 </r>
       <r>   -23.0953     0.0000    24.0000 </r>
       <r>   -22.8188     0.0000    24.0000 </r>
       <r>   -22.5423     0.0000    24.0000 </r>
       <r>   -22.2659     0.0000    24.0000 </r>
       <r>   -21.9894     0.0000    24.0000 </r>
       <r>   -21.7130     0.0000    24.0000 </r>
       <r>   -21.4365     0.0000    24.0000 </r>
       <r>   -21.1601     0.0000    24.0000 </r>
       <r>   -20.8836     0.0000    24.0000 </r>
       <r>   -20.6071     0.0000    24.0000 </r>
       <r>   -20.3307     0.0000    24.0000 </r>
       <r>   -20.0542     0.0000    24.0000 </r>
       <r>   -19.7778     0.0000    24.0000 </r>
       <r>   -19.5013     0.0000    24.0000 </r>
       <r>   -19.2248     0.0000    24.0000 </r>
       <r>   -18.9484     0.0000    24.0000 </r>
       <r>   -18.6719     0.0000    24.0000 </r>
       <r>   -18.3955     0.0000    24.0000 </r>
       <r>   -18.1190     0.0000    24.0000 </r>
       <r>   -17.8426     0.0000    24.0000 </r>
       <r>   -17.5661     0.0000    24.0000 </r>
       <r>   -17.2896     0.0000    24.0000 </r>
       <r>   -17.0132     0.0000    24.0000 </r>
       <r>   -16.7367     0.0000    24.0000 </r>
       <r>   -16.4603     0.0000    24.0000 </r>
       <r>   -16.1838     0.0000    24.0000 </r>
       <r>   -15.9073     0.0000    24.0000 </r>
       <r>   -15.6309     0.0000    24.0000 </r>
       <r>   -15.3544     0.0000    24.0000 </r>
       <r>   -15.0780     0.0000    24.0000 </r>
       <r>   -14.8015     0.0000    24.0000 </r>
       <r>   -14.5251     0.0000    24.0000 </r>
       <r>   -14.2486     0.0000    24.0000 </r>
       <r>   -13.9721     0.0000    24.0000 </r>
       <r>   -13.6957     0.0000    24.0000 </r>
       <r>   -13.4192     0.0000    24.0000 </r>
       <r>   -13.1428     0.0000    24.0000 </r>
       <r>   -12.8663     0.0000    24.0000 </r>
       <r>   -12.5899     0.0000    24.0000 </r>
       <r>   -12.3134     0.0000    24.0000 </r>
       <r>   -12.0369     0.0000    24.0000 </r>
       <r>   -11.7605     0.0000    24.0000 </r>
       <r>   -11.4840     0.0000    24.0000 </r>
       <r>   -11.2076     0.0000    24.0000 </r>
       <r>   -10.9311     0.0000    24.0000 </r>
       <r>   -10.6546     0.0000    24.0000 </r>
       <r>   -10.3782     0.0000    24.0000 </r>
       <r>   -10.1017     0.0000    24.0000 </r>
       <r>    -9.8253     0.0000    24.0000 </r>
       <r>    -9.5488     0.0000    24.0000 </r>
       <r>    -9.2724     0.0000    24.0000 </r>
       <r>    -8.9959     0.0000    24.0000 </r>
       <r>    -8.7194     0.0000    25.0000 </r>
       <r>    -8.4430     0.0000    25.0000 </r>
       <r>    -8.1665     0.0000    26.0000 </r>
       <r>    -7.8901     0.0000    26.0000 </r>
       <r>    -7.6136     0.0000    26.0000 </r>
       <r>    -7.3371     0.0000    27.0000 </r>
       <r>    -7.0607     0.0000    30.0000 </r>
       <r>    -6.7842     0.0000    31.0000 </r>
       <r>    -6.5078     0.0000    32.0000 </r>
       <r>    -6.2313     0.0000    34.0000 </r>
       <r>    -5.9549     0.0000    37.0000 </r>
       <r>    -5.6784     0.0000    37.0000 </r>
       <r>    -5.4019     0.0000    38.0000 </r>
       <r>    -5.1255     7.0031    39.9361 </r>
       <r>    -4.8490     3.6172    42.0000 </r>
       <r>    -4.5726     0.0000    42.0000 </r>
       <r>    -4.2961     0.0000    43.0000 </r>
       <r>    -4.0196     0.0000    46.0000 </r>
       <r>    -3.7432     0.0000    46.0000 </r>
       <r>    -3.4667     3.6172    47.0000 </r>
       <r>    -3.1903     0.0000    49.0000 </r>
       <r>    -2.9138     0.0000    52.0000 </r>
       <r>    -2.6374     0.0000    55.0000 </r>
       <r>    -2.3609     0.0000    55.0000 </r>
       <r>    -2.0844     0.0000    57.0000 </r>
       <r>    -1.8080     0.0000    58.0000 </r>
       <r>    -1.5315     0.0000    58.0000 </r>
       <r>    -1.2551     0.0000    58.0000 </r>
       <r>    -0.9786     0.0000    59.0000 </r>
       <r>    -0.7021     0.0000    60.0000 </r>
       <r>    -0.4257     0.0000    60.0000 </r>
       <r>    -0.1492     0.0000    60.0000 </r>
       <r>     0.1272     0.0000    60.0000 </r>
       <r>     0.4037     0.0000    60.0000 </r>
       <r>     0.6801     0.0000    60.0000 </r>
       <r>     0.9566     0.0000    60.0000 </r>
       <r>     1.2331     0.0000    60.0000 </r>
       <r>     1.5095     0.0000    60.0000 </r>
       <r>     1.7860     0.0000    60.0000 </r>
       <r>     2.0624     0.0000    60.0000 </r>
       <r>     2.3389     0.0000    60.0000 </r>
       <r>     2.6153     0.0000    60.0000 </r>
       <r>     2.8918     0.0000    60.0000 </r>
      </set>
      <set comment="spin 2">
       <r>   -80.0456     0.0000     0.0000 </r>
       <r>   -79.7692     0.0000     0.0000 </r>
       <r>   -79.4927     0.0000     0.0000 </r>
       <r>   -79.2163     0.0000     0.0000 </r>
       <r>   -78.9398     0.0000     0.0000 </r>
       <r>   -78.6634     0.0000     0.0000 </r>
       <r>   -78.3869     0.0000     0.0000 </r>
       <r>   -78.1104     0.0000     0.0000 </r>
       <r>   -77.8340     0.0000     0.0000 </r>
       <r>   -77.5575     0.0000     0.0000 </r>
       <r>   -77.2811     0.0000     0.0000 </r>
       <r>   -77.0046     0.0000     0.0000 </r>
       <r>   -76.7281     0.0000     0.0000 </r>
       <r>   -76.4517     0.0000     0.0000 </r>
       <r>   -76.1752     0.0000     0.0000 </r>
       <r>   -75.8988     0.0000     1.0000 </r>
       <r>   -75.6223     3.6172     6.0000 </r>
       <r>   -75.3459     0.0000     6.0000 </r>
       <r>   -75.0694     0.0000     6.0000 </r>
       <r>   -74.7929     0.0000     6.0000 </r>
       <r>   -74.5165     0.0000     6.0000 </r>
       <r>   -74.2400     0.0000     6.0000 </r>
       <r>   -73.9636     0.0000     6.0000 </r>
       <r>   -73.6871     0.0000     6.0000 </r>
       <r>   -73.4106     0.0000     6.0000 </r>
       <r>   -73.1342     0.0000     6.0000 </r>
       <r>   -72.8577     0.0000     6.0000 </r>
       <r>   -72.5813     0.0000     6.0000 </r>
       <r>   -72.3048     0.0000     6.0000 </r>
       <r>   -72.0284     0.0000     6.0000 </r>
       <r>   -71.7519     0.0000     6.0000 </r>
       <r>   -71.4754     0.0000     6.0000 </r>
       <r>   -71.1990     0.0000     6.0000 </r>
       <r>   -70.9225     0.0000     6.0000 </r>
       <r>   -70.6461     0.0000     6.0000 </r>
       <r>   -70.3696     0.0000     6.0000 </r>
       <r>   -70.0931     0.0000     6.0000 </r>
       <r>   -69.8167     0.0000     6.0000 </r>
       <r>   -69.5402     0.0000     6.0000 </r>
       <r>   -69.2638     0.0000     6.0000 </r>
       <r>   -68.9873     0.0000     6.0000 </r>
       <r>   -68.7109     0.0000     6.0000 </r>
       <r>   -68.4344     0.0000     6.0000 </r>
       <r>   -68.1579     0.0000     6.0000 </r>
       <r>   -67.8815     0.0000     6.0000 </r>
       <r>   -67.6050     0.0000     6.0000 </r>
       <r>   -67.3286     0.0000     6.0000 </r>
       <r>   -67.0521     0.0000     6.0000 </r>
       <r>   -66.7756     0.0000     6.0000 </r>
       <r>   -66.4992     0.0000     6.0000 </r>
       <r>   -66.2227     0.0000     6.0000 </r>
       <r>   -65.9463     0.0000     6.0000 </r>
       <r>   -65.6698     0.0000     6.0000 </r>
       <r>   -65.3934     0.0000     6.0000 </r>
       <r>   -65.1169     0.0000     6.0000 </r>
       <r>   -64.8404     0.0000     6.0000 </r>
       <r>   -64.5640     0.0000     6.0000 </r>
       <r>   -64.2875     0.0000     6.0000 </r>
       <r>   -64.0111     0.0000     6.0000 </r>
       <r>   -63.7346     0.0000     6.0000 </r>
       <r>   -63.4582     0.0000     6.0000 </r>
       <r>   -63.1817     0.0000     6.0000 </r>
       <r>   -62.9052     0.0000     6.0000 </r>
       <r>   -62.6288     0.0000     6.0000 </r>
       <r>   -62.3523     0.0000     6.0000 </r>
       <r>   -62.0759     0.0000     6.0000 </r>
       <r>   -61.7994     0.0000     6.0000 </r>
       <r>   -61.5229     0.0000     6.0000 </r>
       <r>   -61.2465     0.0000     6.0000 </r>
       <r>   -60.9700     0.0000     6.0000 </r>
       <r>   -60.6936     0.0000     6.0000 </r>
       <r>   -60.4171     0.0000     6.0000 </r>
       <r>   -60.1407     0.0000     6.0000 </r>
       <r>   -59.8642     0.0000     6.0000 </r>
       <r>   -59.5877     0.0000     6.0000 </r>
       <r>   -59.3113     0.0000     6.0000 </r>
       <r>   -59.0348     0.0000     6.0000 </r>
       <r>   -58.7584     0.0000     6.0000 </r>
       <r>   -58.4819     0.0000     6.0000 </r>
       <r>   -58.2054     0.0000     6.0000 </r>
       <r>   -57.9290     0.0000     6.0000 </r>
       <r>   -57.6525     0.0000     6.0000 </r>
       <r>   -57.3761     0.0000     6.0000 </r>
       <r>   -57.0996     0.0000     6.0000 </r>
       <r>   -56.8232     0.0000     6.0000 </r>
       <r>   -56.5467     0.0000     6.0000 </r>
       <r>   -56.2702     0.0000     6.0000 </r>
       <r>   -55.9938     0.0000     6.0000 </r>
       <r>   -55.7173     0.0000     6.0000 </r>
       <r>   -55.4409     0.0000     6.0000 </r>
       <r>   -55.1644     0.0000     6.0000 </r>
       <r>   -54.8879     0.0000     6.0000 </r>
       <r>   -54.6115     0.0000     6.0000 </r>
       <r>   -54.3350     0.0000     6.0000 </r>
       <r>   -54.0586     0.0000     6.0000 </r>
       <r>   -53.7821     0.0000     6.0000 </r>
       <r>   -53.5057     0.0000     6.0000 </r>
       <r>   -53.2292     0.0000     6.0000 </r>
       <r>   -52.9527     0.0000     6.0000 </r>
       <r>   -52.6763     0.0000     6.0000 </r>
       <r>   -52.3998     0.0000     6.0000 </r>
       <r>   -52.1234     0.0000     6.0000 </r>
       <r>   -51.8469     0.0000     6.0000 </r>
       <r>   -51.5705     0.0000     6.0000 </r>
       <r>   -51.2940     0.0000     6.0000 </r>
       <r>   -51.0175     0.0000     6.0000 </r>
       <r>   -50.7411     0.0000     6.0000 </r>
       <r>   -50.4646     0.0000     6.0000 </r>
       <r>   -50.1882     0.0000     6.0000 </r>
       <r>   -49.9117     0.0000     6.0000 </r>
       <r>   -49.6352     0.0000     6.0000 </r>
       <r>   -49.3588     0.0000     6.0000 </r>
       <r>   -49.0823     0.0000     6.0000 </r>
       <r>   -48.8059     0.0000     6.0000 </r>
       <r>   -48.5294     0.0000     6.0000 </r>
       <r>   -48.2530     0.0000     6.0000 </r>
       <r>   -47.9765     0.0000     6.0000 </r>
       <r>   -47.7000     0.0000     6.0000 </r>
       <r>   -47.4236     0.0000     6.0000 </r>
       <r>   -47.1471     0.0000     6.0000 </r>
       <r>   -46.8707     3.6171     7.0000 </r>
       <r>   -46.5942     0.0000     9.0000 </r>
       <r>   -46.3177     0.0000    11.0000 </r>
       <r>   -46.0413     5.5030    13.5213 </r>
       <r>   -45.7648     0.0000    15.0000 </r>
       <r>   -45.4884     5.8025    17.6041 </r>
       <r>   -45.2119     3.6172    24.0000 </r>
       <r>   -44.9355     0.0000    24.0000 </r>
       <r>   -44.6590     0.0000    24.0000 </r>
       <r>   -44.3825     0.0000    24.0000 </r>
       <r>   -44.1061     0.0000    24.0000 </r>
       <r>   -43.8296     0.0000    24.0000 </r>
       <r>   -43.5532     0.0000    24.0000 </r>
       <r>   -43.2767     0.0000    24.0000 </r>
       <r>   -43.0002     0.0000    24.0000 </r>
       <r>   -42.7238     0.0000    24.0000 </r>
       <r>   -42.4473     0.0000    24.0000 </r>
       <r>   -42.1709     0.0000    24.0000 </r>
       <r>   -41.8944     0.0000    24.0000 </r>
       <r>   -41.6180     0.0000    24.0000 </r>
       <r>   -41.3415     0.0000    24.0000 </r>
       <r>   -41.0650     0.0000    24.0000 </r>
       <r>   -40.7886     0.0000    24.0000 </r>
       <r>   -40.5121     0.0000    24.0000 </r>
       <r>   -40.2357     0.0000    24.0000 </r>
       <r>   -39.9592     0.0000    24.0000 </r>
       <r>   -39.6828     0.0000    24.0000 </r>
       <r>   -39.4063     0.0000    24.0000 </r>
       <r>   -39.1298     0.0000    24.0000 </r>
       <r>   -38.8534     0.0000    24.0000 </r>
       <r>   -38.5769     0.0000    24.0000 </r>
       <r>   -38.3005     0.0000    24.0000 </r>
       <r>   -38.0240     0.0000    24.0000 </r>
       <r>   -37.7475     0.0000    24.0000 </r>
       <r>   -37.4711     0.0000    24.0000 </r>
       <r>   -37.1946     0.0000    24.0000 </r>
       <r>   -36.9182     0.0000    24.0000 </r>
       <r>   -36.6417     0.0000    24.0000 </r>
       <r>   -36.3653     0.0000    24.0000 </r>
       <r>   -36.0888     0.0000    24.0000 </r>
       <r>   -35.8123     0.0000    24.0000 </r>
       <r>   -35.5359     0.0000    24.0000 </r>
       <r>   -35.2594     0.0000    24.0000 </r>
       <r>   -34.9830     0.0000    24.0000 </r>
       <r>   -34.7065     0.0000    24.0000 </r>
       <r>   -34.4300     0.0000    24.0000 </r>
       <r>   -34.1536     0.0000    24.0000 </r>
       <r>   -33.8771     0.0000    24.0000 </r>
       <r>   -33.6007     0.0000    24.0000 </r>
       <r>   -33.3242     0.0000    24.0000 </r>
       <r>   -33.0478     0.0000    24.0000 </r>
       <r>   -32.7713     0.0000    24.0000 </r>
       <r>   -32.4948     0.0000    24.0000 </r>
       <r>   -32.2184     0.0000    24.0000 </r>
       <r>   -31.9419     0.0000    24.0000 </r>
       <r>   -31.6655     0.0000    24.0000 </r>
       <r>   -31.3890     0.0000    24.0000 </r>
       <r>   -31.1125     0.0000    24.0000 </r>
       <r>   -30.8361     0.0000    24.0000 </r>
       <r>   -30.5596     0.0000    24.0000 </r>
       <r>   -30.2832     0.0000    24.0000 </r>
       <r>   -30.0067     0.0000    24.0000 </r>
       <r>   -29.7303     0.0000    24.0000 </r>
       <r>   -29.4538     0.0000    24.0000 </r>
       <r>   -29.1773     0.0000    24.0000 </r>
       <r>   -28.9009     0.0000    24.0000 </r>
       <r>   -28.6244     0.0000    24.0000 </r>
       <r>   -28.3480     0.0000    24.0000 </r>
       <r>   -28.0715     0.0000    24.0000 </r>
       <r>   -27.7950     0.0000    24.0000 </r>
       <r>   -27.5186     0.0000    24.0000 </r>
       <r>   -27.2421     0.0000    24.0000 </r>
       <r>   -26.9657     0.0000    24.0000 </r>
       <r>   -26.6892     0.0000    24.0000 </r>
       <r>   -26.4128     0.0000    24.0000 </r>
       <r>   -26.1363     0.0000    24.0000 </r>
       <r>   -25.8598     0.0000    24.0000 </r>
       <r>   -25.5834     0.0000    24.0000 </r>
       <r>   -25.3069     0.0000    24.0000 </r>
       <r>   -25.0305     0.0000    24.0000 </r>
       <r>   -24.7540     0.0000    24.0000 </r>
       <r>   -24.4776     0.0000    24.0000 </r>
       <r>   -24.2011     0.0000    24.0000 </r>
       <r>   -23.9246     0.0000    24.0000 </r>
       <r>   -23.6482     0.0000    24.0000 </r>
       <r>   -23.3717     0.0000    24.0000 </r>
       <r>   -23.0953     0.0000    24.0000 </r>
       <r>   -22.8188     0.0000    24.0000 </r>
       <r>   -22.5423     0.0000    24.0000 </r>
       <r>   -22.2659     0.0000    24.0000 </r>
       <r>   -21.9894     0.0000    24.0000 </r>
       <r>   -21.7130     0.0000    24.0000 </r>
       <r>   -21.4365     0.0000    24.0000 </r>
       <r>   -21.1601     0.0000    24.0000 </r>
       <r>   -20.8836     0.0000    24.0000 </r>
       <r>   -20.6071     0.0000    24.0000 </r>
       <r>   -20.3307     0.0000    24.0000 </r>
       <r>   -20.0542     0.0000    24.0000 </r>
       <r>   -19.7778     0.0000    24.0000 </r>
       <r>   -19.5013     0.0000    24.0000 </r>
       <r>   -19.2248     0.0000    24.0000 </r>
       <r>   -18.9484     0.0000    24.0000 </r>
       <r>   -18.6719     0.0000    24.0000 </r>
       <r>   -18.3955     0.0000    24.0000 </r>
       <r>   -18.1190     0.0000    24.0000 </r>
       <r>   -17.8426     0.0000    24.0000 </r>
       <r>   -17.5661     0.0000    24.0000 </r>
       <r>   -17.2896     0.0000    24.0000 </r>
       <r>   -17.0132     0.0000    24.0000 </r>
       <r>   -16.7367     0.0000    24.0000 </r>
       <r>   -16.4603     0.0000    24.0000 </r>
       <r>   -16.1838     0.0000    24.0000 </r>
       <r>   -15.9073     0.0000    24.0000 </r>
       <r>   -15.6309     0.0000    24.0000 </r>
       <r>   -15.3544     0.0000    24.0000 </r>
       <r>   -15.0780     0.0000    24.0000 </r>
       <r>   -14.8015     0.0000    24.0000 </r>
       <r>   -14.5251     0.0000    24.0000 </r>
       <r>   -14.2486     0.0000    24.0000 </r>
       <r>   -13.9721     0.0000    24.0000 </r>
       <r>   -13.6957     0.0000    24.0000 </r>
       <r>   -13.4192     0.0000    24.0000 </r>
       <r>   -13.1428     0.0000    24.0000 </r>
       <r>   -12.8663     0.0000    24.0000 </r>
       <r>   -12.5899     0.0000    24.0000 </r>
       <r>   -12.3134     0.0000    24.0000 </r>
       <r>   -12.0369     0.0000    24.0000 </r>
       <r>   -11.7605     0.0000    24.0000 </r>
       <r>   -11.4840     0.0000    24.0000 </r>
       <r>   -11.2076     0.0000    24.0000 </r>
       <r>   -10.9311     0.0000    24.0000 </r>
       <r>   -10.6546     0.0000    24.0000 </r>
       <r>   -10.3782     0.0000    24.0000 </r>
       <r>   -10.1017     0.0000    24.0000 </r>
       <r>    -9.8253     0.0000    24.0000 </r>
       <r>    -9.5488     0.0000    24.0000 </r>
       <r>    -9.2724     0.0000    24.0000 </r>
       <r>    -8.9959     0.0000    24.0000 </r>
       <r>    -8.7194     0.0000    25.0000 </r>
       <r>    -8.4430     0.0000    25.0000 </r>
       <r>    -8.1665     0.0000    25.0000 </r>
       <r>    -7.8901     0.0000    26.0000 </r>
       <r>    -7.6136     0.0000    26.0000 </r>
       <r>    -7.3371     0.0000    26.0000 </r>
       <r>    -7.0607     0.0000    28.0000 </r>
       <r>    -6.7842     0.0000    31.0000 </r>
       <r>    -6.5078     0.0000    32.0000 </r>
       <r>    -6.2313     0.0000    32.0000 </r>
       <r>    -5.9549     3.6172    37.0000 </r>
       <r>    -5.6784     0.0000    37.0000 </r>
       <r>    -5.4019     0.0000    38.0000 </r>
       <r>    -5.1255     0.0041    38.0011 </r>
       <r>    -4.8490     0.0175    40.0048 </r>
       <r>    -4.5726     0.0000    42.0000 </r>
       <r>    -4.2961     0.0000    42.0000 </r>
       <r>    -4.0196     0.0000    44.0000 </r>
       <r>    -3.7432     3.6172    46.0000 </r>
       <r>    -3.4667     0.0000    46.0000 </r>
       <r>    -3.1903     0.0000    47.0000 </r>
       <r>    -2.9138     3.6172    50.0000 </r>
       <r>    -2.6374     0.0000    54.0000 </r>
       <r>    -2.3609     0.0000    55.0000 </r>
       <r>    -2.0844     3.6172    56.0000 </r>
       <r>    -1.8080     0.0000    57.0000 </r>
       <r>    -1.5315     0.0000    58.0000 </r>
       <r>    -1.2551     0.0000    58.0000 </r>
       <r>    -0.9786     0.0000    58.0000 </r>
       <r>    -0.7021     0.0000    60.0000 </r>
       <r>    -0.4257     0.0000    60.0000 </r>
       <r>    -0.1492     0.0000    60.0000 </r>
       <r>     0.1272     0.0000    60.0000 </r>
       <r>     0.4037     0.0000    60.0000 </r>
       <r>     0.6801     0.0000    60.0000 </r>
       <r>     0.9566     0.0000    60.0000 </r>
       <r>     1.2331     0.0000    60.0000 </r>
       <r>     1.5095     0.0000    60.0000 </r>
       <r>     1.7860     0.0000    60.0000 </r>
       <r>     2.0624     0.0000    60.0000 </r>
       <r>     2.3389     0.0000    60.0000 </r>
       <r>     2.6153     0.0000    60.0000 </r>
       <r>     2.8918     0.0000    60.0000 </r>
      </set>
     </set>
    </array>
   </total>
   <partial>
    <array>
     <dimension dim="1">gridpoints</dimension>
     <dimension dim="2">spin</dimension>
     <dimension dim="3">ion</dimension>
     <field>energy</field>
     <field>  s</field>
     <field>  p</field>
     <field>  d</field>
     <field>  f</field>
     <set>
      <set comment="ion 1">
       <set comment="spin 1">
        <r>   -80.0456     0.0000     0.0000     0.0000     0.0000 </r>
        <r>   -79.7692     0.0000     0.0000     0.0000     0.0000 </r>
        <r>   -79.4927     0.0000     0.0000     0.0000     0.0000 </r>
        <r>   -79.2163     0.0000     0.0000     0.0000     0.0000 </r>
        <r>   -78.9398     0.0000     0.0000     0.0000     0.0000 </r>
        <r>   -78.6634     0.0000     0.0000     0.0000     0.0000 </r>
        <r>   -78.3869     0.0000     0.0000     0.0000     0.0000 </r>
        <r>   -78.1104     0.0000     0.0000     0.0000     0.0000 </r>
        <r>   -77.8340     0.0000     0.0000     0.0000     0.0000 </r>
        <r>   -77.5575     0.0000     0.0000     0.0000     0.0000 </r>
        <r>   -77.2811     0.0000     0.0000     0.0000     0.0000 </r>
        <r>   -77.0046     0.0000     0.0000     0.0000     0.0000 </r>
        <r>   -76.7281     0.0000     0.0000     0.0000     0.0000 </r>
        <r>   -76.4517     0.0000     0.0000     0.0000     0.0000 </r>
        <r>   -76.1752     0.0000     0.0000     0.0000     0.0000 </r>
        <r>   -75.8988     0.9504     0.0001     0.0002     0.0000 </r>
        <r>   -75.6223     0.0000     0.0000     0.0000     0.0000 </r>
        <r>   -75.3459     0.0000     0.0000     0.0000     0.0000 </r>
        <r>   -75.0694     0.0000     0.0000     0.0000     0.0000 </r>
        <r>   -74.7929     0.0000     0.0000     0.0000     0.0000 </r>
        <r>   -74.5165     0.0000     0.0000     0.0000     0.0000 </r>
        <r>   -74.2400     0.0000     0.0000     0.0000     0.0000 </r>
        <r>   -73.9636     0.0000     0.0000     0.0000     0.0000 </r>
        <r>   -73.6871     0.0000     0.0000     0.0000     0.0000 </r>
        <r>   -73.4106     0.0000     0.0000     0.0000     0.0000 </r>
        <r>   -73.1342     0.0000     0.0000     0.0000     0.0000 </r>
        <r>   -72.8577     0.0000     0.0000     0.0000     0.0000 </r>
        <r>   -72.5813     0.0000     0.0000     0.0000     0.0000 </r>
        <r>   -72.3048     0.0000     0.0000     0.0000     0.0000 </r>
        <r>   -72.0284     0.0000     0.0000     0.0000     0.0000 </r>
        <r>   -71.7519     0.0000     0.0000     0.0000     0.0000 </r>
        <r>   -71.4754     0.0000     0.0000     0.0000     0.0000 </r>
        <r>   -71.1990     0.0000     0.0000     0.0000     0.0000 </r>
        <r>   -70.9225     0.0000     0.0000     0.0000     0.0000 </r>
        <r>   -70.6461     0.0000     0.0000     0.0000     0.0000 </r>
        <r>   -70.3696     0.0000     0.0000     0.0000     0.0000 </r>
        <r>   -70.0931     0.0000     0.0000     0.0000     0.0000 </r>
        <r>   -69.8167     0.0000     0.0000     0.0000     0.0000 </r>
        <r>   -69.5402     0.0000     0.0000     0.0000     0.0000 </r>
        <r>   -69.2638     0.0000     0.0000     0.0000     0.0000 </r>
        <r>   -68.9873     0.0000     0.0000     0.0000     0.0000 </r>
        <r>   -68.7109     0.0000     0.0000     0.0000     0.0000 </r>
        <r>   -68.4344     0.0000     0.0000     0.0000     0.0000 </r>
        <r>   -68.1579     0.0000     0.0000     0.0000     0.0000 </r>
        <r>   -67.8815     0.0000     0.0000     0.0000     0.0000 </r>
        <r>   -67.6050     0.0000     0.0000     0.0000     0.0000 </r>
        <r>   -67.3286     0.0000     0.0000     0.0000     0.0000 </r>
        <r>   -67.0521     0.0000     0.0000     0.0000     0.0000 </r>
        <r>   -66.7756     0.0000     0.0000     0.0000     0.0000 </r>
        <r>   -66.4992     0.0000     0.0000     0.0000     0.0000 </r>
        <r>   -66.2227     0.0000     0.0000     0.0000     0.0000 </r>
        <r>   -65.9463     0.0000     0.0000     0.0000     0.0000 </r>
        <r>   -65.6698     0.0000     0.0000     0.0000     0.0000 </r>
        <r>   -65.3934     0.0000     0.0000     0.0000     0.0000 </r>
        <r>   -65.1169     0.0000     0.0000     0.0000     0.0000 </r>
        <r>   -64.8404     0.0000     0.0000     0.0000     0.0000 </r>
        <r>   -64.5640     0.0000     0.0000     0.0000     0.0000 </r>
        <r>   -64.2875     0.0000     0.0000     0.0000     0.0000 </r>
        <r>   -64.0111     0.0000     0.0000     0.0000     0.0000 </r>
        <r>   -63.7346     0.0000     0.0000     0.0000     0.0000 </r>
        <r>   -63.4582     0.0000     0.0000     0.0000     0.0000 </r>
        <r>   -63.1817     0.0000     0.0000     0.0000     0.0000 </r>
        <r>   -62.9052     0.0000     0.0000     0.0000     0.0000 </r>
        <r>   -62.6288     0.0000     0.0000     0.0000     0.0000 </r>
        <r>   -62.3523     0.0000     0.0000     0.0000     0.0000 </r>
        <r>   -62.0759     0.0000     0.0000     0.0000     0.0000 </r>
        <r>   -61.7994     0.0000     0.0000     0.0000     0.0000 </r>
        <r>   -61.5229     0.0000     0.0000     0.0000     0.0000 </r>
        <r>   -61.2465     0.0000     0.0000     0.0000     0.0000 </r>
        <r>   -60.9700     0.0000     0.0000     0.0000     0.0000 </r>
        <r>   -60.6936     0.0000     0.0000     0.0000     0.0000 </r>
        <r>   -60.4171     0.0000     0.0000     0.0000     0.0000 </r>
        <r>   -60.1407     0.0000     0.0000     0.0000     0.0000 </r>
        <r>   -59.8642     0.0000     0.0000     0.0000     0.0000 </r>
        <r>   -59.5877     0.0000     0.0000     0.0000     0.0000 </r>
        <r>   -59.3113     0.0000     0.0000     0.0000     0.0000 </r>
        <r>   -59.0348     0.0000     0.0000     0.0000     0.0000 </r>
        <r>   -58.7584     0.0000     0.0000     0.0000     0.0000 </r>
        <r>   -58.4819     0.0000     0.0000     0.0000     0.0000 </r>
        <r>   -58.2054     0.0000     0.0000     0.0000     0.0000 </r>
        <r>   -57.9290     0.0000     0.0000     0.0000     0.0000 </r>
        <r>   -57.6525     0.0000     0.0000     0.0000     0.0000 </r>
        <r>   -57.3761     0.0000     0.0000     0.0000     0.0000 </r>
        <r>   -57.0996     0.0000     0.0000     0.0000     0.0000 </r>
        <r>   -56.8232     0.0000     0.0000     0.0000     0.0000 </r>
        <r>   -56.5467     0.0000     0.0000     0.0000     0.0000 </r>
        <r>   -56.2702     0.0000     0.0000     0.0000     0.0000 </r>
        <r>   -55.9938     0.0000     0.0000     0.0000     0.0000 </r>
        <r>   -55.7173     0.0000     0.0000     0.0000     0.0000 </r>
        <r>   -55.4409     0.0000     0.0000     0.0000     0.0000 </r>
        <r>   -55.1644     0.0000     0.0000     0.0000     0.0000 </r>
        <r>   -54.8879     0.0000     0.0000     0.0000     0.0000 </r>
        <r>   -54.6115     0.0000     0.0000     0.0000     0.0000 </r>
        <r>   -54.3350     0.0000     0.0000     0.0000     0.0000 </r>
        <r>   -54.0586     0.0000     0.0000     0.0000     0.0000 </r>
        <r>   -53.7821     0.0000     0.0000     0.0000     0.0000 </r>
        <r>   -53.5057     0.0000     0.0000     0.0000     0.0000 </r>
        <r>   -53.2292     0.0000     0.0000     0.0000     0.0000 </r>
        <r>   -52.9527     0.0000     0.0000     0.0000     0.0000 </r>
        <r>   -52.6763     0.0000     0.0000     0.0000     0.0000 </r>
        <r>   -52.3998     0.0000     0.0000     0.0000     0.0000 </r>
        <r>   -52.1234     0.0000     0.0000     0.0000     0.0000 </r>
        <r>   -51.8469     0.0000     0.0000     0.0000     0.0000 </r>
        <r>   -51.5705     0.0000     0.0000     0.0000     0.0000 </r>
        <r>   -51.2940     0.0000     0.0000     0.0000     0.0000 </r>
        <r>   -51.0175     0.0000     0.0000     0.0000     0.0000 </r>
        <r>   -50.7411     0.0000     0.0000     0.0000     0.0000 </r>
        <r>   -50.4646     0.0000     0.0000     0.0000     0.0000 </r>
        <r>   -50.1882     0.0000     0.0000     0.0000     0.0000 </r>
        <r>   -49.9117     0.0000     0.0000     0.0000     0.0000 </r>
        <r>   -49.6352     0.0000     0.0000     0.0000     0.0000 </r>
        <r>   -49.3588     0.0000     0.0000     0.0000     0.0000 </r>
        <r>   -49.0823     0.0000     0.0000     0.0000     0.0000 </r>
        <r>   -48.8059     0.0000     0.0000     0.0000     0.0000 </r>
        <r>   -48.5294     0.0000     0.0000     0.0000     0.0000 </r>
        <r>   -48.2530     0.0000     0.0000     0.0000     0.0000 </r>
        <r>   -47.9765     0.0000     0.0000     0.0000     0.0000 </r>
        <r>   -47.7000     0.0000     0.0000     0.0000     0.0000 </r>
        <r>   -47.4236     0.0000     0.0000     0.0000     0.0000 </r>
        <r>   -47.1471     0.0000     0.0000     0.0000     0.0000 </r>
        <r>   -46.8707     0.0000     0.0000     0.0000     0.0000 </r>
        <r>   -46.5942     0.0008     0.8792     0.0012     0.0002 </r>
        <r>   -46.3177     0.0000     0.0000     0.0000     0.0000 </r>
        <r>   -46.0413     0.0000     0.0000     0.0000     0.0000 </r>
        <r>   -45.7648     0.0001     0.1047     0.0001     0.0000 </r>
        <r>   -45.4884     0.0000     0.0000     0.0000     0.0000 </r>
        <r>   -45.2119     0.0000     0.0000     0.0000     0.0000 </r>
        <r>   -44.9355     0.0000     0.0000     0.0000     0.0000 </r>
        <r>   -44.6590     0.0000     0.0000     0.0000     0.0000 </r>
        <r>   -44.3825     0.0000     0.0000     0.0000     0.0000 </r>
        <r>   -44.1061     0.0000     0.0000     0.0000     0.0000 </r>
        <r>   -43.8296     0.0000     0.0000     0.0000     0.0000 </r>
        <r>   -43.5532     0.0000     0.0000     0.0000     0.0000 </r>
        <r>   -43.2767     0.0000     0.0000     0.0000     0.0000 </r>
        <r>   -43.0002     0.0000     0.0000     0.0000     0.0000 </r>
        <r>   -42.7238     0.0000     0.0000     0.0000     0.0000 </r>
        <r>   -42.4473     0.0000     0.0000     0.0000     0.0000 </r>
        <r>   -42.1709     0.0000     0.0000     0.0000     0.0000 </r>
        <r>   -41.8944     0.0000     0.0000     0.0000     0.0000 </r>
        <r>   -41.6180     0.0000     0.0000     0.0000     0.0000 </r>
        <r>   -41.3415     0.0000     0.0000     0.0000     0.0000 </r>
        <r>   -41.0650     0.0000     0.0000     0.0000     0.0000 </r>
        <r>   -40.7886     0.0000     0.0000     0.0000     0.0000 </r>
        <r>   -40.5121     0.0000     0.0000     0.0000     0.0000 </r>
        <r>   -40.2357     0.0000     0.0000     0.0000     0.0000 </r>
        <r>   -39.9592     0.0000     0.0000     0.0000     0.0000 </r>
        <r>   -39.6828     0.0000     0.0000     0.0000     0.0000 </r>
        <r>   -39.4063     0.0000     0.0000     0.0000     0.0000 </r>
        <r>   -39.1298     0.0000     0.0000     0.0000     0.0000 </r>
        <r>   -38.8534     0.0000     0.0000     0.0000     0.0000 </r>
        <r>   -38.5769     0.0000     0.0000     0.0000     0.0000 </r>
        <r>   -38.3005     0.0000     0.0000     0.0000     0.0000 </r>
        <r>   -38.0240     0.0000     0.0000     0.0000     0.0000 </r>
        <r>   -37.7475     0.0000     0.0000     0.0000     0.0000 </r>
        <r>   -37.4711     0.0000     0.0000     0.0000     0.0000 </r>
        <r>   -37.1946     0.0000     0.0000     0.0000     0.0000 </r>
        <r>   -36.9182     0.0000     0.0000     0.0000     0.0000 </r>
        <r>   -36.6417     0.0000     0.0000     0.0000     0.0000 </r>
        <r>   -36.3653     0.0000     0.0000     0.0000     0.0000 </r>
        <r>   -36.0888     0.0000     0.0000     0.0000     0.0000 </r>
        <r>   -35.8123     0.0000     0.0000     0.0000     0.0000 </r>
        <r>   -35.5359     0.0000     0.0000     0.0000     0.0000 </r>
        <r>   -35.2594     0.0000     0.0000     0.0000     0.0000 </r>
        <r>   -34.9830     0.0000     0.0000     0.0000     0.0000 </r>
        <r>   -34.7065     0.0000     0.0000     0.0000     0.0000 </r>
        <r>   -34.4300     0.0000     0.0000     0.0000     0.0000 </r>
        <r>   -34.1536     0.0000     0.0000     0.0000     0.0000 </r>
        <r>   -33.8771     0.0000     0.0000     0.0000     0.0000 </r>
        <r>   -33.6007     0.0000     0.0000     0.0000     0.0000 </r>
        <r>   -33.3242     0.0000     0.0000     0.0000     0.0000 </r>
        <r>   -33.0478     0.0000     0.0000     0.0000     0.0000 </r>
        <r>   -32.7713     0.0000     0.0000     0.0000     0.0000 </r>
        <r>   -32.4948     0.0000     0.0000     0.0000     0.0000 </r>
        <r>   -32.2184     0.0000     0.0000     0.0000     0.0000 </r>
        <r>   -31.9419     0.0000     0.0000     0.0000     0.0000 </r>
        <r>   -31.6655     0.0000     0.0000     0.0000     0.0000 </r>
        <r>   -31.3890     0.0000     0.0000     0.0000     0.0000 </r>
        <r>   -31.1125     0.0000     0.0000     0.0000     0.0000 </r>
        <r>   -30.8361     0.0000     0.0000     0.0000     0.0000 </r>
        <r>   -30.5596     0.0000     0.0000     0.0000     0.0000 </r>
        <r>   -30.2832     0.0000     0.0000     0.0000     0.0000 </r>
        <r>   -30.0067     0.0000     0.0000     0.0000     0.0000 </r>
        <r>   -29.7303     0.0000     0.0000     0.0000     0.0000 </r>
        <r>   -29.4538     0.0000     0.0000     0.0000     0.0000 </r>
        <r>   -29.1773     0.0000     0.0000     0.0000     0.0000 </r>
        <r>   -28.9009     0.0000     0.0000     0.0000     0.0000 </r>
        <r>   -28.6244     0.0000     0.0000     0.0000     0.0000 </r>
        <r>   -28.3480     0.0000     0.0000     0.0000     0.0000 </r>
        <r>   -28.0715     0.0000     0.0000     0.0000     0.0000 </r>
        <r>   -27.7950     0.0000     0.0000     0.0000     0.0000 </r>
        <r>   -27.5186     0.0000     0.0000     0.0000     0.0000 </r>
        <r>   -27.2421     0.0000     0.0000     0.0000     0.0000 </r>
        <r>   -26.9657     0.0000     0.0000     0.0000     0.0000 </r>
        <r>   -26.6892     0.0000     0.0000     0.0000     0.0000 </r>
        <r>   -26.4128     0.0000     0.0000     0.0000     0.0000 </r>
        <r>   -26.1363     0.0000     0.0000     0.0000     0.0000 </r>
        <r>   -25.8598     0.0000     0.0000     0.0000     0.0000 </r>
        <r>   -25.5834     0.0000     0.0000     0.0000     0.0000 </r>
        <r>   -25.3069     0.0000     0.0000     0.0000     0.0000 </r>
        <r>   -25.0305     0.0000     0.0000     0.0000     0.0000 </r>
        <r>   -24.7540     0.0000     0.0000     0.0000     0.0000 </r>
        <r>   -24.4776     0.0000     0.0000     0.0000     0.0000 </r>
        <r>   -24.2011     0.0000     0.0000     0.0000     0.0000 </r>
        <r>   -23.9246     0.0000     0.0000     0.0000     0.0000 </r>
        <r>   -23.6482     0.0000     0.0000     0.0000     0.0000 </r>
        <r>   -23.3717     0.0000     0.0000     0.0000     0.0000 </r>
        <r>   -23.0953     0.0000     0.0000     0.0000     0.0000 </r>
        <r>   -22.8188     0.0000     0.0000     0.0000     0.0000 </r>
        <r>   -22.5423     0.0000     0.0000     0.0000     0.0000 </r>
        <r>   -22.2659     0.0000     0.0000     0.0000     0.0000 </r>
        <r>   -21.9894     0.0000     0.0000     0.0000     0.0000 </r>
        <r>   -21.7130     0.0000     0.0000     0.0000     0.0000 </r>
        <r>   -21.4365     0.0000     0.0000     0.0000     0.0000 </r>
        <r>   -21.1601     0.0000     0.0000     0.0000     0.0000 </r>
        <r>   -20.8836     0.0000     0.0000     0.0000     0.0000 </r>
        <r>   -20.6071     0.0000     0.0000     0.0000     0.0000 </r>
        <r>   -20.3307     0.0000     0.0000     0.0000     0.0000 </r>
        <r>   -20.0542     0.0000     0.0000     0.0000     0.0000 </r>
        <r>   -19.7778     0.0000     0.0000     0.0000     0.0000 </r>
        <r>   -19.5013     0.0000     0.0000     0.0000     0.0000 </r>
        <r>   -19.2248     0.0000     0.0000     0.0000     0.0000 </r>
        <r>   -18.9484     0.0000     0.0000     0.0000     0.0000 </r>
        <r>   -18.6719     0.0000     0.0000     0.0000     0.0000 </r>
        <r>   -18.3955     0.0000     0.0000     0.0000     0.0000 </r>
        <r>   -18.1190     0.0000     0.0000     0.0000     0.0000 </r>
        <r>   -17.8426     0.0000     0.0000     0.0000     0.0000 </r>
        <r>   -17.5661     0.0000     0.0000     0.0000     0.0000 </r>
        <r>   -17.2896     0.0000     0.0000     0.0000     0.0000 </r>
        <r>   -17.0132     0.0000     0.0000     0.0000     0.0000 </r>
        <r>   -16.7367     0.0000     0.0000     0.0000     0.0000 </r>
        <r>   -16.4603     0.0000     0.0000     0.0000     0.0000 </r>
        <r>   -16.1838     0.0000     0.0000     0.0000     0.0000 </r>
        <r>   -15.9073     0.0000     0.0000     0.0000     0.0000 </r>
        <r>   -15.6309     0.0000     0.0000     0.0000     0.0000 </r>
        <r>   -15.3544     0.0000     0.0000     0.0000     0.0000 </r>
        <r>   -15.0780     0.0000     0.0000     0.0000     0.0000 </r>
        <r>   -14.8015     0.0000     0.0000     0.0000     0.0000 </r>
        <r>   -14.5251     0.0000     0.0000     0.0000     0.0000 </r>
        <r>   -14.2486     0.0000     0.0000     0.0000     0.0000 </r>
        <r>   -13.9721     0.0000     0.0000     0.0000     0.0000 </r>
        <r>   -13.6957     0.0000     0.0000     0.0000     0.0000 </r>
        <r>   -13.4192     0.0000     0.0000     0.0000     0.0000 </r>
        <r>   -13.1428     0.0000     0.0000     0.0000     0.0000 </r>
        <r>   -12.8663     0.0000     0.0000     0.0000     0.0000 </r>
        <r>   -12.5899     0.0000     0.0000     0.0000     0.0000 </r>
        <r>   -12.3134     0.0000     0.0000     0.0000     0.0000 </r>
        <r>   -12.0369     0.0000     0.0000     0.0000     0.0000 </r>
        <r>   -11.7605     0.0000     0.0000     0.0000     0.0000 </r>
        <r>   -11.4840     0.0000     0.0000     0.0000     0.0000 </r>
        <r>   -11.2076     0.0000     0.0000     0.0000     0.0000 </r>
        <r>   -10.9311     0.0000     0.0000     0.0000     0.0000 </r>
        <r>   -10.6546     0.0000     0.0000     0.0000     0.0000 </r>
        <r>   -10.3782     0.0000     0.0000     0.0000     0.0000 </r>
        <r>   -10.1017     0.0000     0.0000     0.0000     0.0000 </r>
        <r>    -9.8253     0.0000     0.0000     0.0000     0.0000 </r>
        <r>    -9.5488     0.0000     0.0000     0.0000     0.0000 </r>
        <r>    -9.2724     0.0000     0.0000     0.0000     0.0000 </r>
        <r>    -8.9959     0.0000     0.0000     0.0000     0.0000 </r>
        <r>    -8.7194     0.0000     0.0000     0.0000     0.0000 </r>
        <r>    -8.4430     0.0000     0.0000     0.0000     0.0000 </r>
        <r>    -8.1665     0.0000     0.0000     0.0000     0.0000 </r>
        <r>    -7.8901     0.0000     0.0000     0.0000     0.0000 </r>
        <r>    -7.6136     0.0000     0.0000     0.0000     0.0000 </r>
        <r>    -7.3371     0.0000     0.0000     0.0000     0.0000 </r>
        <r>    -7.0607     0.0000     0.0000     0.0000     0.0000 </r>
        <r>    -6.7842     0.0000     0.0000     0.0000     0.0000 </r>
        <r>    -6.5078     0.0000     0.0000     0.0000     0.0000 </r>
        <r>    -6.2313     0.0000     0.0000     0.0000     0.0000 </r>
        <r>    -5.9549     0.0000     0.0000     0.0000     0.0000 </r>
        <r>    -5.6784     0.0000     0.0000     0.0000     0.0000 </r>
        <r>    -5.4019     0.0000     0.0000     0.0000     0.0000 </r>
        <r>    -5.1255     0.0038     0.0088     0.8499     0.0061 </r>
        <r>    -4.8490     0.0001     0.0017     0.5496     0.0042 </r>
        <r>    -4.5726     0.0000     0.0000     0.0000     0.0000 </r>
        <r>    -4.2961     0.0000     0.0000     0.0000     0.0000 </r>
        <r>    -4.0196     0.0000     0.0000     0.0000     0.0000 </r>
        <r>    -3.7432     0.0000     0.0000     0.0000     0.0000 </r>
        <r>    -3.4667     0.0000     0.0026     0.7065     0.0034 </r>
        <r>    -3.1903     0.0000     0.0000     0.0000     0.0000 </r>
        <r>    -2.9138     0.0000     0.0000     0.0000     0.0000 </r>
        <r>    -2.6374     0.0000     0.0000     0.0000     0.0000 </r>
        <r>    -2.3609     0.0000     0.0000     0.0000     0.0000 </r>
        <r>    -2.0844     0.0000     0.0000     0.0000     0.0000 </r>
        <r>    -1.8080     0.0000     0.0000     0.0000     0.0000 </r>
        <r>    -1.5315     0.0000     0.0000     0.0000     0.0000 </r>
        <r>    -1.2551     0.0000     0.0000     0.0000     0.0000 </r>
        <r>    -0.9786     0.0000     0.0000     0.0000     0.0000 </r>
        <r>    -0.7021     0.0000     0.0000     0.0000     0.0000 </r>
        <r>    -0.4257     0.0000     0.0000     0.0000     0.0000 </r>
        <r>    -0.1492     0.0000     0.0000     0.0000     0.0000 </r>
        <r>     0.1272     0.0000     0.0000     0.0000     0.0000 </r>
        <r>     0.4037     0.0000     0.0000     0.0000     0.0000 </r>
        <r>     0.6801     0.0000     0.0000     0.0000     0.0000 </r>
        <r>     0.9566     0.0000     0.0000     0.0000     0.0000 </r>
        <r>     1.2331     0.0000     0.0000     0.0000     0.0000 </r>
        <r>     1.5095     0.0000     0.0000     0.0000     0.0000 </r>
        <r>     1.7860     0.0000     0.0000     0.0000     0.0000 </r>
        <r>     2.0624     0.0000     0.0000     0.0000     0.0000 </r>
        <r>     2.3389     0.0000     0.0000     0.0000     0.0000 </r>
        <r>     2.6153     0.0000     0.0000     0.0000     0.0000 </r>
        <r>     2.8918     0.0000     0.0000     0.0000     0.0000 </r>
       </set>
       <set comment="spin 2">
        <r>   -80.0456     0.0000     0.0000     0.0000     0.0000 </r>
        <r>   -79.7692     0.0000     0.0000     0.0000     0.0000 </r>
        <r>   -79.4927     0.0000     0.0000     0.0000     0.0000 </r>
        <r>   -79.2163     0.0000     0.0000     0.0000     0.0000 </r>
        <r>   -78.9398     0.0000     0.0000     0.0000     0.0000 </r>
        <r>   -78.6634     0.0000     0.0000     0.0000     0.0000 </r>
        <r>   -78.3869     0.0000     0.0000     0.0000     0.0000 </r>
        <r>   -78.1104     0.0000     0.0000     0.0000     0.0000 </r>
        <r>   -77.8340     0.0000     0.0000     0.0000     0.0000 </r>
        <r>   -77.5575     0.0000     0.0000     0.0000     0.0000 </r>
        <r>   -77.2811     0.0000     0.0000     0.0000     0.0000 </r>
        <r>   -77.0046     0.0000     0.0000     0.0000     0.0000 </r>
        <r>   -76.7281     0.0000     0.0000     0.0000     0.0000 </r>
        <r>   -76.4517     0.0000     0.0000     0.0000     0.0000 </r>
        <r>   -76.1752     0.0000     0.0000     0.0000     0.0000 </r>
        <r>   -75.8988     0.0000     0.0000     0.0000     0.0000 </r>
        <r>   -75.6223     0.9261     0.0001     0.0001     0.0000 </r>
        <r>   -75.3459     0.0000     0.0000     0.0000     0.0000 </r>
        <r>   -75.0694     0.0000     0.0000     0.0000     0.0000 </r>
        <r>   -74.7929     0.0000     0.0000     0.0000     0.0000 </r>
        <r>   -74.5165     0.0000     0.0000     0.0000     0.0000 </r>
        <r>   -74.2400     0.0000     0.0000     0.0000     0.0000 </r>
        <r>   -73.9636     0.0000     0.0000     0.0000     0.0000 </r>
        <r>   -73.6871     0.0000     0.0000     0.0000     0.0000 </r>
        <r>   -73.4106     0.0000     0.0000     0.0000     0.0000 </r>
        <r>   -73.1342     0.0000     0.0000     0.0000     0.0000 </r>
        <r>   -72.8577     0.0000     0.0000     0.0000     0.0000 </r>
        <r>   -72.5813     0.0000     0.0000     0.0000     0.0000 </r>
        <r>   -72.3048     0.0000     0.0000     0.0000     0.0000 </r>
        <r>   -72.0284     0.0000     0.0000     0.0000     0.0000 </r>
        <r>   -71.7519     0.0000     0.0000     0.0000     0.0000 </r>
        <r>   -71.4754     0.0000     0.0000     0.0000     0.0000 </r>
        <r>   -71.1990     0.0000     0.0000     0.0000     0.0000 </r>
        <r>   -70.9225     0.0000     0.0000     0.0000     0.0000 </r>
        <r>   -70.6461     0.0000     0.0000     0.0000     0.0000 </r>
        <r>   -70.3696     0.0000     0.0000     0.0000     0.0000 </r>
        <r>   -70.0931     0.0000     0.0000     0.0000     0.0000 </r>
        <r>   -69.8167     0.0000     0.0000     0.0000     0.0000 </r>
        <r>   -69.5402     0.0000     0.0000     0.0000     0.0000 </r>
        <r>   -69.2638     0.0000     0.0000     0.0000     0.0000 </r>
        <r>   -68.9873     0.0000     0.0000     0.0000     0.0000 </r>
        <r>   -68.7109     0.0000     0.0000     0.0000     0.0000 </r>
        <r>   -68.4344     0.0000     0.0000     0.0000     0.0000 </r>
        <r>   -68.1579     0.0000     0.0000     0.0000     0.0000 </r>
        <r>   -67.8815     0.0000     0.0000     0.0000     0.0000 </r>
        <r>   -67.6050     0.0000     0.0000     0.0000     0.0000 </r>
        <r>   -67.3286     0.0000     0.0000     0.0000     0.0000 </r>
        <r>   -67.0521     0.0000     0.0000     0.0000     0.0000 </r>
        <r>   -66.7756     0.0000     0.0000     0.0000     0.0000 </r>
        <r>   -66.4992     0.0000     0.0000     0.0000     0.0000 </r>
        <r>   -66.2227     0.0000     0.0000     0.0000     0.0000 </r>
        <r>   -65.9463     0.0000     0.0000     0.0000     0.0000 </r>
        <r>   -65.6698     0.0000     0.0000     0.0000     0.0000 </r>
        <r>   -65.3934     0.0000     0.0000     0.0000     0.0000 </r>
        <r>   -65.1169     0.0000     0.0000     0.0000     0.0000 </r>
        <r>   -64.8404     0.0000     0.0000     0.0000     0.0000 </r>
        <r>   -64.5640     0.0000     0.0000     0.0000     0.0000 </r>
        <r>   -64.2875     0.0000     0.0000     0.0000     0.0000 </r>
        <r>   -64.0111     0.0000     0.0000     0.0000     0.0000 </r>
        <r>   -63.7346     0.0000     0.0000     0.0000     0.0000 </r>
        <r>   -63.4582     0.0000     0.0000     0.0000     0.0000 </r>
        <r>   -63.1817     0.0000     0.0000     0.0000     0.0000 </r>
        <r>   -62.9052     0.0000     0.0000     0.0000     0.0000 </r>
        <r>   -62.6288     0.0000     0.0000     0.0000     0.0000 </r>
        <r>   -62.3523     0.0000     0.0000     0.0000     0.0000 </r>
        <r>   -62.0759     0.0000     0.0000     0.0000     0.0000 </r>
        <r>   -61.7994     0.0000     0.0000     0.0000     0.0000 </r>
        <r>   -61.5229     0.0000     0.0000     0.0000     0.0000 </r>
        <r>   -61.2465     0.0000     0.0000     0.0000     0.0000 </r>
        <r>   -60.9700     0.0000     0.0000     0.0000     0.0000 </r>
        <r>   -60.6936     0.0000     0.0000     0.0000     0.0000 </r>
        <r>   -60.4171     0.0000     0.0000     0.0000     0.0000 </r>
        <r>   -60.1407     0.0000     0.0000     0.0000     0.0000 </r>
        <r>   -59.8642     0.0000     0.0000     0.0000     0.0000 </r>
        <r>   -59.5877     0.0000     0.0000     0.0000     0.0000 </r>
        <r>   -59.3113     0.0000     0.0000     0.0000     0.0000 </r>
        <r>   -59.0348     0.0000     0.0000     0.0000     0.0000 </r>
        <r>   -58.7584     0.0000     0.0000     0.0000     0.0000 </r>
        <r>   -58.4819     0.0000     0.0000     0.0000     0.0000 </r>
        <r>   -58.2054     0.0000     0.0000     0.0000     0.0000 </r>
        <r>   -57.9290     0.0000     0.0000     0.0000     0.0000 </r>
        <r>   -57.6525     0.0000     0.0000     0.0000     0.0000 </r>
        <r>   -57.3761     0.0000     0.0000     0.0000     0.0000 </r>
        <r>   -57.0996     0.0000     0.0000     0.0000     0.0000 </r>
        <r>   -56.8232     0.0000     0.0000     0.0000     0.0000 </r>
        <r>   -56.5467     0.0000     0.0000     0.0000     0.0000 </r>
        <r>   -56.2702     0.0000     0.0000     0.0000     0.0000 </r>
        <r>   -55.9938     0.0000     0.0000     0.0000     0.0000 </r>
        <r>   -55.7173     0.0000     0.0000     0.0000     0.0000 </r>
        <r>   -55.4409     0.0000     0.0000     0.0000     0.0000 </r>
        <r>   -55.1644     0.0000     0.0000     0.0000     0.0000 </r>
        <r>   -54.8879     0.0000     0.0000     0.0000     0.0000 </r>
        <r>   -54.6115     0.0000     0.0000     0.0000     0.0000 </r>
        <r>   -54.3350     0.0000     0.0000     0.0000     0.0000 </r>
        <r>   -54.0586     0.0000     0.0000     0.0000     0.0000 </r>
        <r>   -53.7821     0.0000     0.0000     0.0000     0.0000 </r>
        <r>   -53.5057     0.0000     0.0000     0.0000     0.0000 </r>
        <r>   -53.2292     0.0000     0.0000     0.0000     0.0000 </r>
        <r>   -52.9527     0.0000     0.0000     0.0000     0.0000 </r>
        <r>   -52.6763     0.0000     0.0000     0.0000     0.0000 </r>
        <r>   -52.3998     0.0000     0.0000     0.0000     0.0000 </r>
        <r>   -52.1234     0.0000     0.0000     0.0000     0.0000 </r>
        <r>   -51.8469     0.0000     0.0000     0.0000     0.0000 </r>
        <r>   -51.5705     0.0000     0.0000     0.0000     0.0000 </r>
        <r>   -51.2940     0.0000     0.0000     0.0000     0.0000 </r>
        <r>   -51.0175     0.0000     0.0000     0.0000     0.0000 </r>
        <r>   -50.7411     0.0000     0.0000     0.0000     0.0000 </r>
        <r>   -50.4646     0.0000     0.0000     0.0000     0.0000 </r>
        <r>   -50.1882     0.0000     0.0000     0.0000     0.0000 </r>
        <r>   -49.9117     0.0000     0.0000     0.0000     0.0000 </r>
        <r>   -49.6352     0.0000     0.0000     0.0000     0.0000 </r>
        <r>   -49.3588     0.0000     0.0000     0.0000     0.0000 </r>
        <r>   -49.0823     0.0000     0.0000     0.0000     0.0000 </r>
        <r>   -48.8059     0.0000     0.0000     0.0000     0.0000 </r>
        <r>   -48.5294     0.0000     0.0000     0.0000     0.0000 </r>
        <r>   -48.2530     0.0000     0.0000     0.0000     0.0000 </r>
        <r>   -47.9765     0.0000     0.0000     0.0000     0.0000 </r>
        <r>   -47.7000     0.0000     0.0000     0.0000     0.0000 </r>
        <r>   -47.4236     0.0000     0.0000     0.0000     0.0000 </r>
        <r>   -47.1471     0.0000     0.0000     0.0000     0.0000 </r>
        <r>   -46.8707     0.0016     0.5339     0.0007     0.0001 </r>
        <r>   -46.5942     0.0000     0.0000     0.0000     0.0000 </r>
        <r>   -46.3177     0.0000     0.0000     0.0000     0.0000 </r>
        <r>   -46.0413     0.0000     0.8063     0.0011     0.0004 </r>
        <r>   -45.7648     0.0000     0.0000     0.0000     0.0000 </r>
        <r>   -45.4884     0.0008     0.9426     0.0005     0.0001 </r>
        <r>   -45.2119     0.0000     0.6839     0.0005     0.0000 </r>
        <r>   -44.9355     0.0000     0.0000     0.0000     0.0000 </r>
        <r>   -44.6590     0.0000     0.0000     0.0000     0.0000 </r>
        <r>   -44.3825     0.0000     0.0000     0.0000     0.0000 </r>
        <r>   -44.1061     0.0000     0.0000     0.0000     0.0000 </r>
        <r>   -43.8296     0.0000     0.0000     0.0000     0.0000 </r>
        <r>   -43.5532     0.0000     0.0000     0.0000     0.0000 </r>
        <r>   -43.2767     0.0000     0.0000     0.0000     0.0000 </r>
        <r>   -43.0002     0.0000     0.0000     0.0000     0.0000 </r>
        <r>   -42.7238     0.0000     0.0000     0.0000     0.0000 </r>
        <r>   -42.4473     0.0000     0.0000     0.0000     0.0000 </r>
        <r>   -42.1709     0.0000     0.0000     0.0000     0.0000 </r>
        <r>   -41.8944     0.0000     0.0000     0.0000     0.0000 </r>
        <r>   -41.6180     0.0000     0.0000     0.0000     0.0000 </r>
        <r>   -41.3415     0.0000     0.0000     0.0000     0.0000 </r>
        <r>   -41.0650     0.0000     0.0000     0.0000     0.0000 </r>
        <r>   -40.7886     0.0000     0.0000     0.0000     0.0000 </r>
        <r>   -40.5121     0.0000     0.0000     0.0000     0.0000 </r>
        <r>   -40.2357     0.0000     0.0000     0.0000     0.0000 </r>
        <r>   -39.9592     0.0000     0.0000     0.0000     0.0000 </r>
        <r>   -39.6828     0.0000     0.0000     0.0000     0.0000 </r>
        <r>   -39.4063     0.0000     0.0000     0.0000     0.0000 </r>
        <r>   -39.1298     0.0000     0.0000     0.0000     0.0000 </r>
        <r>   -38.8534     0.0000     0.0000     0.0000     0.0000 </r>
        <r>   -38.5769     0.0000     0.0000     0.0000     0.0000 </r>
        <r>   -38.3005     0.0000     0.0000     0.0000     0.0000 </r>
        <r>   -38.0240     0.0000     0.0000     0.0000     0.0000 </r>
        <r>   -37.7475     0.0000     0.0000     0.0000     0.0000 </r>
        <r>   -37.4711     0.0000     0.0000     0.0000     0.0000 </r>
        <r>   -37.1946     0.0000     0.0000     0.0000     0.0000 </r>
        <r>   -36.9182     0.0000     0.0000     0.0000     0.0000 </r>
        <r>   -36.6417     0.0000     0.0000     0.0000     0.0000 </r>
        <r>   -36.3653     0.0000     0.0000     0.0000     0.0000 </r>
        <r>   -36.0888     0.0000     0.0000     0.0000     0.0000 </r>
        <r>   -35.8123     0.0000     0.0000     0.0000     0.0000 </r>
        <r>   -35.5359     0.0000     0.0000     0.0000     0.0000 </r>
        <r>   -35.2594     0.0000     0.0000     0.0000     0.0000 </r>
        <r>   -34.9830     0.0000     0.0000     0.0000     0.0000 </r>
        <r>   -34.7065     0.0000     0.0000     0.0000     0.0000 </r>
        <r>   -34.4300     0.0000     0.0000     0.0000     0.0000 </r>
        <r>   -34.1536     0.0000     0.0000     0.0000     0.0000 </r>
        <r>   -33.8771     0.0000     0.0000     0.0000     0.0000 </r>
        <r>   -33.6007     0.0000     0.0000     0.0000     0.0000 </r>
        <r>   -33.3242     0.0000     0.0000     0.0000     0.0000 </r>
        <r>   -33.0478     0.0000     0.0000     0.0000     0.0000 </r>
        <r>   -32.7713     0.0000     0.0000     0.0000     0.0000 </r>
        <r>   -32.4948     0.0000     0.0000     0.0000     0.0000 </r>
        <r>   -32.2184     0.0000     0.0000     0.0000     0.0000 </r>
        <r>   -31.9419     0.0000     0.0000     0.0000     0.0000 </r>
        <r>   -31.6655     0.0000     0.0000     0.0000     0.0000 </r>
        <r>   -31.3890     0.0000     0.0000     0.0000     0.0000 </r>
        <r>   -31.1125     0.0000     0.0000     0.0000     0.0000 </r>
        <r>   -30.8361     0.0000     0.0000     0.0000     0.0000 </r>
        <r>   -30.5596     0.0000     0.0000     0.0000     0.0000 </r>
        <r>   -30.2832     0.0000     0.0000     0.0000     0.0000 </r>
        <r>   -30.0067     0.0000     0.0000     0.0000     0.0000 </r>
        <r>   -29.7303     0.0000     0.0000     0.0000     0.0000 </r>
        <r>   -29.4538     0.0000     0.0000     0.0000     0.0000 </r>
        <r>   -29.1773     0.0000     0.0000     0.0000     0.0000 </r>
        <r>   -28.9009     0.0000     0.0000     0.0000     0.0000 </r>
        <r>   -28.6244     0.0000     0.0000     0.0000     0.0000 </r>
        <r>   -28.3480     0.0000     0.0000     0.0000     0.0000 </r>
        <r>   -28.0715     0.0000     0.0000     0.0000     0.0000 </r>
        <r>   -27.7950     0.0000     0.0000     0.0000     0.0000 </r>
        <r>   -27.5186     0.0000     0.0000     0.0000     0.0000 </r>
        <r>   -27.2421     0.0000     0.0000     0.0000     0.0000 </r>
        <r>   -26.9657     0.0000     0.0000     0.0000     0.0000 </r>
        <r>   -26.6892     0.0000     0.0000     0.0000     0.0000 </r>
        <r>   -26.4128     0.0000     0.0000     0.0000     0.0000 </r>
        <r>   -26.1363     0.0000     0.0000     0.0000     0.0000 </r>
        <r>   -25.8598     0.0000     0.0000     0.0000     0.0000 </r>
        <r>   -25.5834     0.0000     0.0000     0.0000     0.0000 </r>
        <r>   -25.3069     0.0000     0.0000     0.0000     0.0000 </r>
        <r>   -25.0305     0.0000     0.0000     0.0000     0.0000 </r>
        <r>   -24.7540     0.0000     0.0000     0.0000     0.0000 </r>
        <r>   -24.4776     0.0000     0.0000     0.0000     0.0000 </r>
        <r>   -24.2011     0.0000     0.0000     0.0000     0.0000 </r>
        <r>   -23.9246     0.0000     0.0000     0.0000     0.0000 </r>
        <r>   -23.6482     0.0000     0.0000     0.0000     0.0000 </r>
        <r>   -23.3717     0.0000     0.0000     0.0000     0.0000 </r>
        <r>   -23.0953     0.0000     0.0000     0.0000     0.0000 </r>
        <r>   -22.8188     0.0000     0.0000     0.0000     0.0000 </r>
        <r>   -22.5423     0.0000     0.0000     0.0000     0.0000 </r>
        <r>   -22.2659     0.0000     0.0000     0.0000     0.0000 </r>
        <r>   -21.9894     0.0000     0.0000     0.0000     0.0000 </r>
        <r>   -21.7130     0.0000     0.0000     0.0000     0.0000 </r>
        <r>   -21.4365     0.0000     0.0000     0.0000     0.0000 </r>
        <r>   -21.1601     0.0000     0.0000     0.0000     0.0000 </r>
        <r>   -20.8836     0.0000     0.0000     0.0000     0.0000 </r>
        <r>   -20.6071     0.0000     0.0000     0.0000     0.0000 </r>
        <r>   -20.3307     0.0000     0.0000     0.0000     0.0000 </r>
        <r>   -20.0542     0.0000     0.0000     0.0000     0.0000 </r>
        <r>   -19.7778     0.0000     0.0000     0.0000     0.0000 </r>
        <r>   -19.5013     0.0000     0.0000     0.0000     0.0000 </r>
        <r>   -19.2248     0.0000     0.0000     0.0000     0.0000 </r>
        <r>   -18.9484     0.0000     0.0000     0.0000     0.0000 </r>
        <r>   -18.6719     0.0000     0.0000     0.0000     0.0000 </r>
        <r>   -18.3955     0.0000     0.0000     0.0000     0.0000 </r>
        <r>   -18.1190     0.0000     0.0000     0.0000     0.0000 </r>
        <r>   -17.8426     0.0000     0.0000     0.0000     0.0000 </r>
        <r>   -17.5661     0.0000     0.0000     0.0000     0.0000 </r>
        <r>   -17.2896     0.0000     0.0000     0.0000     0.0000 </r>
        <r>   -17.0132     0.0000     0.0000     0.0000     0.0000 </r>
        <r>   -16.7367     0.0000     0.0000     0.0000     0.0000 </r>
        <r>   -16.4603     0.0000     0.0000     0.0000     0.0000 </r>
        <r>   -16.1838     0.0000     0.0000     0.0000     0.0000 </r>
        <r>   -15.9073     0.0000     0.0000     0.0000     0.0000 </r>
        <r>   -15.6309     0.0000     0.0000     0.0000     0.0000 </r>
        <r>   -15.3544     0.0000     0.0000     0.0000     0.0000 </r>
        <r>   -15.0780     0.0000     0.0000     0.0000     0.0000 </r>
        <r>   -14.8015     0.0000     0.0000     0.0000     0.0000 </r>
        <r>   -14.5251     0.0000     0.0000     0.0000     0.0000 </r>
        <r>   -14.2486     0.0000     0.0000     0.0000     0.0000 </r>
        <r>   -13.9721     0.0000     0.0000     0.0000     0.0000 </r>
        <r>   -13.6957     0.0000     0.0000     0.0000     0.0000 </r>
        <r>   -13.4192     0.0000     0.0000     0.0000     0.0000 </r>
        <r>   -13.1428     0.0000     0.0000     0.0000     0.0000 </r>
        <r>   -12.8663     0.0000     0.0000     0.0000     0.0000 </r>
        <r>   -12.5899     0.0000     0.0000     0.0000     0.0000 </r>
        <r>   -12.3134     0.0000     0.0000     0.0000     0.0000 </r>
        <r>   -12.0369     0.0000     0.0000     0.0000     0.0000 </r>
        <r>   -11.7605     0.0000     0.0000     0.0000     0.0000 </r>
        <r>   -11.4840     0.0000     0.0000     0.0000     0.0000 </r>
        <r>   -11.2076     0.0000     0.0000     0.0000     0.0000 </r>
        <r>   -10.9311     0.0000     0.0000     0.0000     0.0000 </r>
        <r>   -10.6546     0.0000     0.0000     0.0000     0.0000 </r>
        <r>   -10.3782     0.0000     0.0000     0.0000     0.0000 </r>
        <r>   -10.1017     0.0000     0.0000     0.0000     0.0000 </r>
        <r>    -9.8253     0.0000     0.0000     0.0000     0.0000 </r>
        <r>    -9.5488     0.0000     0.0000     0.0000     0.0000 </r>
        <r>    -9.2724     0.0000     0.0000     0.0000     0.0000 </r>
        <r>    -8.9959     0.0000     0.0000     0.0000     0.0000 </r>
        <r>    -8.7194     0.0000     0.0000     0.0000     0.0000 </r>
        <r>    -8.4430     0.0000     0.0000     0.0000     0.0000 </r>
        <r>    -8.1665     0.0000     0.0000     0.0000     0.0000 </r>
        <r>    -7.8901     0.0000     0.0000     0.0000     0.0000 </r>
        <r>    -7.6136     0.0000     0.0000     0.0000     0.0000 </r>
        <r>    -7.3371     0.0000     0.0000     0.0000     0.0000 </r>
        <r>    -7.0607     0.0000     0.0000     0.0000     0.0000 </r>
        <r>    -6.7842     0.0000     0.0000     0.0000     0.0000 </r>
        <r>    -6.5078     0.0000     0.0000     0.0000     0.0000 </r>
        <r>    -6.2313     0.0000     0.0000     0.0000     0.0000 </r>
        <r>    -5.9549     0.0628     0.0029     0.2841     0.0024 </r>
        <r>    -5.6784     0.0000     0.0000     0.0000     0.0000 </r>
        <r>    -5.4019     0.0000     0.0000     0.0000     0.0000 </r>
        <r>    -5.1255     0.0000     0.0000     0.0004     0.0000 </r>
        <r>    -4.8490     0.0008     0.0000     0.0018     0.0000 </r>
        <r>    -4.5726     0.0000     0.0000     0.0000     0.0000 </r>
        <r>    -4.2961     0.0000     0.0000     0.0000     0.0000 </r>
        <r>    -4.0196     0.0000     0.0000     0.0000     0.0000 </r>
        <r>    -3.7432     0.0196     0.0035     0.6375     0.0024 </r>
        <r>    -3.4667     0.0000     0.0000     0.0000     0.0000 </r>
        <r>    -3.1903     0.0000     0.0000     0.0000     0.0000 </r>
        <r>    -2.9138     0.0016     0.0023     0.7080     0.0029 </r>
        <r>    -2.6374     0.0000     0.0000     0.0000     0.0000 </r>
        <r>    -2.3609     0.0000     0.0000     0.0000     0.0000 </r>
        <r>    -2.0844     0.0004     0.0057     0.2901     0.0033 </r>
        <r>    -1.8080     0.0000     0.0000     0.0000     0.0000 </r>
        <r>    -1.5315     0.0000     0.0000     0.0000     0.0000 </r>
        <r>    -1.2551     0.0000     0.0000     0.0000     0.0000 </r>
        <r>    -0.9786     0.0000     0.0000     0.0000     0.0000 </r>
        <r>    -0.7021     0.0000     0.0000     0.0000     0.0000 </r>
        <r>    -0.4257     0.0000     0.0000     0.0000     0.0000 </r>
        <r>    -0.1492     0.0000     0.0000     0.0000     0.0000 </r>
        <r>     0.1272     0.0000     0.0000     0.0000     0.0000 </r>
        <r>     0.4037     0.0000     0.0000     0.0000     0.0000 </r>
        <r>     0.6801     0.0000     0.0000     0.0000     0.0000 </r>
        <r>     0.9566     0.0000     0.0000     0.0000     0.0000 </r>
        <r>     1.2331     0.0000     0.0000     0.0000     0.0000 </r>
        <r>     1.5095     0.0000     0.0000     0.0000     0.0000 </r>
        <r>     1.7860     0.0000     0.0000     0.0000     0.0000 </r>
        <r>     2.0624     0.0000     0.0000     0.0000     0.0000 </r>
        <r>     2.3389     0.0000     0.0000     0.0000     0.0000 </r>
        <r>     2.6153     0.0000     0.0000     0.0000     0.0000 </r>
        <r>     2.8918     0.0000     0.0000     0.0000     0.0000 </r>
       </set>
      </set>
      <set comment="ion 2">
       <set comment="spin 1">
        <r>   -80.0456     0.0000     0.0000     0.0000     0.0000 </r>
        <r>   -79.7692     0.0000     0.0000     0.0000     0.0000 </r>
        <r>   -79.4927     0.0000     0.0000     0.0000     0.0000 </r>
        <r>   -79.2163     0.0000     0.0000     0.0000     0.0000 </r>
        <r>   -78.9398     0.0000     0.0000     0.0000     0.0000 </r>
        <r>   -78.6634     0.0000     0.0000     0.0000     0.0000 </r>
        <r>   -78.3869     0.0000     0.0000     0.0000     0.0000 </r>
        <r>   -78.1104     0.0000     0.0000     0.0000     0.0000 </r>
        <r>   -77.8340     0.0000     0.0000     0.0000     0.0000 </r>
        <r>   -77.5575     0.0000     0.0000     0.0000     0.0000 </r>
        <r>   -77.2811     0.0000     0.0000     0.0000     0.0000 </r>
        <r>   -77.0046     0.0000     0.0000     0.0000     0.0000 </r>
        <r>   -76.7281     0.0000     0.0000     0.0000     0.0000 </r>
        <r>   -76.4517     0.0000     0.0000     0.0000     0.0000 </r>
        <r>   -76.1752     0.0000     0.0000     0.0000     0.0000 </r>
        <r>   -75.8988     1.6944     0.0001     0.0004     0.0000 </r>
        <r>   -75.6223     0.0000     0.0000     0.0000     0.0000 </r>
        <r>   -75.3459     0.0000     0.0000     0.0000     0.0000 </r>
        <r>   -75.0694     0.0000     0.0000     0.0000     0.0000 </r>
        <r>   -74.7929     0.0000     0.0000     0.0000     0.0000 </r>
        <r>   -74.5165     0.0000     0.0000     0.0000     0.0000 </r>
        <r>   -74.2400     0.0000     0.0000     0.0000     0.0000 </r>
        <r>   -73.9636     0.0000     0.0000     0.0000     0.0000 </r>
        <r>   -73.6871     0.0000     0.0000     0.0000     0.0000 </r>
        <r>   -73.4106     0.0000     0.0000     0.0000     0.0000 </r>
        <r>   -73.1342     0.0000     0.0000     0.0000     0.0000 </r>
        <r>   -72.8577     0.0000     0.0000     0.0000     0.0000 </r>
        <r>   -72.5813     0.0000     0.0000     0.0000     0.0000 </r>
        <r>   -72.3048     0.0000     0.0000     0.0000     0.0000 </r>
        <r>   -72.0284     0.0000     0.0000     0.0000     0.0000 </r>
        <r>   -71.7519     0.0000     0.0000     0.0000     0.0000 </r>
        <r>   -71.4754     0.0000     0.0000     0.0000     0.0000 </r>
        <r>   -71.1990     0.0000     0.0000     0.0000     0.0000 </r>
        <r>   -70.9225     0.0000     0.0000     0.0000     0.0000 </r>
        <r>   -70.6461     0.0000     0.0000     0.0000     0.0000 </r>
        <r>   -70.3696     0.0000     0.0000     0.0000     0.0000 </r>
        <r>   -70.0931     0.0000     0.0000     0.0000     0.0000 </r>
        <r>   -69.8167     0.0000     0.0000     0.0000     0.0000 </r>
        <r>   -69.5402     0.0000     0.0000     0.0000     0.0000 </r>
        <r>   -69.2638     0.0000     0.0000     0.0000     0.0000 </r>
        <r>   -68.9873     0.0000     0.0000     0.0000     0.0000 </r>
        <r>   -68.7109     0.0000     0.0000     0.0000     0.0000 </r>
        <r>   -68.4344     0.0000     0.0000     0.0000     0.0000 </r>
        <r>   -68.1579     0.0000     0.0000     0.0000     0.0000 </r>
        <r>   -67.8815     0.0000     0.0000     0.0000     0.0000 </r>
        <r>   -67.6050     0.0000     0.0000     0.0000     0.0000 </r>
        <r>   -67.3286     0.0000     0.0000     0.0000     0.0000 </r>
        <r>   -67.0521     0.0000     0.0000     0.0000     0.0000 </r>
        <r>   -66.7756     0.0000     0.0000     0.0000     0.0000 </r>
        <r>   -66.4992     0.0000     0.0000     0.0000     0.0000 </r>
        <r>   -66.2227     0.0000     0.0000     0.0000     0.0000 </r>
        <r>   -65.9463     0.0000     0.0000     0.0000     0.0000 </r>
        <r>   -65.6698     0.0000     0.0000     0.0000     0.0000 </r>
        <r>   -65.3934     0.0000     0.0000     0.0000     0.0000 </r>
        <r>   -65.1169     0.0000     0.0000     0.0000     0.0000 </r>
        <r>   -64.8404     0.0000     0.0000     0.0000     0.0000 </r>
        <r>   -64.5640     0.0000     0.0000     0.0000     0.0000 </r>
        <r>   -64.2875     0.0000     0.0000     0.0000     0.0000 </r>
        <r>   -64.0111     0.0000     0.0000     0.0000     0.0000 </r>
        <r>   -63.7346     0.0000     0.0000     0.0000     0.0000 </r>
        <r>   -63.4582     0.0000     0.0000     0.0000     0.0000 </r>
        <r>   -63.1817     0.0000     0.0000     0.0000     0.0000 </r>
        <r>   -62.9052     0.0000     0.0000     0.0000     0.0000 </r>
        <r>   -62.6288     0.0000     0.0000     0.0000     0.0000 </r>
        <r>   -62.3523     0.0000     0.0000     0.0000     0.0000 </r>
        <r>   -62.0759     0.0000     0.0000     0.0000     0.0000 </r>
        <r>   -61.7994     0.0000     0.0000     0.0000     0.0000 </r>
        <r>   -61.5229     0.0000     0.0000     0.0000     0.0000 </r>
        <r>   -61.2465     0.0000     0.0000     0.0000     0.0000 </r>
        <r>   -60.9700     0.0000     0.0000     0.0000     0.0000 </r>
        <r>   -60.6936     0.0000     0.0000     0.0000     0.0000 </r>
        <r>   -60.4171     0.0000     0.0000     0.0000     0.0000 </r>
        <r>   -60.1407     0.0000     0.0000     0.0000     0.0000 </r>
        <r>   -59.8642     0.0000     0.0000     0.0000     0.0000 </r>
        <r>   -59.5877     0.0000     0.0000     0.0000     0.0000 </r>
        <r>   -59.3113     0.0000     0.0000     0.0000     0.0000 </r>
        <r>   -59.0348     0.0000     0.0000     0.0000     0.0000 </r>
        <r>   -58.7584     0.0000     0.0000     0.0000     0.0000 </r>
        <r>   -58.4819     0.0000     0.0000     0.0000     0.0000 </r>
        <r>   -58.2054     0.0000     0.0000     0.0000     0.0000 </r>
        <r>   -57.9290     0.0000     0.0000     0.0000     0.0000 </r>
        <r>   -57.6525     0.0000     0.0000     0.0000     0.0000 </r>
        <r>   -57.3761     0.0000     0.0000     0.0000     0.0000 </r>
        <r>   -57.0996     0.0000     0.0000     0.0000     0.0000 </r>
        <r>   -56.8232     0.0000     0.0000     0.0000     0.0000 </r>
        <r>   -56.5467     0.0000     0.0000     0.0000     0.0000 </r>
        <r>   -56.2702     0.0000     0.0000     0.0000     0.0000 </r>
        <r>   -55.9938     0.0000     0.0000     0.0000     0.0000 </r>
        <r>   -55.7173     0.0000     0.0000     0.0000     0.0000 </r>
        <r>   -55.4409     0.0000     0.0000     0.0000     0.0000 </r>
        <r>   -55.1644     0.0000     0.0000     0.0000     0.0000 </r>
        <r>   -54.8879     0.0000     0.0000     0.0000     0.0000 </r>
        <r>   -54.6115     0.0000     0.0000     0.0000     0.0000 </r>
        <r>   -54.3350     0.0000     0.0000     0.0000     0.0000 </r>
        <r>   -54.0586     0.0000     0.0000     0.0000     0.0000 </r>
        <r>   -53.7821     0.0000     0.0000     0.0000     0.0000 </r>
        <r>   -53.5057     0.0000     0.0000     0.0000     0.0000 </r>
        <r>   -53.2292     0.0000     0.0000     0.0000     0.0000 </r>
        <r>   -52.9527     0.0000     0.0000     0.0000     0.0000 </r>
        <r>   -52.6763     0.0000     0.0000     0.0000     0.0000 </r>
        <r>   -52.3998     0.0000     0.0000     0.0000     0.0000 </r>
        <r>   -52.1234     0.0000     0.0000     0.0000     0.0000 </r>
        <r>   -51.8469     0.0000     0.0000     0.0000     0.0000 </r>
        <r>   -51.5705     0.0000     0.0000     0.0000     0.0000 </r>
        <r>   -51.2940     0.0000     0.0000     0.0000     0.0000 </r>
        <r>   -51.0175     0.0000     0.0000     0.0000     0.0000 </r>
        <r>   -50.7411     0.0000     0.0000     0.0000     0.0000 </r>
        <r>   -50.4646     0.0000     0.0000     0.0000     0.0000 </r>
        <r>   -50.1882     0.0000     0.0000     0.0000     0.0000 </r>
        <r>   -49.9117     0.0000     0.0000     0.0000     0.0000 </r>
        <r>   -49.6352     0.0000     0.0000     0.0000     0.0000 </r>
        <r>   -49.3588     0.0000     0.0000     0.0000     0.0000 </r>
        <r>   -49.0823     0.0000     0.0000     0.0000     0.0000 </r>
        <r>   -48.8059     0.0000     0.0000     0.0000     0.0000 </r>
        <r>   -48.5294     0.0000     0.0000     0.0000     0.0000 </r>
        <r>   -48.2530     0.0000     0.0000     0.0000     0.0000 </r>
        <r>   -47.9765     0.0000     0.0000     0.0000     0.0000 </r>
        <r>   -47.7000     0.0000     0.0000     0.0000     0.0000 </r>
        <r>   -47.4236     0.0000     0.0000     0.0000     0.0000 </r>
        <r>   -47.1471     0.0000     0.0000     0.0000     0.0000 </r>
        <r>   -46.8707     0.0000     0.0000     0.0000     0.0000 </r>
        <r>   -46.5942     0.0000     0.0034     0.0001     0.0000 </r>
        <r>   -46.3177     0.0000     0.0000     0.0000     0.0000 </r>
        <r>   -46.0413     0.0000     0.0000     0.0000     0.0000 </r>
        <r>   -45.7648     0.0000     0.0065     0.0000     0.0000 </r>
        <r>   -45.4884     0.0000     0.0000     0.0000     0.0000 </r>
        <r>   -45.2119     0.0000     0.0000     0.0000     0.0000 </r>
        <r>   -44.9355     0.0000     0.0000     0.0000     0.0000 </r>
        <r>   -44.6590     0.0000     0.0000     0.0000     0.0000 </r>
        <r>   -44.3825     0.0000     0.0000     0.0000     0.0000 </r>
        <r>   -44.1061     0.0000     0.0000     0.0000     0.0000 </r>
        <r>   -43.8296     0.0000     0.0000     0.0000     0.0000 </r>
        <r>   -43.5532     0.0000     0.0000     0.0000     0.0000 </r>
        <r>   -43.2767     0.0000     0.0000     0.0000     0.0000 </r>
        <r>   -43.0002     0.0000     0.0000     0.0000     0.0000 </r>
        <r>   -42.7238     0.0000     0.0000     0.0000     0.0000 </r>
        <r>   -42.4473     0.0000     0.0000     0.0000     0.0000 </r>
        <r>   -42.1709     0.0000     0.0000     0.0000     0.0000 </r>
        <r>   -41.8944     0.0000     0.0000     0.0000     0.0000 </r>
        <r>   -41.6180     0.0000     0.0000     0.0000     0.0000 </r>
        <r>   -41.3415     0.0000     0.0000     0.0000     0.0000 </r>
        <r>   -41.0650     0.0000     0.0000     0.0000     0.0000 </r>
        <r>   -40.7886     0.0000     0.0000     0.0000     0.0000 </r>
        <r>   -40.5121     0.0000     0.0000     0.0000     0.0000 </r>
        <r>   -40.2357     0.0000     0.0000     0.0000     0.0000 </r>
        <r>   -39.9592     0.0000     0.0000     0.0000     0.0000 </r>
        <r>   -39.6828     0.0000     0.0000     0.0000     0.0000 </r>
        <r>   -39.4063     0.0000     0.0000     0.0000     0.0000 </r>
        <r>   -39.1298     0.0000     0.0000     0.0000     0.0000 </r>
        <r>   -38.8534     0.0000     0.0000     0.0000     0.0000 </r>
        <r>   -38.5769     0.0000     0.0000     0.0000     0.0000 </r>
        <r>   -38.3005     0.0000     0.0000     0.0000     0.0000 </r>
        <r>   -38.0240     0.0000     0.0000     0.0000     0.0000 </r>
        <r>   -37.7475     0.0000     0.0000     0.0000     0.0000 </r>
        <r>   -37.4711     0.0000     0.0000     0.0000     0.0000 </r>
        <r>   -37.1946     0.0000     0.0000     0.0000     0.0000 </r>
        <r>   -36.9182     0.0000     0.0000     0.0000     0.0000 </r>
        <r>   -36.6417     0.0000     0.0000     0.0000     0.0000 </r>
        <r>   -36.3653     0.0000     0.0000     0.0000     0.0000 </r>
        <r>   -36.0888     0.0000     0.0000     0.0000     0.0000 </r>
        <r>   -35.8123     0.0000     0.0000     0.0000     0.0000 </r>
        <r>   -35.5359     0.0000     0.0000     0.0000     0.0000 </r>
        <r>   -35.2594     0.0000     0.0000     0.0000     0.0000 </r>
        <r>   -34.9830     0.0000     0.0000     0.0000     0.0000 </r>
        <r>   -34.7065     0.0000     0.0000     0.0000     0.0000 </r>
        <r>   -34.4300     0.0000     0.0000     0.0000     0.0000 </r>
        <r>   -34.1536     0.0000     0.0000     0.0000     0.0000 </r>
        <r>   -33.8771     0.0000     0.0000     0.0000     0.0000 </r>
        <r>   -33.6007     0.0000     0.0000     0.0000     0.0000 </r>
        <r>   -33.3242     0.0000     0.0000     0.0000     0.0000 </r>
        <r>   -33.0478     0.0000     0.0000     0.0000     0.0000 </r>
        <r>   -32.7713     0.0000     0.0000     0.0000     0.0000 </r>
        <r>   -32.4948     0.0000     0.0000     0.0000     0.0000 </r>
        <r>   -32.2184     0.0000     0.0000     0.0000     0.0000 </r>
        <r>   -31.9419     0.0000     0.0000     0.0000     0.0000 </r>
        <r>   -31.6655     0.0000     0.0000     0.0000     0.0000 </r>
        <r>   -31.3890     0.0000     0.0000     0.0000     0.0000 </r>
        <r>   -31.1125     0.0000     0.0000     0.0000     0.0000 </r>
        <r>   -30.8361     0.0000     0.0000     0.0000     0.0000 </r>
        <r>   -30.5596     0.0000     0.0000     0.0000     0.0000 </r>
        <r>   -30.2832     0.0000     0.0000     0.0000     0.0000 </r>
        <r>   -30.0067     0.0000     0.0000     0.0000     0.0000 </r>
        <r>   -29.7303     0.0000     0.0000     0.0000     0.0000 </r>
        <r>   -29.4538     0.0000     0.0000     0.0000     0.0000 </r>
        <r>   -29.1773     0.0000     0.0000     0.0000     0.0000 </r>
        <r>   -28.9009     0.0000     0.0000     0.0000     0.0000 </r>
        <r>   -28.6244     0.0000     0.0000     0.0000     0.0000 </r>
        <r>   -28.3480     0.0000     0.0000     0.0000     0.0000 </r>
        <r>   -28.0715     0.0000     0.0000     0.0000     0.0000 </r>
        <r>   -27.7950     0.0000     0.0000     0.0000     0.0000 </r>
        <r>   -27.5186     0.0000     0.0000     0.0000     0.0000 </r>
        <r>   -27.2421     0.0000     0.0000     0.0000     0.0000 </r>
        <r>   -26.9657     0.0000     0.0000     0.0000     0.0000 </r>
        <r>   -26.6892     0.0000     0.0000     0.0000     0.0000 </r>
        <r>   -26.4128     0.0000     0.0000     0.0000     0.0000 </r>
        <r>   -26.1363     0.0000     0.0000     0.0000     0.0000 </r>
        <r>   -25.8598     0.0000     0.0000     0.0000     0.0000 </r>
        <r>   -25.5834     0.0000     0.0000     0.0000     0.0000 </r>
        <r>   -25.3069     0.0000     0.0000     0.0000     0.0000 </r>
        <r>   -25.0305     0.0000     0.0000     0.0000     0.0000 </r>
        <r>   -24.7540     0.0000     0.0000     0.0000     0.0000 </r>
        <r>   -24.4776     0.0000     0.0000     0.0000     0.0000 </r>
        <r>   -24.2011     0.0000     0.0000     0.0000     0.0000 </r>
        <r>   -23.9246     0.0000     0.0000     0.0000     0.0000 </r>
        <r>   -23.6482     0.0000     0.0000     0.0000     0.0000 </r>
        <r>   -23.3717     0.0000     0.0000     0.0000     0.0000 </r>
        <r>   -23.0953     0.0000     0.0000     0.0000     0.0000 </r>
        <r>   -22.8188     0.0000     0.0000     0.0000     0.0000 </r>
        <r>   -22.5423     0.0000     0.0000     0.0000     0.0000 </r>
        <r>   -22.2659     0.0000     0.0000     0.0000     0.0000 </r>
        <r>   -21.9894     0.0000     0.0000     0.0000     0.0000 </r>
        <r>   -21.7130     0.0000     0.0000     0.0000     0.0000 </r>
        <r>   -21.4365     0.0000     0.0000     0.0000     0.0000 </r>
        <r>   -21.1601     0.0000     0.0000     0.0000     0.0000 </r>
        <r>   -20.8836     0.0000     0.0000     0.0000     0.0000 </r>
        <r>   -20.6071     0.0000     0.0000     0.0000     0.0000 </r>
        <r>   -20.3307     0.0000     0.0000     0.0000     0.0000 </r>
        <r>   -20.0542     0.0000     0.0000     0.0000     0.0000 </r>
        <r>   -19.7778     0.0000     0.0000     0.0000     0.0000 </r>
        <r>   -19.5013     0.0000     0.0000     0.0000     0.0000 </r>
        <r>   -19.2248     0.0000     0.0000     0.0000     0.0000 </r>
        <r>   -18.9484     0.0000     0.0000     0.0000     0.0000 </r>
        <r>   -18.6719     0.0000     0.0000     0.0000     0.0000 </r>
        <r>   -18.3955     0.0000     0.0000     0.0000     0.0000 </r>
        <r>   -18.1190     0.0000     0.0000     0.0000     0.0000 </r>
        <r>   -17.8426     0.0000     0.0000     0.0000     0.0000 </r>
        <r>   -17.5661     0.0000     0.0000     0.0000     0.0000 </r>
        <r>   -17.2896     0.0000     0.0000     0.0000     0.0000 </r>
        <r>   -17.0132     0.0000     0.0000     0.0000     0.0000 </r>
        <r>   -16.7367     0.0000     0.0000     0.0000     0.0000 </r>
        <r>   -16.4603     0.0000     0.0000     0.0000     0.0000 </r>
        <r>   -16.1838     0.0000     0.0000     0.0000     0.0000 </r>
        <r>   -15.9073     0.0000     0.0000     0.0000     0.0000 </r>
        <r>   -15.6309     0.0000     0.0000     0.0000     0.0000 </r>
        <r>   -15.3544     0.0000     0.0000     0.0000     0.0000 </r>
        <r>   -15.0780     0.0000     0.0000     0.0000     0.0000 </r>
        <r>   -14.8015     0.0000     0.0000     0.0000     0.0000 </r>
        <r>   -14.5251     0.0000     0.0000     0.0000     0.0000 </r>
        <r>   -14.2486     0.0000     0.0000     0.0000     0.0000 </r>
        <r>   -13.9721     0.0000     0.0000     0.0000     0.0000 </r>
        <r>   -13.6957     0.0000     0.0000     0.0000     0.0000 </r>
        <r>   -13.4192     0.0000     0.0000     0.0000     0.0000 </r>
        <r>   -13.1428     0.0000     0.0000     0.0000     0.0000 </r>
        <r>   -12.8663     0.0000     0.0000     0.0000     0.0000 </r>
        <r>   -12.5899     0.0000     0.0000     0.0000     0.0000 </r>
        <r>   -12.3134     0.0000     0.0000     0.0000     0.0000 </r>
        <r>   -12.0369     0.0000     0.0000     0.0000     0.0000 </r>
        <r>   -11.7605     0.0000     0.0000     0.0000     0.0000 </r>
        <r>   -11.4840     0.0000     0.0000     0.0000     0.0000 </r>
        <r>   -11.2076     0.0000     0.0000     0.0000     0.0000 </r>
        <r>   -10.9311     0.0000     0.0000     0.0000     0.0000 </r>
        <r>   -10.6546     0.0000     0.0000     0.0000     0.0000 </r>
        <r>   -10.3782     0.0000     0.0000     0.0000     0.0000 </r>
        <r>   -10.1017     0.0000     0.0000     0.0000     0.0000 </r>
        <r>    -9.8253     0.0000     0.0000     0.0000     0.0000 </r>
        <r>    -9.5488     0.0000     0.0000     0.0000     0.0000 </r>
        <r>    -9.2724     0.0000     0.0000     0.0000     0.0000 </r>
        <r>    -8.9959     0.0000     0.0000     0.0000     0.0000 </r>
        <r>    -8.7194     0.0000     0.0000     0.0000     0.0000 </r>
        <r>    -8.4430     0.0000     0.0000     0.0000     0.0000 </r>
        <r>    -8.1665     0.0000     0.0000     0.0000     0.0000 </r>
        <r>    -7.8901     0.0000     0.0000     0.0000     0.0000 </r>
        <r>    -7.6136     0.0000     0.0000     0.0000     0.0000 </r>
        <r>    -7.3371     0.0000     0.0000     0.0000     0.0000 </r>
        <r>    -7.0607     0.0000     0.0000     0.0000     0.0000 </r>
        <r>    -6.7842     0.0000     0.0000     0.0000     0.0000 </r>
        <r>    -6.5078     0.0000     0.0000     0.0000     0.0000 </r>
        <r>    -6.2313     0.0000     0.0000     0.0000     0.0000 </r>
        <r>    -5.9549     0.0000     0.0000     0.0000     0.0000 </r>
        <r>    -5.6784     0.0000     0.0000     0.0000     0.0000 </r>
        <r>    -5.4019     0.0000     0.0000     0.0000     0.0000 </r>
        <r>    -5.1255     0.0019     0.0091     1.0202     0.0076 </r>
        <r>    -4.8490     0.0000     0.0009     0.4308     0.0032 </r>
        <r>    -4.5726     0.0000     0.0000     0.0000     0.0000 </r>
        <r>    -4.2961     0.0000     0.0000     0.0000     0.0000 </r>
        <r>    -4.0196     0.0000     0.0000     0.0000     0.0000 </r>
        <r>    -3.7432     0.0000     0.0000     0.0000     0.0000 </r>
        <r>    -3.4667     0.0000     0.0000     0.1372     0.0026 </r>
        <r>    -3.1903     0.0000     0.0000     0.0000     0.0000 </r>
        <r>    -2.9138     0.0000     0.0000     0.0000     0.0000 </r>
        <r>    -2.6374     0.0000     0.0000     0.0000     0.0000 </r>
        <r>    -2.3609     0.0000     0.0000     0.0000     0.0000 </r>
        <r>    -2.0844     0.0000     0.0000     0.0000     0.0000 </r>
        <r>    -1.8080     0.0000     0.0000     0.0000     0.0000 </r>
        <r>    -1.5315     0.0000     0.0000     0.0000     0.0000 </r>
        <r>    -1.2551     0.0000     0.0000     0.0000     0.0000 </r>
        <r>    -0.9786     0.0000     0.0000     0.0000     0.0000 </r>
        <r>    -0.7021     0.0000     0.0000     0.0000     0.0000 </r>
        <r>    -0.4257     0.0000     0.0000     0.0000     0.0000 </r>
        <r>    -0.1492     0.0000     0.0000     0.0000     0.0000 </r>
        <r>     0.1272     0.0000     0.0000     0.0000     0.0000 </r>
        <r>     0.4037     0.0000     0.0000     0.0000     0.0000 </r>
        <r>     0.6801     0.0000     0.0000     0.0000     0.0000 </r>
        <r>     0.9566     0.0000     0.0000     0.0000     0.0000 </r>
        <r>     1.2331     0.0000     0.0000     0.0000     0.0000 </r>
        <r>     1.5095     0.0000     0.0000     0.0000     0.0000 </r>
        <r>     1.7860     0.0000     0.0000     0.0000     0.0000 </r>
        <r>     2.0624     0.0000     0.0000     0.0000     0.0000 </r>
        <r>     2.3389     0.0000     0.0000     0.0000     0.0000 </r>
        <r>     2.6153     0.0000     0.0000     0.0000     0.0000 </r>
        <r>     2.8918     0.0000     0.0000     0.0000     0.0000 </r>
       </set>
       <set comment="spin 2">
        <r>   -80.0456     0.0000     0.0000     0.0000     0.0000 </r>
        <r>   -79.7692     0.0000     0.0000     0.0000     0.0000 </r>
        <r>   -79.4927     0.0000     0.0000     0.0000     0.0000 </r>
        <r>   -79.2163     0.0000     0.0000     0.0000     0.0000 </r>
        <r>   -78.9398     0.0000     0.0000     0.0000     0.0000 </r>
        <r>   -78.6634     0.0000     0.0000     0.0000     0.0000 </r>
        <r>   -78.3869     0.0000     0.0000     0.0000     0.0000 </r>
        <r>   -78.1104     0.0000     0.0000     0.0000     0.0000 </r>
        <r>   -77.8340     0.0000     0.0000     0.0000     0.0000 </r>
        <r>   -77.5575     0.0000     0.0000     0.0000     0.0000 </r>
        <r>   -77.2811     0.0000     0.0000     0.0000     0.0000 </r>
        <r>   -77.0046     0.0000     0.0000     0.0000     0.0000 </r>
        <r>   -76.7281     0.0000     0.0000     0.0000     0.0000 </r>
        <r>   -76.4517     0.0000     0.0000     0.0000     0.0000 </r>
        <r>   -76.1752     0.0000     0.0000     0.0000     0.0000 </r>
        <r>   -75.8988     0.0000     0.0000     0.0000     0.0000 </r>
        <r>   -75.6223     0.0001     0.0000     0.0001     0.0000 </r>
        <r>   -75.3459     0.0000     0.0000     0.0000     0.0000 </r>
        <r>   -75.0694     0.0000     0.0000     0.0000     0.0000 </r>
        <r>   -74.7929     0.0000     0.0000     0.0000     0.0000 </r>
        <r>   -74.5165     0.0000     0.0000     0.0000     0.0000 </r>
        <r>   -74.2400     0.0000     0.0000     0.0000     0.0000 </r>
        <r>   -73.9636     0.0000     0.0000     0.0000     0.0000 </r>
        <r>   -73.6871     0.0000     0.0000     0.0000     0.0000 </r>
        <r>   -73.4106     0.0000     0.0000     0.0000     0.0000 </r>
        <r>   -73.1342     0.0000     0.0000     0.0000     0.0000 </r>
        <r>   -72.8577     0.0000     0.0000     0.0000     0.0000 </r>
        <r>   -72.5813     0.0000     0.0000     0.0000     0.0000 </r>
        <r>   -72.3048     0.0000     0.0000     0.0000     0.0000 </r>
        <r>   -72.0284     0.0000     0.0000     0.0000     0.0000 </r>
        <r>   -71.7519     0.0000     0.0000     0.0000     0.0000 </r>
        <r>   -71.4754     0.0000     0.0000     0.0000     0.0000 </r>
        <r>   -71.1990     0.0000     0.0000     0.0000     0.0000 </r>
        <r>   -70.9225     0.0000     0.0000     0.0000     0.0000 </r>
        <r>   -70.6461     0.0000     0.0000     0.0000     0.0000 </r>
        <r>   -70.3696     0.0000     0.0000     0.0000     0.0000 </r>
        <r>   -70.0931     0.0000     0.0000     0.0000     0.0000 </r>
        <r>   -69.8167     0.0000     0.0000     0.0000     0.0000 </r>
        <r>   -69.5402     0.0000     0.0000     0.0000     0.0000 </r>
        <r>   -69.2638     0.0000     0.0000     0.0000     0.0000 </r>
        <r>   -68.9873     0.0000     0.0000     0.0000     0.0000 </r>
        <r>   -68.7109     0.0000     0.0000     0.0000     0.0000 </r>
        <r>   -68.4344     0.0000     0.0000     0.0000     0.0000 </r>
        <r>   -68.1579     0.0000     0.0000     0.0000     0.0000 </r>
        <r>   -67.8815     0.0000     0.0000     0.0000     0.0000 </r>
        <r>   -67.6050     0.0000     0.0000     0.0000     0.0000 </r>
        <r>   -67.3286     0.0000     0.0000     0.0000     0.0000 </r>
        <r>   -67.0521     0.0000     0.0000     0.0000     0.0000 </r>
        <r>   -66.7756     0.0000     0.0000     0.0000     0.0000 </r>
        <r>   -66.4992     0.0000     0.0000     0.0000     0.0000 </r>
        <r>   -66.2227     0.0000     0.0000     0.0000     0.0000 </r>
        <r>   -65.9463     0.0000     0.0000     0.0000     0.0000 </r>
        <r>   -65.6698     0.0000     0.0000     0.0000     0.0000 </r>
        <r>   -65.3934     0.0000     0.0000     0.0000     0.0000 </r>
        <r>   -65.1169     0.0000     0.0000     0.0000     0.0000 </r>
        <r>   -64.8404     0.0000     0.0000     0.0000     0.0000 </r>
        <r>   -64.5640     0.0000     0.0000     0.0000     0.0000 </r>
        <r>   -64.2875     0.0000     0.0000     0.0000     0.0000 </r>
        <r>   -64.0111     0.0000     0.0000     0.0000     0.0000 </r>
        <r>   -63.7346     0.0000     0.0000     0.0000     0.0000 </r>
        <r>   -63.4582     0.0000     0.0000     0.0000     0.0000 </r>
        <r>   -63.1817     0.0000     0.0000     0.0000     0.0000 </r>
        <r>   -62.9052     0.0000     0.0000     0.0000     0.0000 </r>
        <r>   -62.6288     0.0000     0.0000     0.0000     0.0000 </r>
        <r>   -62.3523     0.0000     0.0000     0.0000     0.0000 </r>
        <r>   -62.0759     0.0000     0.0000     0.0000     0.0000 </r>
        <r>   -61.7994     0.0000     0.0000     0.0000     0.0000 </r>
        <r>   -61.5229     0.0000     0.0000     0.0000     0.0000 </r>
        <r>   -61.2465     0.0000     0.0000     0.0000     0.0000 </r>
        <r>   -60.9700     0.0000     0.0000     0.0000     0.0000 </r>
        <r>   -60.6936     0.0000     0.0000     0.0000     0.0000 </r>
        <r>   -60.4171     0.0000     0.0000     0.0000     0.0000 </r>
        <r>   -60.1407     0.0000     0.0000     0.0000     0.0000 </r>
        <r>   -59.8642     0.0000     0.0000     0.0000     0.0000 </r>
        <r>   -59.5877     0.0000     0.0000     0.0000     0.0000 </r>
        <r>   -59.3113     0.0000     0.0000     0.0000     0.0000 </r>
        <r>   -59.0348     0.0000     0.0000     0.0000     0.0000 </r>
        <r>   -58.7584     0.0000     0.0000     0.0000     0.0000 </r>
        <r>   -58.4819     0.0000     0.0000     0.0000     0.0000 </r>
        <r>   -58.2054     0.0000     0.0000     0.0000     0.0000 </r>
        <r>   -57.9290     0.0000     0.0000     0.0000     0.0000 </r>
        <r>   -57.6525     0.0000     0.0000     0.0000     0.0000 </r>
        <r>   -57.3761     0.0000     0.0000     0.0000     0.0000 </r>
        <r>   -57.0996     0.0000     0.0000     0.0000     0.0000 </r>
        <r>   -56.8232     0.0000     0.0000     0.0000     0.0000 </r>
        <r>   -56.5467     0.0000     0.0000     0.0000     0.0000 </r>
        <r>   -56.2702     0.0000     0.0000     0.0000     0.0000 </r>
        <r>   -55.9938     0.0000     0.0000     0.0000     0.0000 </r>
        <r>   -55.7173     0.0000     0.0000     0.0000     0.0000 </r>
        <r>   -55.4409     0.0000     0.0000     0.0000     0.0000 </r>
        <r>   -55.1644     0.0000     0.0000     0.0000     0.0000 </r>
        <r>   -54.8879     0.0000     0.0000     0.0000     0.0000 </r>
        <r>   -54.6115     0.0000     0.0000     0.0000     0.0000 </r>
        <r>   -54.3350     0.0000     0.0000     0.0000     0.0000 </r>
        <r>   -54.0586     0.0000     0.0000     0.0000     0.0000 </r>
        <r>   -53.7821     0.0000     0.0000     0.0000     0.0000 </r>
        <r>   -53.5057     0.0000     0.0000     0.0000     0.0000 </r>
        <r>   -53.2292     0.0000     0.0000     0.0000     0.0000 </r>
        <r>   -52.9527     0.0000     0.0000     0.0000     0.0000 </r>
        <r>   -52.6763     0.0000     0.0000     0.0000     0.0000 </r>
        <r>   -52.3998     0.0000     0.0000     0.0000     0.0000 </r>
        <r>   -52.1234     0.0000     0.0000     0.0000     0.0000 </r>
        <r>   -51.8469     0.0000     0.0000     0.0000     0.0000 </r>
        <r>   -51.5705     0.0000     0.0000     0.0000     0.0000 </r>
        <r>   -51.2940     0.0000     0.0000     0.0000     0.0000 </r>
        <r>   -51.0175     0.0000     0.0000     0.0000     0.0000 </r>
        <r>   -50.7411     0.0000     0.0000     0.0000     0.0000 </r>
        <r>   -50.4646     0.0000     0.0000     0.0000     0.0000 </r>
        <r>   -50.1882     0.0000     0.0000     0.0000     0.0000 </r>
        <r>   -49.9117     0.0000     0.0000     0.0000     0.0000 </r>
        <r>   -49.6352     0.0000     0.0000     0.0000     0.0000 </r>
        <r>   -49.3588     0.0000     0.0000     0.0000     0.0000 </r>
        <r>   -49.0823     0.0000     0.0000     0.0000     0.0000 </r>
        <r>   -48.8059     0.0000     0.0000     0.0000     0.0000 </r>
        <r>   -48.5294     0.0000     0.0000     0.0000     0.0000 </r>
        <r>   -48.2530     0.0000     0.0000     0.0000     0.0000 </r>
        <r>   -47.9765     0.0000     0.0000     0.0000     0.0000 </r>
        <r>   -47.7000     0.0000     0.0000     0.0000     0.0000 </r>
        <r>   -47.4236     0.0000     0.0000     0.0000     0.0000 </r>
        <r>   -47.1471     0.0000     0.0000     0.0000     0.0000 </r>
        <r>   -46.8707     0.0019     0.6865     0.0004     0.0001 </r>
        <r>   -46.5942     0.0000     0.0000     0.0000     0.0000 </r>
        <r>   -46.3177     0.0000     0.0000     0.0000     0.0000 </r>
        <r>   -46.0413     0.0000     1.0939     0.0007     0.0003 </r>
        <r>   -45.7648     0.0000     0.0000     0.0000     0.0000 </r>
        <r>   -45.4884     0.0013     0.9962     0.0006     0.0002 </r>
        <r>   -45.2119     0.0000     0.4374     0.0003     0.0000 </r>
        <r>   -44.9355     0.0000     0.0000     0.0000     0.0000 </r>
        <r>   -44.6590     0.0000     0.0000     0.0000     0.0000 </r>
        <r>   -44.3825     0.0000     0.0000     0.0000     0.0000 </r>
        <r>   -44.1061     0.0000     0.0000     0.0000     0.0000 </r>
        <r>   -43.8296     0.0000     0.0000     0.0000     0.0000 </r>
        <r>   -43.5532     0.0000     0.0000     0.0000     0.0000 </r>
        <r>   -43.2767     0.0000     0.0000     0.0000     0.0000 </r>
        <r>   -43.0002     0.0000     0.0000     0.0000     0.0000 </r>
        <r>   -42.7238     0.0000     0.0000     0.0000     0.0000 </r>
        <r>   -42.4473     0.0000     0.0000     0.0000     0.0000 </r>
        <r>   -42.1709     0.0000     0.0000     0.0000     0.0000 </r>
        <r>   -41.8944     0.0000     0.0000     0.0000     0.0000 </r>
        <r>   -41.6180     0.0000     0.0000     0.0000     0.0000 </r>
        <r>   -41.3415     0.0000     0.0000     0.0000     0.0000 </r>
        <r>   -41.0650     0.0000     0.0000     0.0000     0.0000 </r>
        <r>   -40.7886     0.0000     0.0000     0.0000     0.0000 </r>
        <r>   -40.5121     0.0000     0.0000     0.0000     0.0000 </r>
        <r>   -40.2357     0.0000     0.0000     0.0000     0.0000 </r>
        <r>   -39.9592     0.0000     0.0000     0.0000     0.0000 </r>
        <r>   -39.6828     0.0000     0.0000     0.0000     0.0000 </r>
        <r>   -39.4063     0.0000     0.0000     0.0000     0.0000 </r>
        <r>   -39.1298     0.0000     0.0000     0.0000     0.0000 </r>
        <r>   -38.8534     0.0000     0.0000     0.0000     0.0000 </r>
        <r>   -38.5769     0.0000     0.0000     0.0000     0.0000 </r>
        <r>   -38.3005     0.0000     0.0000     0.0000     0.0000 </r>
        <r>   -38.0240     0.0000     0.0000     0.0000     0.0000 </r>
        <r>   -37.7475     0.0000     0.0000     0.0000     0.0000 </r>
        <r>   -37.4711     0.0000     0.0000     0.0000     0.0000 </r>
        <r>   -37.1946     0.0000     0.0000     0.0000     0.0000 </r>
        <r>   -36.9182     0.0000     0.0000     0.0000     0.0000 </r>
        <r>   -36.6417     0.0000     0.0000     0.0000     0.0000 </r>
        <r>   -36.3653     0.0000     0.0000     0.0000     0.0000 </r>
        <r>   -36.0888     0.0000     0.0000     0.0000     0.0000 </r>
        <r>   -35.8123     0.0000     0.0000     0.0000     0.0000 </r>
        <r>   -35.5359     0.0000     0.0000     0.0000     0.0000 </r>
        <r>   -35.2594     0.0000     0.0000     0.0000     0.0000 </r>
        <r>   -34.9830     0.0000     0.0000     0.0000     0.0000 </r>
        <r>   -34.7065     0.0000     0.0000     0.0000     0.0000 </r>
        <r>   -34.4300     0.0000     0.0000     0.0000     0.0000 </r>
        <r>   -34.1536     0.0000     0.0000     0.0000     0.0000 </r>
        <r>   -33.8771     0.0000     0.0000     0.0000     0.0000 </r>
        <r>   -33.6007     0.0000     0.0000     0.0000     0.0000 </r>
        <r>   -33.3242     0.0000     0.0000     0.0000     0.0000 </r>
        <r>   -33.0478     0.0000     0.0000     0.0000     0.0000 </r>
        <r>   -32.7713     0.0000     0.0000     0.0000     0.0000 </r>
        <r>   -32.4948     0.0000     0.0000     0.0000     0.0000 </r>
        <r>   -32.2184     0.0000     0.0000     0.0000     0.0000 </r>
        <r>   -31.9419     0.0000     0.0000     0.0000     0.0000 </r>
        <r>   -31.6655     0.0000     0.0000     0.0000     0.0000 </r>
        <r>   -31.3890     0.0000     0.0000     0.0000     0.0000 </r>
        <r>   -31.1125     0.0000     0.0000     0.0000     0.0000 </r>
        <r>   -30.8361     0.0000     0.0000     0.0000     0.0000 </r>
        <r>   -30.5596     0.0000     0.0000     0.0000     0.0000 </r>
        <r>   -30.2832     0.0000     0.0000     0.0000     0.0000 </r>
        <r>   -30.0067     0.0000     0.0000     0.0000     0.0000 </r>
        <r>   -29.7303     0.0000     0.0000     0.0000     0.0000 </r>
        <r>   -29.4538     0.0000     0.0000     0.0000     0.0000 </r>
        <r>   -29.1773     0.0000     0.0000     0.0000     0.0000 </r>
        <r>   -28.9009     0.0000     0.0000     0.0000     0.0000 </r>
        <r>   -28.6244     0.0000     0.0000     0.0000     0.0000 </r>
        <r>   -28.3480     0.0000     0.0000     0.0000     0.0000 </r>
        <r>   -28.0715     0.0000     0.0000     0.0000     0.0000 </r>
        <r>   -27.7950     0.0000     0.0000     0.0000     0.0000 </r>
        <r>   -27.5186     0.0000     0.0000     0.0000     0.0000 </r>
        <r>   -27.2421     0.0000     0.0000     0.0000     0.0000 </r>
        <r>   -26.9657     0.0000     0.0000     0.0000     0.0000 </r>
        <r>   -26.6892     0.0000     0.0000     0.0000     0.0000 </r>
        <r>   -26.4128     0.0000     0.0000     0.0000     0.0000 </r>
        <r>   -26.1363     0.0000     0.0000     0.0000     0.0000 </r>
        <r>   -25.8598     0.0000     0.0000     0.0000     0.0000 </r>
        <r>   -25.5834     0.0000     0.0000     0.0000     0.0000 </r>
        <r>   -25.3069     0.0000     0.0000     0.0000     0.0000 </r>
        <r>   -25.0305     0.0000     0.0000     0.0000     0.0000 </r>
        <r>   -24.7540     0.0000     0.0000     0.0000     0.0000 </r>
        <r>   -24.4776     0.0000     0.0000     0.0000     0.0000 </r>
        <r>   -24.2011     0.0000     0.0000     0.0000     0.0000 </r>
        <r>   -23.9246     0.0000     0.0000     0.0000     0.0000 </r>
        <r>   -23.6482     0.0000     0.0000     0.0000     0.0000 </r>
        <r>   -23.3717     0.0000     0.0000     0.0000     0.0000 </r>
        <r>   -23.0953     0.0000     0.0000     0.0000     0.0000 </r>
        <r>   -22.8188     0.0000     0.0000     0.0000     0.0000 </r>
        <r>   -22.5423     0.0000     0.0000     0.0000     0.0000 </r>
        <r>   -22.2659     0.0000     0.0000     0.0000     0.0000 </r>
        <r>   -21.9894     0.0000     0.0000     0.0000     0.0000 </r>
        <r>   -21.7130     0.0000     0.0000     0.0000     0.0000 </r>
        <r>   -21.4365     0.0000     0.0000     0.0000     0.0000 </r>
        <r>   -21.1601     0.0000     0.0000     0.0000     0.0000 </r>
        <r>   -20.8836     0.0000     0.0000     0.0000     0.0000 </r>
        <r>   -20.6071     0.0000     0.0000     0.0000     0.0000 </r>
        <r>   -20.3307     0.0000     0.0000     0.0000     0.0000 </r>
        <r>   -20.0542     0.0000     0.0000     0.0000     0.0000 </r>
        <r>   -19.7778     0.0000     0.0000     0.0000     0.0000 </r>
        <r>   -19.5013     0.0000     0.0000     0.0000     0.0000 </r>
        <r>   -19.2248     0.0000     0.0000     0.0000     0.0000 </r>
        <r>   -18.9484     0.0000     0.0000     0.0000     0.0000 </r>
        <r>   -18.6719     0.0000     0.0000     0.0000     0.0000 </r>
        <r>   -18.3955     0.0000     0.0000     0.0000     0.0000 </r>
        <r>   -18.1190     0.0000     0.0000     0.0000     0.0000 </r>
        <r>   -17.8426     0.0000     0.0000     0.0000     0.0000 </r>
        <r>   -17.5661     0.0000     0.0000     0.0000     0.0000 </r>
        <r>   -17.2896     0.0000     0.0000     0.0000     0.0000 </r>
        <r>   -17.0132     0.0000     0.0000     0.0000     0.0000 </r>
        <r>   -16.7367     0.0000     0.0000     0.0000     0.0000 </r>
        <r>   -16.4603     0.0000     0.0000     0.0000     0.0000 </r>
        <r>   -16.1838     0.0000     0.0000     0.0000     0.0000 </r>
        <r>   -15.9073     0.0000     0.0000     0.0000     0.0000 </r>
        <r>   -15.6309     0.0000     0.0000     0.0000     0.0000 </r>
        <r>   -15.3544     0.0000     0.0000     0.0000     0.0000 </r>
        <r>   -15.0780     0.0000     0.0000     0.0000     0.0000 </r>
        <r>   -14.8015     0.0000     0.0000     0.0000     0.0000 </r>
        <r>   -14.5251     0.0000     0.0000     0.0000     0.0000 </r>
        <r>   -14.2486     0.0000     0.0000     0.0000     0.0000 </r>
        <r>   -13.9721     0.0000     0.0000     0.0000     0.0000 </r>
        <r>   -13.6957     0.0000     0.0000     0.0000     0.0000 </r>
        <r>   -13.4192     0.0000     0.0000     0.0000     0.0000 </r>
        <r>   -13.1428     0.0000     0.0000     0.0000     0.0000 </r>
        <r>   -12.8663     0.0000     0.0000     0.0000     0.0000 </r>
        <r>   -12.5899     0.0000     0.0000     0.0000     0.0000 </r>
        <r>   -12.3134     0.0000     0.0000     0.0000     0.0000 </r>
        <r>   -12.0369     0.0000     0.0000     0.0000     0.0000 </r>
        <r>   -11.7605     0.0000     0.0000     0.0000     0.0000 </r>
        <r>   -11.4840     0.0000     0.0000     0.0000     0.0000 </r>
        <r>   -11.2076     0.0000     0.0000     0.0000     0.0000 </r>
        <r>   -10.9311     0.0000     0.0000     0.0000     0.0000 </r>
        <r>   -10.6546     0.0000     0.0000     0.0000     0.0000 </r>
        <r>   -10.3782     0.0000     0.0000     0.0000     0.0000 </r>
        <r>   -10.1017     0.0000     0.0000     0.0000     0.0000 </r>
        <r>    -9.8253     0.0000     0.0000     0.0000     0.0000 </r>
        <r>    -9.5488     0.0000     0.0000     0.0000     0.0000 </r>
        <r>    -9.2724     0.0000     0.0000     0.0000     0.0000 </r>
        <r>    -8.9959     0.0000     0.0000     0.0000     0.0000 </r>
        <r>    -8.7194     0.0000     0.0000     0.0000     0.0000 </r>
        <r>    -8.4430     0.0000     0.0000     0.0000     0.0000 </r>
        <r>    -8.1665     0.0000     0.0000     0.0000     0.0000 </r>
        <r>    -7.8901     0.0000     0.0000     0.0000     0.0000 </r>
        <r>    -7.6136     0.0000     0.0000     0.0000     0.0000 </r>
        <r>    -7.3371     0.0000     0.0000     0.0000     0.0000 </r>
        <r>    -7.0607     0.0000     0.0000     0.0000     0.0000 </r>
        <r>    -6.7842     0.0000     0.0000     0.0000     0.0000 </r>
        <r>    -6.5078     0.0000     0.0000     0.0000     0.0000 </r>
        <r>    -6.2313     0.0000     0.0000     0.0000     0.0000 </r>
        <r>    -5.9549     0.0000     0.0042     0.9528     0.0037 </r>
        <r>    -5.6784     0.0000     0.0000     0.0000     0.0000 </r>
        <r>    -5.4019     0.0000     0.0000     0.0000     0.0000 </r>
        <r>    -5.1255     0.0000     0.0000     0.0008     0.0000 </r>
        <r>    -4.8490     0.0009     0.0000     0.0017     0.0000 </r>
        <r>    -4.5726     0.0000     0.0000     0.0000     0.0000 </r>
        <r>    -4.2961     0.0000     0.0000     0.0000     0.0000 </r>
        <r>    -4.0196     0.0000     0.0000     0.0000     0.0000 </r>
        <r>    -3.7432     0.0000     0.0068     0.0162     0.0020 </r>
        <r>    -3.4667     0.0000     0.0000     0.0000     0.0000 </r>
        <r>    -3.1903     0.0000     0.0000     0.0000     0.0000 </r>
        <r>    -2.9138     0.0000     0.0000     0.1617     0.0033 </r>
        <r>    -2.6374     0.0000     0.0000     0.0000     0.0000 </r>
        <r>    -2.3609     0.0000     0.0000     0.0000     0.0000 </r>
        <r>    -2.0844     0.0069     0.0165     0.8046     0.0093 </r>
        <r>    -1.8080     0.0000     0.0000     0.0000     0.0000 </r>
        <r>    -1.5315     0.0000     0.0000     0.0000     0.0000 </r>
        <r>    -1.2551     0.0000     0.0000     0.0000     0.0000 </r>
        <r>    -0.9786     0.0000     0.0000     0.0000     0.0000 </r>
        <r>    -0.7021     0.0000     0.0000     0.0000     0.0000 </r>
        <r>    -0.4257     0.0000     0.0000     0.0000     0.0000 </r>
        <r>    -0.1492     0.0000     0.0000     0.0000     0.0000 </r>
        <r>     0.1272     0.0000     0.0000     0.0000     0.0000 </r>
        <r>     0.4037     0.0000     0.0000     0.0000     0.0000 </r>
        <r>     0.6801     0.0000     0.0000     0.0000     0.0000 </r>
        <r>     0.9566     0.0000     0.0000     0.0000     0.0000 </r>
        <r>     1.2331     0.0000     0.0000     0.0000     0.0000 </r>
        <r>     1.5095     0.0000     0.0000     0.0000     0.0000 </r>
        <r>     1.7860     0.0000     0.0000     0.0000     0.0000 </r>
        <r>     2.0624     0.0000     0.0000     0.0000     0.0000 </r>
        <r>     2.3389     0.0000     0.0000     0.0000     0.0000 </r>
        <r>     2.6153     0.0000     0.0000     0.0000     0.0000 </r>
        <r>     2.8918     0.0000     0.0000     0.0000     0.0000 </r>
       </set>
      </set>
      <set comment="ion 3">
       <set comment="spin 1">
        <r>   -80.0456     0.0000     0.0000     0.0000     0.0000 </r>
        <r>   -79.7692     0.0000     0.0000     0.0000     0.0000 </r>
        <r>   -79.4927     0.0000     0.0000     0.0000     0.0000 </r>
        <r>   -79.2163     0.0000     0.0000     0.0000     0.0000 </r>
        <r>   -78.9398     0.0000     0.0000     0.0000     0.0000 </r>
        <r>   -78.6634     0.0000     0.0000     0.0000     0.0000 </r>
        <r>   -78.3869     0.0000     0.0000     0.0000     0.0000 </r>
        <r>   -78.1104     0.0000     0.0000     0.0000     0.0000 </r>
        <r>   -77.8340     0.0000     0.0000     0.0000     0.0000 </r>
        <r>   -77.5575     0.0000     0.0000     0.0000     0.0000 </r>
        <r>   -77.2811     0.0000     0.0000     0.0000     0.0000 </r>
        <r>   -77.0046     0.0000     0.0000     0.0000     0.0000 </r>
        <r>   -76.7281     0.0000     0.0000     0.0000     0.0000 </r>
        <r>   -76.4517     0.0000     0.0000     0.0000     0.0000 </r>
        <r>   -76.1752     0.0000     0.0000     0.0000     0.0000 </r>
        <r>   -75.8988     0.9783     0.0001     0.0002     0.0000 </r>
        <r>   -75.6223     0.0000     0.0000     0.0000     0.0000 </r>
        <r>   -75.3459     0.0000     0.0000     0.0000     0.0000 </r>
        <r>   -75.0694     0.0000     0.0000     0.0000     0.0000 </r>
        <r>   -74.7929     0.0000     0.0000     0.0000     0.0000 </r>
        <r>   -74.5165     0.0000     0.0000     0.0000     0.0000 </r>
        <r>   -74.2400     0.0000     0.0000     0.0000     0.0000 </r>
        <r>   -73.9636     0.0000     0.0000     0.0000     0.0000 </r>
        <r>   -73.6871     0.0000     0.0000     0.0000     0.0000 </r>
        <r>   -73.4106     0.0000     0.0000     0.0000     0.0000 </r>
        <r>   -73.1342     0.0000     0.0000     0.0000     0.0000 </r>
        <r>   -72.8577     0.0000     0.0000     0.0000     0.0000 </r>
        <r>   -72.5813     0.0000     0.0000     0.0000     0.0000 </r>
        <r>   -72.3048     0.0000     0.0000     0.0000     0.0000 </r>
        <r>   -72.0284     0.0000     0.0000     0.0000     0.0000 </r>
        <r>   -71.7519     0.0000     0.0000     0.0000     0.0000 </r>
        <r>   -71.4754     0.0000     0.0000     0.0000     0.0000 </r>
        <r>   -71.1990     0.0000     0.0000     0.0000     0.0000 </r>
        <r>   -70.9225     0.0000     0.0000     0.0000     0.0000 </r>
        <r>   -70.6461     0.0000     0.0000     0.0000     0.0000 </r>
        <r>   -70.3696     0.0000     0.0000     0.0000     0.0000 </r>
        <r>   -70.0931     0.0000     0.0000     0.0000     0.0000 </r>
        <r>   -69.8167     0.0000     0.0000     0.0000     0.0000 </r>
        <r>   -69.5402     0.0000     0.0000     0.0000     0.0000 </r>
        <r>   -69.2638     0.0000     0.0000     0.0000     0.0000 </r>
        <r>   -68.9873     0.0000     0.0000     0.0000     0.0000 </r>
        <r>   -68.7109     0.0000     0.0000     0.0000     0.0000 </r>
        <r>   -68.4344     0.0000     0.0000     0.0000     0.0000 </r>
        <r>   -68.1579     0.0000     0.0000     0.0000     0.0000 </r>
        <r>   -67.8815     0.0000     0.0000     0.0000     0.0000 </r>
        <r>   -67.6050     0.0000     0.0000     0.0000     0.0000 </r>
        <r>   -67.3286     0.0000     0.0000     0.0000     0.0000 </r>
        <r>   -67.0521     0.0000     0.0000     0.0000     0.0000 </r>
        <r>   -66.7756     0.0000     0.0000     0.0000     0.0000 </r>
        <r>   -66.4992     0.0000     0.0000     0.0000     0.0000 </r>
        <r>   -66.2227     0.0000     0.0000     0.0000     0.0000 </r>
        <r>   -65.9463     0.0000     0.0000     0.0000     0.0000 </r>
        <r>   -65.6698     0.0000     0.0000     0.0000     0.0000 </r>
        <r>   -65.3934     0.0000     0.0000     0.0000     0.0000 </r>
        <r>   -65.1169     0.0000     0.0000     0.0000     0.0000 </r>
        <r>   -64.8404     0.0000     0.0000     0.0000     0.0000 </r>
        <r>   -64.5640     0.0000     0.0000     0.0000     0.0000 </r>
        <r>   -64.2875     0.0000     0.0000     0.0000     0.0000 </r>
        <r>   -64.0111     0.0000     0.0000     0.0000     0.0000 </r>
        <r>   -63.7346     0.0000     0.0000     0.0000     0.0000 </r>
        <r>   -63.4582     0.0000     0.0000     0.0000     0.0000 </r>
        <r>   -63.1817     0.0000     0.0000     0.0000     0.0000 </r>
        <r>   -62.9052     0.0000     0.0000     0.0000     0.0000 </r>
        <r>   -62.6288     0.0000     0.0000     0.0000     0.0000 </r>
        <r>   -62.3523     0.0000     0.0000     0.0000     0.0000 </r>
        <r>   -62.0759     0.0000     0.0000     0.0000     0.0000 </r>
        <r>   -61.7994     0.0000     0.0000     0.0000     0.0000 </r>
        <r>   -61.5229     0.0000     0.0000     0.0000     0.0000 </r>
        <r>   -61.2465     0.0000     0.0000     0.0000     0.0000 </r>
        <r>   -60.9700     0.0000     0.0000     0.0000     0.0000 </r>
        <r>   -60.6936     0.0000     0.0000     0.0000     0.0000 </r>
        <r>   -60.4171     0.0000     0.0000     0.0000     0.0000 </r>
        <r>   -60.1407     0.0000     0.0000     0.0000     0.0000 </r>
        <r>   -59.8642     0.0000     0.0000     0.0000     0.0000 </r>
        <r>   -59.5877     0.0000     0.0000     0.0000     0.0000 </r>
        <r>   -59.3113     0.0000     0.0000     0.0000     0.0000 </r>
        <r>   -59.0348     0.0000     0.0000     0.0000     0.0000 </r>
        <r>   -58.7584     0.0000     0.0000     0.0000     0.0000 </r>
        <r>   -58.4819     0.0000     0.0000     0.0000     0.0000 </r>
        <r>   -58.2054     0.0000     0.0000     0.0000     0.0000 </r>
        <r>   -57.9290     0.0000     0.0000     0.0000     0.0000 </r>
        <r>   -57.6525     0.0000     0.0000     0.0000     0.0000 </r>
        <r>   -57.3761     0.0000     0.0000     0.0000     0.0000 </r>
        <r>   -57.0996     0.0000     0.0000     0.0000     0.0000 </r>
        <r>   -56.8232     0.0000     0.0000     0.0000     0.0000 </r>
        <r>   -56.5467     0.0000     0.0000     0.0000     0.0000 </r>
        <r>   -56.2702     0.0000     0.0000     0.0000     0.0000 </r>
        <r>   -55.9938     0.0000     0.0000     0.0000     0.0000 </r>
        <r>   -55.7173     0.0000     0.0000     0.0000     0.0000 </r>
        <r>   -55.4409     0.0000     0.0000     0.0000     0.0000 </r>
        <r>   -55.1644     0.0000     0.0000     0.0000     0.0000 </r>
        <r>   -54.8879     0.0000     0.0000     0.0000     0.0000 </r>
        <r>   -54.6115     0.0000     0.0000     0.0000     0.0000 </r>
        <r>   -54.3350     0.0000     0.0000     0.0000     0.0000 </r>
        <r>   -54.0586     0.0000     0.0000     0.0000     0.0000 </r>
        <r>   -53.7821     0.0000     0.0000     0.0000     0.0000 </r>
        <r>   -53.5057     0.0000     0.0000     0.0000     0.0000 </r>
        <r>   -53.2292     0.0000     0.0000     0.0000     0.0000 </r>
        <r>   -52.9527     0.0000     0.0000     0.0000     0.0000 </r>
        <r>   -52.6763     0.0000     0.0000     0.0000     0.0000 </r>
        <r>   -52.3998     0.0000     0.0000     0.0000     0.0000 </r>
        <r>   -52.1234     0.0000     0.0000     0.0000     0.0000 </r>
        <r>   -51.8469     0.0000     0.0000     0.0000     0.0000 </r>
        <r>   -51.5705     0.0000     0.0000     0.0000     0.0000 </r>
        <r>   -51.2940     0.0000     0.0000     0.0000     0.0000 </r>
        <r>   -51.0175     0.0000     0.0000     0.0000     0.0000 </r>
        <r>   -50.7411     0.0000     0.0000     0.0000     0.0000 </r>
        <r>   -50.4646     0.0000     0.0000     0.0000     0.0000 </r>
        <r>   -50.1882     0.0000     0.0000     0.0000     0.0000 </r>
        <r>   -49.9117     0.0000     0.0000     0.0000     0.0000 </r>
        <r>   -49.6352     0.0000     0.0000     0.0000     0.0000 </r>
        <r>   -49.3588     0.0000     0.0000     0.0000     0.0000 </r>
        <r>   -49.0823     0.0000     0.0000     0.0000     0.0000 </r>
        <r>   -48.8059     0.0000     0.0000     0.0000     0.0000 </r>
        <r>   -48.5294     0.0000     0.0000     0.0000     0.0000 </r>
        <r>   -48.2530     0.0000     0.0000     0.0000     0.0000 </r>
        <r>   -47.9765     0.0000     0.0000     0.0000     0.0000 </r>
        <r>   -47.7000     0.0000     0.0000     0.0000     0.0000 </r>
        <r>   -47.4236     0.0000     0.0000     0.0000     0.0000 </r>
        <r>   -47.1471     0.0000     0.0000     0.0000     0.0000 </r>
        <r>   -46.8707     0.0000     0.0000     0.0000     0.0000 </r>
        <r>   -46.5942     0.0008     0.8908     0.0012     0.0002 </r>
        <r>   -46.3177     0.0000     0.0000     0.0000     0.0000 </r>
        <r>   -46.0413     0.0000     0.0000     0.0000     0.0000 </r>
        <r>   -45.7648     0.0001     0.1048     0.0001     0.0000 </r>
        <r>   -45.4884     0.0000     0.0000     0.0000     0.0000 </r>
        <r>   -45.2119     0.0000     0.0000     0.0000     0.0000 </r>
        <r>   -44.9355     0.0000     0.0000     0.0000     0.0000 </r>
        <r>   -44.6590     0.0000     0.0000     0.0000     0.0000 </r>
        <r>   -44.3825     0.0000     0.0000     0.0000     0.0000 </r>
        <r>   -44.1061     0.0000     0.0000     0.0000     0.0000 </r>
        <r>   -43.8296     0.0000     0.0000     0.0000     0.0000 </r>
        <r>   -43.5532     0.0000     0.0000     0.0000     0.0000 </r>
        <r>   -43.2767     0.0000     0.0000     0.0000     0.0000 </r>
        <r>   -43.0002     0.0000     0.0000     0.0000     0.0000 </r>
        <r>   -42.7238     0.0000     0.0000     0.0000     0.0000 </r>
        <r>   -42.4473     0.0000     0.0000     0.0000     0.0000 </r>
        <r>   -42.1709     0.0000     0.0000     0.0000     0.0000 </r>
        <r>   -41.8944     0.0000     0.0000     0.0000     0.0000 </r>
        <r>   -41.6180     0.0000     0.0000     0.0000     0.0000 </r>
        <r>   -41.3415     0.0000     0.0000     0.0000     0.0000 </r>
        <r>   -41.0650     0.0000     0.0000     0.0000     0.0000 </r>
        <r>   -40.7886     0.0000     0.0000     0.0000     0.0000 </r>
        <r>   -40.5121     0.0000     0.0000     0.0000     0.0000 </r>
        <r>   -40.2357     0.0000     0.0000     0.0000     0.0000 </r>
        <r>   -39.9592     0.0000     0.0000     0.0000     0.0000 </r>
        <r>   -39.6828     0.0000     0.0000     0.0000     0.0000 </r>
        <r>   -39.4063     0.0000     0.0000     0.0000     0.0000 </r>
        <r>   -39.1298     0.0000     0.0000     0.0000     0.0000 </r>
        <r>   -38.8534     0.0000     0.0000     0.0000     0.0000 </r>
        <r>   -38.5769     0.0000     0.0000     0.0000     0.0000 </r>
        <r>   -38.3005     0.0000     0.0000     0.0000     0.0000 </r>
        <r>   -38.0240     0.0000     0.0000     0.0000     0.0000 </r>
        <r>   -37.7475     0.0000     0.0000     0.0000     0.0000 </r>
        <r>   -37.4711     0.0000     0.0000     0.0000     0.0000 </r>
        <r>   -37.1946     0.0000     0.0000     0.0000     0.0000 </r>
        <r>   -36.9182     0.0000     0.0000     0.0000     0.0000 </r>
        <r>   -36.6417     0.0000     0.0000     0.0000     0.0000 </r>
        <r>   -36.3653     0.0000     0.0000     0.0000     0.0000 </r>
        <r>   -36.0888     0.0000     0.0000     0.0000     0.0000 </r>
        <r>   -35.8123     0.0000     0.0000     0.0000     0.0000 </r>
        <r>   -35.5359     0.0000     0.0000     0.0000     0.0000 </r>
        <r>   -35.2594     0.0000     0.0000     0.0000     0.0000 </r>
        <r>   -34.9830     0.0000     0.0000     0.0000     0.0000 </r>
        <r>   -34.7065     0.0000     0.0000     0.0000     0.0000 </r>
        <r>   -34.4300     0.0000     0.0000     0.0000     0.0000 </r>
        <r>   -34.1536     0.0000     0.0000     0.0000     0.0000 </r>
        <r>   -33.8771     0.0000     0.0000     0.0000     0.0000 </r>
        <r>   -33.6007     0.0000     0.0000     0.0000     0.0000 </r>
        <r>   -33.3242     0.0000     0.0000     0.0000     0.0000 </r>
        <r>   -33.0478     0.0000     0.0000     0.0000     0.0000 </r>
        <r>   -32.7713     0.0000     0.0000     0.0000     0.0000 </r>
        <r>   -32.4948     0.0000     0.0000     0.0000     0.0000 </r>
        <r>   -32.2184     0.0000     0.0000     0.0000     0.0000 </r>
        <r>   -31.9419     0.0000     0.0000     0.0000     0.0000 </r>
        <r>   -31.6655     0.0000     0.0000     0.0000     0.0000 </r>
        <r>   -31.3890     0.0000     0.0000     0.0000     0.0000 </r>
        <r>   -31.1125     0.0000     0.0000     0.0000     0.0000 </r>
        <r>   -30.8361     0.0000     0.0000     0.0000     0.0000 </r>
        <r>   -30.5596     0.0000     0.0000     0.0000     0.0000 </r>
        <r>   -30.2832     0.0000     0.0000     0.0000     0.0000 </r>
        <r>   -30.0067     0.0000     0.0000     0.0000     0.0000 </r>
        <r>   -29.7303     0.0000     0.0000     0.0000     0.0000 </r>
        <r>   -29.4538     0.0000     0.0000     0.0000     0.0000 </r>
        <r>   -29.1773     0.0000     0.0000     0.0000     0.0000 </r>
        <r>   -28.9009     0.0000     0.0000     0.0000     0.0000 </r>
        <r>   -28.6244     0.0000     0.0000     0.0000     0.0000 </r>
        <r>   -28.3480     0.0000     0.0000     0.0000     0.0000 </r>
        <r>   -28.0715     0.0000     0.0000     0.0000     0.0000 </r>
        <r>   -27.7950     0.0000     0.0000     0.0000     0.0000 </r>
        <r>   -27.5186     0.0000     0.0000     0.0000     0.0000 </r>
        <r>   -27.2421     0.0000     0.0000     0.0000     0.0000 </r>
        <r>   -26.9657     0.0000     0.0000     0.0000     0.0000 </r>
        <r>   -26.6892     0.0000     0.0000     0.0000     0.0000 </r>
        <r>   -26.4128     0.0000     0.0000     0.0000     0.0000 </r>
        <r>   -26.1363     0.0000     0.0000     0.0000     0.0000 </r>
        <r>   -25.8598     0.0000     0.0000     0.0000     0.0000 </r>
        <r>   -25.5834     0.0000     0.0000     0.0000     0.0000 </r>
        <r>   -25.3069     0.0000     0.0000     0.0000     0.0000 </r>
        <r>   -25.0305     0.0000     0.0000     0.0000     0.0000 </r>
        <r>   -24.7540     0.0000     0.0000     0.0000     0.0000 </r>
        <r>   -24.4776     0.0000     0.0000     0.0000     0.0000 </r>
        <r>   -24.2011     0.0000     0.0000     0.0000     0.0000 </r>
        <r>   -23.9246     0.0000     0.0000     0.0000     0.0000 </r>
        <r>   -23.6482     0.0000     0.0000     0.0000     0.0000 </r>
        <r>   -23.3717     0.0000     0.0000     0.0000     0.0000 </r>
        <r>   -23.0953     0.0000     0.0000     0.0000     0.0000 </r>
        <r>   -22.8188     0.0000     0.0000     0.0000     0.0000 </r>
        <r>   -22.5423     0.0000     0.0000     0.0000     0.0000 </r>
        <r>   -22.2659     0.0000     0.0000     0.0000     0.0000 </r>
        <r>   -21.9894     0.0000     0.0000     0.0000     0.0000 </r>
        <r>   -21.7130     0.0000     0.0000     0.0000     0.0000 </r>
        <r>   -21.4365     0.0000     0.0000     0.0000     0.0000 </r>
        <r>   -21.1601     0.0000     0.0000     0.0000     0.0000 </r>
        <r>   -20.8836     0.0000     0.0000     0.0000     0.0000 </r>
        <r>   -20.6071     0.0000     0.0000     0.0000     0.0000 </r>
        <r>   -20.3307     0.0000     0.0000     0.0000     0.0000 </r>
        <r>   -20.0542     0.0000     0.0000     0.0000     0.0000 </r>
        <r>   -19.7778     0.0000     0.0000     0.0000     0.0000 </r>
        <r>   -19.5013     0.0000     0.0000     0.0000     0.0000 </r>
        <r>   -19.2248     0.0000     0.0000     0.0000     0.0000 </r>
        <r>   -18.9484     0.0000     0.0000     0.0000     0.0000 </r>
        <r>   -18.6719     0.0000     0.0000     0.0000     0.0000 </r>
        <r>   -18.3955     0.0000     0.0000     0.0000     0.0000 </r>
        <r>   -18.1190     0.0000     0.0000     0.0000     0.0000 </r>
        <r>   -17.8426     0.0000     0.0000     0.0000     0.0000 </r>
        <r>   -17.5661     0.0000     0.0000     0.0000     0.0000 </r>
        <r>   -17.2896     0.0000     0.0000     0.0000     0.0000 </r>
        <r>   -17.0132     0.0000     0.0000     0.0000     0.0000 </r>
        <r>   -16.7367     0.0000     0.0000     0.0000     0.0000 </r>
        <r>   -16.4603     0.0000     0.0000     0.0000     0.0000 </r>
        <r>   -16.1838     0.0000     0.0000     0.0000     0.0000 </r>
        <r>   -15.9073     0.0000     0.0000     0.0000     0.0000 </r>
        <r>   -15.6309     0.0000     0.0000     0.0000     0.0000 </r>
        <r>   -15.3544     0.0000     0.0000     0.0000     0.0000 </r>
        <r>   -15.0780     0.0000     0.0000     0.0000     0.0000 </r>
        <r>   -14.8015     0.0000     0.0000     0.0000     0.0000 </r>
        <r>   -14.5251     0.0000     0.0000     0.0000     0.0000 </r>
        <r>   -14.2486     0.0000     0.0000     0.0000     0.0000 </r>
        <r>   -13.9721     0.0000     0.0000     0.0000     0.0000 </r>
        <r>   -13.6957     0.0000     0.0000     0.0000     0.0000 </r>
        <r>   -13.4192     0.0000     0.0000     0.0000     0.0000 </r>
        <r>   -13.1428     0.0000     0.0000     0.0000     0.0000 </r>
        <r>   -12.8663     0.0000     0.0000     0.0000     0.0000 </r>
        <r>   -12.5899     0.0000     0.0000     0.0000     0.0000 </r>
        <r>   -12.3134     0.0000     0.0000     0.0000     0.0000 </r>
        <r>   -12.0369     0.0000     0.0000     0.0000     0.0000 </r>
        <r>   -11.7605     0.0000     0.0000     0.0000     0.0000 </r>
        <r>   -11.4840     0.0000     0.0000     0.0000     0.0000 </r>
        <r>   -11.2076     0.0000     0.0000     0.0000     0.0000 </r>
        <r>   -10.9311     0.0000     0.0000     0.0000     0.0000 </r>
        <r>   -10.6546     0.0000     0.0000     0.0000     0.0000 </r>
        <r>   -10.3782     0.0000     0.0000     0.0000     0.0000 </r>
        <r>   -10.1017     0.0000     0.0000     0.0000     0.0000 </r>
        <r>    -9.8253     0.0000     0.0000     0.0000     0.0000 </r>
        <r>    -9.5488     0.0000     0.0000     0.0000     0.0000 </r>
        <r>    -9.2724     0.0000     0.0000     0.0000     0.0000 </r>
        <r>    -8.9959     0.0000     0.0000     0.0000     0.0000 </r>
        <r>    -8.7194     0.0000     0.0000     0.0000     0.0000 </r>
        <r>    -8.4430     0.0000     0.0000     0.0000     0.0000 </r>
        <r>    -8.1665     0.0000     0.0000     0.0000     0.0000 </r>
        <r>    -7.8901     0.0000     0.0000     0.0000     0.0000 </r>
        <r>    -7.6136     0.0000     0.0000     0.0000     0.0000 </r>
        <r>    -7.3371     0.0000     0.0000     0.0000     0.0000 </r>
        <r>    -7.0607     0.0000     0.0000     0.0000     0.0000 </r>
        <r>    -6.7842     0.0000     0.0000     0.0000     0.0000 </r>
        <r>    -6.5078     0.0000     0.0000     0.0000     0.0000 </r>
        <r>    -6.2313     0.0000     0.0000     0.0000     0.0000 </r>
        <r>    -5.9549     0.0000     0.0000     0.0000     0.0000 </r>
        <r>    -5.6784     0.0000     0.0000     0.0000     0.0000 </r>
        <r>    -5.4019     0.0000     0.0000     0.0000     0.0000 </r>
        <r>    -5.1255     0.0037     0.0088     0.8520     0.0061 </r>
        <r>    -4.8490     0.0001     0.0017     0.5495     0.0042 </r>
        <r>    -4.5726     0.0000     0.0000     0.0000     0.0000 </r>
        <r>    -4.2961     0.0000     0.0000     0.0000     0.0000 </r>
        <r>    -4.0196     0.0000     0.0000     0.0000     0.0000 </r>
        <r>    -3.7432     0.0000     0.0000     0.0000     0.0000 </r>
        <r>    -3.4667     0.0000     0.0026     0.7137     0.0034 </r>
        <r>    -3.1903     0.0000     0.0000     0.0000     0.0000 </r>
        <r>    -2.9138     0.0000     0.0000     0.0000     0.0000 </r>
        <r>    -2.6374     0.0000     0.0000     0.0000     0.0000 </r>
        <r>    -2.3609     0.0000     0.0000     0.0000     0.0000 </r>
        <r>    -2.0844     0.0000     0.0000     0.0000     0.0000 </r>
        <r>    -1.8080     0.0000     0.0000     0.0000     0.0000 </r>
        <r>    -1.5315     0.0000     0.0000     0.0000     0.0000 </r>
        <r>    -1.2551     0.0000     0.0000     0.0000     0.0000 </r>
        <r>    -0.9786     0.0000     0.0000     0.0000     0.0000 </r>
        <r>    -0.7021     0.0000     0.0000     0.0000     0.0000 </r>
        <r>    -0.4257     0.0000     0.0000     0.0000     0.0000 </r>
        <r>    -0.1492     0.0000     0.0000     0.0000     0.0000 </r>
        <r>     0.1272     0.0000     0.0000     0.0000     0.0000 </r>
        <r>     0.4037     0.0000     0.0000     0.0000     0.0000 </r>
        <r>     0.6801     0.0000     0.0000     0.0000     0.0000 </r>
        <r>     0.9566     0.0000     0.0000     0.0000     0.0000 </r>
        <r>     1.2331     0.0000     0.0000     0.0000     0.0000 </r>
        <r>     1.5095     0.0000     0.0000     0.0000     0.0000 </r>
        <r>     1.7860     0.0000     0.0000     0.0000     0.0000 </r>
        <r>     2.0624     0.0000     0.0000     0.0000     0.0000 </r>
        <r>     2.3389     0.0000     0.0000     0.0000     0.0000 </r>
        <r>     2.6153     0.0000     0.0000     0.0000     0.0000 </r>
        <r>     2.8918     0.0000     0.0000     0.0000     0.0000 </r>
       </set>
       <set comment="spin 2">
        <r>   -80.0456     0.0000     0.0000     0.0000     0.0000 </r>
        <r>   -79.7692     0.0000     0.0000     0.0000     0.0000 </r>
        <r>   -79.4927     0.0000     0.0000     0.0000     0.0000 </r>
        <r>   -79.2163     0.0000     0.0000     0.0000     0.0000 </r>
        <r>   -78.9398     0.0000     0.0000     0.0000     0.0000 </r>
        <r>   -78.6634     0.0000     0.0000     0.0000     0.0000 </r>
        <r>   -78.3869     0.0000     0.0000     0.0000     0.0000 </r>
        <r>   -78.1104     0.0000     0.0000     0.0000     0.0000 </r>
        <r>   -77.8340     0.0000     0.0000     0.0000     0.0000 </r>
        <r>   -77.5575     0.0000     0.0000     0.0000     0.0000 </r>
        <r>   -77.2811     0.0000     0.0000     0.0000     0.0000 </r>
        <r>   -77.0046     0.0000     0.0000     0.0000     0.0000 </r>
        <r>   -76.7281     0.0000     0.0000     0.0000     0.0000 </r>
        <r>   -76.4517     0.0000     0.0000     0.0000     0.0000 </r>
        <r>   -76.1752     0.0000     0.0000     0.0000     0.0000 </r>
        <r>   -75.8988     0.0000     0.0000     0.0000     0.0000 </r>
        <r>   -75.6223     0.8996     0.0001     0.0001     0.0000 </r>
        <r>   -75.3459     0.0000     0.0000     0.0000     0.0000 </r>
        <r>   -75.0694     0.0000     0.0000     0.0000     0.0000 </r>
        <r>   -74.7929     0.0000     0.0000     0.0000     0.0000 </r>
        <r>   -74.5165     0.0000     0.0000     0.0000     0.0000 </r>
        <r>   -74.2400     0.0000     0.0000     0.0000     0.0000 </r>
        <r>   -73.9636     0.0000     0.0000     0.0000     0.0000 </r>
        <r>   -73.6871     0.0000     0.0000     0.0000     0.0000 </r>
        <r>   -73.4106     0.0000     0.0000     0.0000     0.0000 </r>
        <r>   -73.1342     0.0000     0.0000     0.0000     0.0000 </r>
        <r>   -72.8577     0.0000     0.0000     0.0000     0.0000 </r>
        <r>   -72.5813     0.0000     0.0000     0.0000     0.0000 </r>
        <r>   -72.3048     0.0000     0.0000     0.0000     0.0000 </r>
        <r>   -72.0284     0.0000     0.0000     0.0000     0.0000 </r>
        <r>   -71.7519     0.0000     0.0000     0.0000     0.0000 </r>
        <r>   -71.4754     0.0000     0.0000     0.0000     0.0000 </r>
        <r>   -71.1990     0.0000     0.0000     0.0000     0.0000 </r>
        <r>   -70.9225     0.0000     0.0000     0.0000     0.0000 </r>
        <r>   -70.6461     0.0000     0.0000     0.0000     0.0000 </r>
        <r>   -70.3696     0.0000     0.0000     0.0000     0.0000 </r>
        <r>   -70.0931     0.0000     0.0000     0.0000     0.0000 </r>
        <r>   -69.8167     0.0000     0.0000     0.0000     0.0000 </r>
        <r>   -69.5402     0.0000     0.0000     0.0000     0.0000 </r>
        <r>   -69.2638     0.0000     0.0000     0.0000     0.0000 </r>
        <r>   -68.9873     0.0000     0.0000     0.0000     0.0000 </r>
        <r>   -68.7109     0.0000     0.0000     0.0000     0.0000 </r>
        <r>   -68.4344     0.0000     0.0000     0.0000     0.0000 </r>
        <r>   -68.1579     0.0000     0.0000     0.0000     0.0000 </r>
        <r>   -67.8815     0.0000     0.0000     0.0000     0.0000 </r>
        <r>   -67.6050     0.0000     0.0000     0.0000     0.0000 </r>
        <r>   -67.3286     0.0000     0.0000     0.0000     0.0000 </r>
        <r>   -67.0521     0.0000     0.0000     0.0000     0.0000 </r>
        <r>   -66.7756     0.0000     0.0000     0.0000     0.0000 </r>
        <r>   -66.4992     0.0000     0.0000     0.0000     0.0000 </r>
        <r>   -66.2227     0.0000     0.0000     0.0000     0.0000 </r>
        <r>   -65.9463     0.0000     0.0000     0.0000     0.0000 </r>
        <r>   -65.6698     0.0000     0.0000     0.0000     0.0000 </r>
        <r>   -65.3934     0.0000     0.0000     0.0000     0.0000 </r>
        <r>   -65.1169     0.0000     0.0000     0.0000     0.0000 </r>
        <r>   -64.8404     0.0000     0.0000     0.0000     0.0000 </r>
        <r>   -64.5640     0.0000     0.0000     0.0000     0.0000 </r>
        <r>   -64.2875     0.0000     0.0000     0.0000     0.0000 </r>
        <r>   -64.0111     0.0000     0.0000     0.0000     0.0000 </r>
        <r>   -63.7346     0.0000     0.0000     0.0000     0.0000 </r>
        <r>   -63.4582     0.0000     0.0000     0.0000     0.0000 </r>
        <r>   -63.1817     0.0000     0.0000     0.0000     0.0000 </r>
        <r>   -62.9052     0.0000     0.0000     0.0000     0.0000 </r>
        <r>   -62.6288     0.0000     0.0000     0.0000     0.0000 </r>
        <r>   -62.3523     0.0000     0.0000     0.0000     0.0000 </r>
        <r>   -62.0759     0.0000     0.0000     0.0000     0.0000 </r>
        <r>   -61.7994     0.0000     0.0000     0.0000     0.0000 </r>
        <r>   -61.5229     0.0000     0.0000     0.0000     0.0000 </r>
        <r>   -61.2465     0.0000     0.0000     0.0000     0.0000 </r>
        <r>   -60.9700     0.0000     0.0000     0.0000     0.0000 </r>
        <r>   -60.6936     0.0000     0.0000     0.0000     0.0000 </r>
        <r>   -60.4171     0.0000     0.0000     0.0000     0.0000 </r>
        <r>   -60.1407     0.0000     0.0000     0.0000     0.0000 </r>
        <r>   -59.8642     0.0000     0.0000     0.0000     0.0000 </r>
        <r>   -59.5877     0.0000     0.0000     0.0000     0.0000 </r>
        <r>   -59.3113     0.0000     0.0000     0.0000     0.0000 </r>
        <r>   -59.0348     0.0000     0.0000     0.0000     0.0000 </r>
        <r>   -58.7584     0.0000     0.0000     0.0000     0.0000 </r>
        <r>   -58.4819     0.0000     0.0000     0.0000     0.0000 </r>
        <r>   -58.2054     0.0000     0.0000     0.0000     0.0000 </r>
        <r>   -57.9290     0.0000     0.0000     0.0000     0.0000 </r>
        <r>   -57.6525     0.0000     0.0000     0.0000     0.0000 </r>
        <r>   -57.3761     0.0000     0.0000     0.0000     0.0000 </r>
        <r>   -57.0996     0.0000     0.0000     0.0000     0.0000 </r>
        <r>   -56.8232     0.0000     0.0000     0.0000     0.0000 </r>
        <r>   -56.5467     0.0000     0.0000     0.0000     0.0000 </r>
        <r>   -56.2702     0.0000     0.0000     0.0000     0.0000 </r>
        <r>   -55.9938     0.0000     0.0000     0.0000     0.0000 </r>
        <r>   -55.7173     0.0000     0.0000     0.0000     0.0000 </r>
        <r>   -55.4409     0.0000     0.0000     0.0000     0.0000 </r>
        <r>   -55.1644     0.0000     0.0000     0.0000     0.0000 </r>
        <r>   -54.8879     0.0000     0.0000     0.0000     0.0000 </r>
        <r>   -54.6115     0.0000     0.0000     0.0000     0.0000 </r>
        <r>   -54.3350     0.0000     0.0000     0.0000     0.0000 </r>
        <r>   -54.0586     0.0000     0.0000     0.0000     0.0000 </r>
        <r>   -53.7821     0.0000     0.0000     0.0000     0.0000 </r>
        <r>   -53.5057     0.0000     0.0000     0.0000     0.0000 </r>
        <r>   -53.2292     0.0000     0.0000     0.0000     0.0000 </r>
        <r>   -52.9527     0.0000     0.0000     0.0000     0.0000 </r>
        <r>   -52.6763     0.0000     0.0000     0.0000     0.0000 </r>
        <r>   -52.3998     0.0000     0.0000     0.0000     0.0000 </r>
        <r>   -52.1234     0.0000     0.0000     0.0000     0.0000 </r>
        <r>   -51.8469     0.0000     0.0000     0.0000     0.0000 </r>
        <r>   -51.5705     0.0000     0.0000     0.0000     0.0000 </r>
        <r>   -51.2940     0.0000     0.0000     0.0000     0.0000 </r>
        <r>   -51.0175     0.0000     0.0000     0.0000     0.0000 </r>
        <r>   -50.7411     0.0000     0.0000     0.0000     0.0000 </r>
        <r>   -50.4646     0.0000     0.0000     0.0000     0.0000 </r>
        <r>   -50.1882     0.0000     0.0000     0.0000     0.0000 </r>
        <r>   -49.9117     0.0000     0.0000     0.0000     0.0000 </r>
        <r>   -49.6352     0.0000     0.0000     0.0000     0.0000 </r>
        <r>   -49.3588     0.0000     0.0000     0.0000     0.0000 </r>
        <r>   -49.0823     0.0000     0.0000     0.0000     0.0000 </r>
        <r>   -48.8059     0.0000     0.0000     0.0000     0.0000 </r>
        <r>   -48.5294     0.0000     0.0000     0.0000     0.0000 </r>
        <r>   -48.2530     0.0000     0.0000     0.0000     0.0000 </r>
        <r>   -47.9765     0.0000     0.0000     0.0000     0.0000 </r>
        <r>   -47.7000     0.0000     0.0000     0.0000     0.0000 </r>
        <r>   -47.4236     0.0000     0.0000     0.0000     0.0000 </r>
        <r>   -47.1471     0.0000     0.0000     0.0000     0.0000 </r>
        <r>   -46.8707     0.0016     0.5348     0.0007     0.0001 </r>
        <r>   -46.5942     0.0000     0.0000     0.0000     0.0000 </r>
        <r>   -46.3177     0.0000     0.0000     0.0000     0.0000 </r>
        <r>   -46.0413     0.0000     0.8082     0.0011     0.0004 </r>
        <r>   -45.7648     0.0000     0.0000     0.0000     0.0000 </r>
        <r>   -45.4884     0.0008     0.9459     0.0005     0.0001 </r>
        <r>   -45.2119     0.0000     0.6835     0.0005     0.0000 </r>
        <r>   -44.9355     0.0000     0.0000     0.0000     0.0000 </r>
        <r>   -44.6590     0.0000     0.0000     0.0000     0.0000 </r>
        <r>   -44.3825     0.0000     0.0000     0.0000     0.0000 </r>
        <r>   -44.1061     0.0000     0.0000     0.0000     0.0000 </r>
        <r>   -43.8296     0.0000     0.0000     0.0000     0.0000 </r>
        <r>   -43.5532     0.0000     0.0000     0.0000     0.0000 </r>
        <r>   -43.2767     0.0000     0.0000     0.0000     0.0000 </r>
        <r>   -43.0002     0.0000     0.0000     0.0000     0.0000 </r>
        <r>   -42.7238     0.0000     0.0000     0.0000     0.0000 </r>
        <r>   -42.4473     0.0000     0.0000     0.0000     0.0000 </r>
        <r>   -42.1709     0.0000     0.0000     0.0000     0.0000 </r>
        <r>   -41.8944     0.0000     0.0000     0.0000     0.0000 </r>
        <r>   -41.6180     0.0000     0.0000     0.0000     0.0000 </r>
        <r>   -41.3415     0.0000     0.0000     0.0000     0.0000 </r>
        <r>   -41.0650     0.0000     0.0000     0.0000     0.0000 </r>
        <r>   -40.7886     0.0000     0.0000     0.0000     0.0000 </r>
        <r>   -40.5121     0.0000     0.0000     0.0000     0.0000 </r>
        <r>   -40.2357     0.0000     0.0000     0.0000     0.0000 </r>
        <r>   -39.9592     0.0000     0.0000     0.0000     0.0000 </r>
        <r>   -39.6828     0.0000     0.0000     0.0000     0.0000 </r>
        <r>   -39.4063     0.0000     0.0000     0.0000     0.0000 </r>
        <r>   -39.1298     0.0000     0.0000     0.0000     0.0000 </r>
        <r>   -38.8534     0.0000     0.0000     0.0000     0.0000 </r>
        <r>   -38.5769     0.0000     0.0000     0.0000     0.0000 </r>
        <r>   -38.3005     0.0000     0.0000     0.0000     0.0000 </r>
        <r>   -38.0240     0.0000     0.0000     0.0000     0.0000 </r>
        <r>   -37.7475     0.0000     0.0000     0.0000     0.0000 </r>
        <r>   -37.4711     0.0000     0.0000     0.0000     0.0000 </r>
        <r>   -37.1946     0.0000     0.0000     0.0000     0.0000 </r>
        <r>   -36.9182     0.0000     0.0000     0.0000     0.0000 </r>
        <r>   -36.6417     0.0000     0.0000     0.0000     0.0000 </r>
        <r>   -36.3653     0.0000     0.0000     0.0000     0.0000 </r>
        <r>   -36.0888     0.0000     0.0000     0.0000     0.0000 </r>
        <r>   -35.8123     0.0000     0.0000     0.0000     0.0000 </r>
        <r>   -35.5359     0.0000     0.0000     0.0000     0.0000 </r>
        <r>   -35.2594     0.0000     0.0000     0.0000     0.0000 </r>
        <r>   -34.9830     0.0000     0.0000     0.0000     0.0000 </r>
        <r>   -34.7065     0.0000     0.0000     0.0000     0.0000 </r>
        <r>   -34.4300     0.0000     0.0000     0.0000     0.0000 </r>
        <r>   -34.1536     0.0000     0.0000     0.0000     0.0000 </r>
        <r>   -33.8771     0.0000     0.0000     0.0000     0.0000 </r>
        <r>   -33.6007     0.0000     0.0000     0.0000     0.0000 </r>
        <r>   -33.3242     0.0000     0.0000     0.0000     0.0000 </r>
        <r>   -33.0478     0.0000     0.0000     0.0000     0.0000 </r>
        <r>   -32.7713     0.0000     0.0000     0.0000     0.0000 </r>
        <r>   -32.4948     0.0000     0.0000     0.0000     0.0000 </r>
        <r>   -32.2184     0.0000     0.0000     0.0000     0.0000 </r>
        <r>   -31.9419     0.0000     0.0000     0.0000     0.0000 </r>
        <r>   -31.6655     0.0000     0.0000     0.0000     0.0000 </r>
        <r>   -31.3890     0.0000     0.0000     0.0000     0.0000 </r>
        <r>   -31.1125     0.0000     0.0000     0.0000     0.0000 </r>
        <r>   -30.8361     0.0000     0.0000     0.0000     0.0000 </r>
        <r>   -30.5596     0.0000     0.0000     0.0000     0.0000 </r>
        <r>   -30.2832     0.0000     0.0000     0.0000     0.0000 </r>
        <r>   -30.0067     0.0000     0.0000     0.0000     0.0000 </r>
        <r>   -29.7303     0.0000     0.0000     0.0000     0.0000 </r>
        <r>   -29.4538     0.0000     0.0000     0.0000     0.0000 </r>
        <r>   -29.1773     0.0000     0.0000     0.0000     0.0000 </r>
        <r>   -28.9009     0.0000     0.0000     0.0000     0.0000 </r>
        <r>   -28.6244     0.0000     0.0000     0.0000     0.0000 </r>
        <r>   -28.3480     0.0000     0.0000     0.0000     0.0000 </r>
        <r>   -28.0715     0.0000     0.0000     0.0000     0.0000 </r>
        <r>   -27.7950     0.0000     0.0000     0.0000     0.0000 </r>
        <r>   -27.5186     0.0000     0.0000     0.0000     0.0000 </r>
        <r>   -27.2421     0.0000     0.0000     0.0000     0.0000 </r>
        <r>   -26.9657     0.0000     0.0000     0.0000     0.0000 </r>
        <r>   -26.6892     0.0000     0.0000     0.0000     0.0000 </r>
        <r>   -26.4128     0.0000     0.0000     0.0000     0.0000 </r>
        <r>   -26.1363     0.0000     0.0000     0.0000     0.0000 </r>
        <r>   -25.8598     0.0000     0.0000     0.0000     0.0000 </r>
        <r>   -25.5834     0.0000     0.0000     0.0000     0.0000 </r>
        <r>   -25.3069     0.0000     0.0000     0.0000     0.0000 </r>
        <r>   -25.0305     0.0000     0.0000     0.0000     0.0000 </r>
        <r>   -24.7540     0.0000     0.0000     0.0000     0.0000 </r>
        <r>   -24.4776     0.0000     0.0000     0.0000     0.0000 </r>
        <r>   -24.2011     0.0000     0.0000     0.0000     0.0000 </r>
        <r>   -23.9246     0.0000     0.0000     0.0000     0.0000 </r>
        <r>   -23.6482     0.0000     0.0000     0.0000     0.0000 </r>
        <r>   -23.3717     0.0000     0.0000     0.0000     0.0000 </r>
        <r>   -23.0953     0.0000     0.0000     0.0000     0.0000 </r>
        <r>   -22.8188     0.0000     0.0000     0.0000     0.0000 </r>
        <r>   -22.5423     0.0000     0.0000     0.0000     0.0000 </r>
        <r>   -22.2659     0.0000     0.0000     0.0000     0.0000 </r>
        <r>   -21.9894     0.0000     0.0000     0.0000     0.0000 </r>
        <r>   -21.7130     0.0000     0.0000     0.0000     0.0000 </r>
        <r>   -21.4365     0.0000     0.0000     0.0000     0.0000 </r>
        <r>   -21.1601     0.0000     0.0000     0.0000     0.0000 </r>
        <r>   -20.8836     0.0000     0.0000     0.0000     0.0000 </r>
        <r>   -20.6071     0.0000     0.0000     0.0000     0.0000 </r>
        <r>   -20.3307     0.0000     0.0000     0.0000     0.0000 </r>
        <r>   -20.0542     0.0000     0.0000     0.0000     0.0000 </r>
        <r>   -19.7778     0.0000     0.0000     0.0000     0.0000 </r>
        <r>   -19.5013     0.0000     0.0000     0.0000     0.0000 </r>
        <r>   -19.2248     0.0000     0.0000     0.0000     0.0000 </r>
        <r>   -18.9484     0.0000     0.0000     0.0000     0.0000 </r>
        <r>   -18.6719     0.0000     0.0000     0.0000     0.0000 </r>
        <r>   -18.3955     0.0000     0.0000     0.0000     0.0000 </r>
        <r>   -18.1190     0.0000     0.0000     0.0000     0.0000 </r>
        <r>   -17.8426     0.0000     0.0000     0.0000     0.0000 </r>
        <r>   -17.5661     0.0000     0.0000     0.0000     0.0000 </r>
        <r>   -17.2896     0.0000     0.0000     0.0000     0.0000 </r>
        <r>   -17.0132     0.0000     0.0000     0.0000     0.0000 </r>
        <r>   -16.7367     0.0000     0.0000     0.0000     0.0000 </r>
        <r>   -16.4603     0.0000     0.0000     0.0000     0.0000 </r>
        <r>   -16.1838     0.0000     0.0000     0.0000     0.0000 </r>
        <r>   -15.9073     0.0000     0.0000     0.0000     0.0000 </r>
        <r>   -15.6309     0.0000     0.0000     0.0000     0.0000 </r>
        <r>   -15.3544     0.0000     0.0000     0.0000     0.0000 </r>
        <r>   -15.0780     0.0000     0.0000     0.0000     0.0000 </r>
        <r>   -14.8015     0.0000     0.0000     0.0000     0.0000 </r>
        <r>   -14.5251     0.0000     0.0000     0.0000     0.0000 </r>
        <r>   -14.2486     0.0000     0.0000     0.0000     0.0000 </r>
        <r>   -13.9721     0.0000     0.0000     0.0000     0.0000 </r>
        <r>   -13.6957     0.0000     0.0000     0.0000     0.0000 </r>
        <r>   -13.4192     0.0000     0.0000     0.0000     0.0000 </r>
        <r>   -13.1428     0.0000     0.0000     0.0000     0.0000 </r>
        <r>   -12.8663     0.0000     0.0000     0.0000     0.0000 </r>
        <r>   -12.5899     0.0000     0.0000     0.0000     0.0000 </r>
        <r>   -12.3134     0.0000     0.0000     0.0000     0.0000 </r>
        <r>   -12.0369     0.0000     0.0000     0.0000     0.0000 </r>
        <r>   -11.7605     0.0000     0.0000     0.0000     0.0000 </r>
        <r>   -11.4840     0.0000     0.0000     0.0000     0.0000 </r>
        <r>   -11.2076     0.0000     0.0000     0.0000     0.0000 </r>
        <r>   -10.9311     0.0000     0.0000     0.0000     0.0000 </r>
        <r>   -10.6546     0.0000     0.0000     0.0000     0.0000 </r>
        <r>   -10.3782     0.0000     0.0000     0.0000     0.0000 </r>
        <r>   -10.1017     0.0000     0.0000     0.0000     0.0000 </r>
        <r>    -9.8253     0.0000     0.0000     0.0000     0.0000 </r>
        <r>    -9.5488     0.0000     0.0000     0.0000     0.0000 </r>
        <r>    -9.2724     0.0000     0.0000     0.0000     0.0000 </r>
        <r>    -8.9959     0.0000     0.0000     0.0000     0.0000 </r>
        <r>    -8.7194     0.0000     0.0000     0.0000     0.0000 </r>
        <r>    -8.4430     0.0000     0.0000     0.0000     0.0000 </r>
        <r>    -8.1665     0.0000     0.0000     0.0000     0.0000 </r>
        <r>    -7.8901     0.0000     0.0000     0.0000     0.0000 </r>
        <r>    -7.6136     0.0000     0.0000     0.0000     0.0000 </r>
        <r>    -7.3371     0.0000     0.0000     0.0000     0.0000 </r>
        <r>    -7.0607     0.0000     0.0000     0.0000     0.0000 </r>
        <r>    -6.7842     0.0000     0.0000     0.0000     0.0000 </r>
        <r>    -6.5078     0.0000     0.0000     0.0000     0.0000 </r>
        <r>    -6.2313     0.0000     0.0000     0.0000     0.0000 </r>
        <r>    -5.9549     0.0615     0.0029     0.2896     0.0024 </r>
        <r>    -5.6784     0.0000     0.0000     0.0000     0.0000 </r>
        <r>    -5.4019     0.0000     0.0000     0.0000     0.0000 </r>
        <r>    -5.1255     0.0000     0.0000     0.0004     0.0000 </r>
        <r>    -4.8490     0.0008     0.0000     0.0018     0.0000 </r>
        <r>    -4.5726     0.0000     0.0000     0.0000     0.0000 </r>
        <r>    -4.2961     0.0000     0.0000     0.0000     0.0000 </r>
        <r>    -4.0196     0.0000     0.0000     0.0000     0.0000 </r>
        <r>    -3.7432     0.0194     0.0036     0.6291     0.0024 </r>
        <r>    -3.4667     0.0000     0.0000     0.0000     0.0000 </r>
        <r>    -3.1903     0.0000     0.0000     0.0000     0.0000 </r>
        <r>    -2.9138     0.0018     0.0023     0.6889     0.0030 </r>
        <r>    -2.6374     0.0000     0.0000     0.0000     0.0000 </r>
        <r>    -2.3609     0.0000     0.0000     0.0000     0.0000 </r>
        <r>    -2.0844     0.0005     0.0059     0.3005     0.0034 </r>
        <r>    -1.8080     0.0000     0.0000     0.0000     0.0000 </r>
        <r>    -1.5315     0.0000     0.0000     0.0000     0.0000 </r>
        <r>    -1.2551     0.0000     0.0000     0.0000     0.0000 </r>
        <r>    -0.9786     0.0000     0.0000     0.0000     0.0000 </r>
        <r>    -0.7021     0.0000     0.0000     0.0000     0.0000 </r>
        <r>    -0.4257     0.0000     0.0000     0.0000     0.0000 </r>
        <r>    -0.1492     0.0000     0.0000     0.0000     0.0000 </r>
        <r>     0.1272     0.0000     0.0000     0.0000     0.0000 </r>
        <r>     0.4037     0.0000     0.0000     0.0000     0.0000 </r>
        <r>     0.6801     0.0000     0.0000     0.0000     0.0000 </r>
        <r>     0.9566     0.0000     0.0000     0.0000     0.0000 </r>
        <r>     1.2331     0.0000     0.0000     0.0000     0.0000 </r>
        <r>     1.5095     0.0000     0.0000     0.0000     0.0000 </r>
        <r>     1.7860     0.0000     0.0000     0.0000     0.0000 </r>
        <r>     2.0624     0.0000     0.0000     0.0000     0.0000 </r>
        <r>     2.3389     0.0000     0.0000     0.0000     0.0000 </r>
        <r>     2.6153     0.0000     0.0000     0.0000     0.0000 </r>
        <r>     2.8918     0.0000     0.0000     0.0000     0.0000 </r>
       </set>
      </set>
      <set comment="ion 4">
       <set comment="spin 1">
        <r>   -80.0456     0.0000     0.0000     0.0000     0.0000 </r>
        <r>   -79.7692     0.0000     0.0000     0.0000     0.0000 </r>
        <r>   -79.4927     0.0000     0.0000     0.0000     0.0000 </r>
        <r>   -79.2163     0.0000     0.0000     0.0000     0.0000 </r>
        <r>   -78.9398     0.0000     0.0000     0.0000     0.0000 </r>
        <r>   -78.6634     0.0000     0.0000     0.0000     0.0000 </r>
        <r>   -78.3869     0.0000     0.0000     0.0000     0.0000 </r>
        <r>   -78.1104     0.0000     0.0000     0.0000     0.0000 </r>
        <r>   -77.8340     0.0000     0.0000     0.0000     0.0000 </r>
        <r>   -77.5575     0.0000     0.0000     0.0000     0.0000 </r>
        <r>   -77.2811     0.0000     0.0000     0.0000     0.0000 </r>
        <r>   -77.0046     0.0000     0.0000     0.0000     0.0000 </r>
        <r>   -76.7281     0.0000     0.0000     0.0000     0.0000 </r>
        <r>   -76.4517     0.0000     0.0000     0.0000     0.0000 </r>
        <r>   -76.1752     0.0000     0.0000     0.0000     0.0000 </r>
        <r>   -75.8988     0.9496     0.0001     0.0002     0.0000 </r>
        <r>   -75.6223     0.0000     0.0000     0.0000     0.0000 </r>
        <r>   -75.3459     0.0000     0.0000     0.0000     0.0000 </r>
        <r>   -75.0694     0.0000     0.0000     0.0000     0.0000 </r>
        <r>   -74.7929     0.0000     0.0000     0.0000     0.0000 </r>
        <r>   -74.5165     0.0000     0.0000     0.0000     0.0000 </r>
        <r>   -74.2400     0.0000     0.0000     0.0000     0.0000 </r>
        <r>   -73.9636     0.0000     0.0000     0.0000     0.0000 </r>
        <r>   -73.6871     0.0000     0.0000     0.0000     0.0000 </r>
        <r>   -73.4106     0.0000     0.0000     0.0000     0.0000 </r>
        <r>   -73.1342     0.0000     0.0000     0.0000     0.0000 </r>
        <r>   -72.8577     0.0000     0.0000     0.0000     0.0000 </r>
        <r>   -72.5813     0.0000     0.0000     0.0000     0.0000 </r>
        <r>   -72.3048     0.0000     0.0000     0.0000     0.0000 </r>
        <r>   -72.0284     0.0000     0.0000     0.0000     0.0000 </r>
        <r>   -71.7519     0.0000     0.0000     0.0000     0.0000 </r>
        <r>   -71.4754     0.0000     0.0000     0.0000     0.0000 </r>
        <r>   -71.1990     0.0000     0.0000     0.0000     0.0000 </r>
        <r>   -70.9225     0.0000     0.0000     0.0000     0.0000 </r>
        <r>   -70.6461     0.0000     0.0000     0.0000     0.0000 </r>
        <r>   -70.3696     0.0000     0.0000     0.0000     0.0000 </r>
        <r>   -70.0931     0.0000     0.0000     0.0000     0.0000 </r>
        <r>   -69.8167     0.0000     0.0000     0.0000     0.0000 </r>
        <r>   -69.5402     0.0000     0.0000     0.0000     0.0000 </r>
        <r>   -69.2638     0.0000     0.0000     0.0000     0.0000 </r>
        <r>   -68.9873     0.0000     0.0000     0.0000     0.0000 </r>
        <r>   -68.7109     0.0000     0.0000     0.0000     0.0000 </r>
        <r>   -68.4344     0.0000     0.0000     0.0000     0.0000 </r>
        <r>   -68.1579     0.0000     0.0000     0.0000     0.0000 </r>
        <r>   -67.8815     0.0000     0.0000     0.0000     0.0000 </r>
        <r>   -67.6050     0.0000     0.0000     0.0000     0.0000 </r>
        <r>   -67.3286     0.0000     0.0000     0.0000     0.0000 </r>
        <r>   -67.0521     0.0000     0.0000     0.0000     0.0000 </r>
        <r>   -66.7756     0.0000     0.0000     0.0000     0.0000 </r>
        <r>   -66.4992     0.0000     0.0000     0.0000     0.0000 </r>
        <r>   -66.2227     0.0000     0.0000     0.0000     0.0000 </r>
        <r>   -65.9463     0.0000     0.0000     0.0000     0.0000 </r>
        <r>   -65.6698     0.0000     0.0000     0.0000     0.0000 </r>
        <r>   -65.3934     0.0000     0.0000     0.0000     0.0000 </r>
        <r>   -65.1169     0.0000     0.0000     0.0000     0.0000 </r>
        <r>   -64.8404     0.0000     0.0000     0.0000     0.0000 </r>
        <r>   -64.5640     0.0000     0.0000     0.0000     0.0000 </r>
        <r>   -64.2875     0.0000     0.0000     0.0000     0.0000 </r>
        <r>   -64.0111     0.0000     0.0000     0.0000     0.0000 </r>
        <r>   -63.7346     0.0000     0.0000     0.0000     0.0000 </r>
        <r>   -63.4582     0.0000     0.0000     0.0000     0.0000 </r>
        <r>   -63.1817     0.0000     0.0000     0.0000     0.0000 </r>
        <r>   -62.9052     0.0000     0.0000     0.0000     0.0000 </r>
        <r>   -62.6288     0.0000     0.0000     0.0000     0.0000 </r>
        <r>   -62.3523     0.0000     0.0000     0.0000     0.0000 </r>
        <r>   -62.0759     0.0000     0.0000     0.0000     0.0000 </r>
        <r>   -61.7994     0.0000     0.0000     0.0000     0.0000 </r>
        <r>   -61.5229     0.0000     0.0000     0.0000     0.0000 </r>
        <r>   -61.2465     0.0000     0.0000     0.0000     0.0000 </r>
        <r>   -60.9700     0.0000     0.0000     0.0000     0.0000 </r>
        <r>   -60.6936     0.0000     0.0000     0.0000     0.0000 </r>
        <r>   -60.4171     0.0000     0.0000     0.0000     0.0000 </r>
        <r>   -60.1407     0.0000     0.0000     0.0000     0.0000 </r>
        <r>   -59.8642     0.0000     0.0000     0.0000     0.0000 </r>
        <r>   -59.5877     0.0000     0.0000     0.0000     0.0000 </r>
        <r>   -59.3113     0.0000     0.0000     0.0000     0.0000 </r>
        <r>   -59.0348     0.0000     0.0000     0.0000     0.0000 </r>
        <r>   -58.7584     0.0000     0.0000     0.0000     0.0000 </r>
        <r>   -58.4819     0.0000     0.0000     0.0000     0.0000 </r>
        <r>   -58.2054     0.0000     0.0000     0.0000     0.0000 </r>
        <r>   -57.9290     0.0000     0.0000     0.0000     0.0000 </r>
        <r>   -57.6525     0.0000     0.0000     0.0000     0.0000 </r>
        <r>   -57.3761     0.0000     0.0000     0.0000     0.0000 </r>
        <r>   -57.0996     0.0000     0.0000     0.0000     0.0000 </r>
        <r>   -56.8232     0.0000     0.0000     0.0000     0.0000 </r>
        <r>   -56.5467     0.0000     0.0000     0.0000     0.0000 </r>
        <r>   -56.2702     0.0000     0.0000     0.0000     0.0000 </r>
        <r>   -55.9938     0.0000     0.0000     0.0000     0.0000 </r>
        <r>   -55.7173     0.0000     0.0000     0.0000     0.0000 </r>
        <r>   -55.4409     0.0000     0.0000     0.0000     0.0000 </r>
        <r>   -55.1644     0.0000     0.0000     0.0000     0.0000 </r>
        <r>   -54.8879     0.0000     0.0000     0.0000     0.0000 </r>
        <r>   -54.6115     0.0000     0.0000     0.0000     0.0000 </r>
        <r>   -54.3350     0.0000     0.0000     0.0000     0.0000 </r>
        <r>   -54.0586     0.0000     0.0000     0.0000     0.0000 </r>
        <r>   -53.7821     0.0000     0.0000     0.0000     0.0000 </r>
        <r>   -53.5057     0.0000     0.0000     0.0000     0.0000 </r>
        <r>   -53.2292     0.0000     0.0000     0.0000     0.0000 </r>
        <r>   -52.9527     0.0000     0.0000     0.0000     0.0000 </r>
        <r>   -52.6763     0.0000     0.0000     0.0000     0.0000 </r>
        <r>   -52.3998     0.0000     0.0000     0.0000     0.0000 </r>
        <r>   -52.1234     0.0000     0.0000     0.0000     0.0000 </r>
        <r>   -51.8469     0.0000     0.0000     0.0000     0.0000 </r>
        <r>   -51.5705     0.0000     0.0000     0.0000     0.0000 </r>
        <r>   -51.2940     0.0000     0.0000     0.0000     0.0000 </r>
        <r>   -51.0175     0.0000     0.0000     0.0000     0.0000 </r>
        <r>   -50.7411     0.0000     0.0000     0.0000     0.0000 </r>
        <r>   -50.4646     0.0000     0.0000     0.0000     0.0000 </r>
        <r>   -50.1882     0.0000     0.0000     0.0000     0.0000 </r>
        <r>   -49.9117     0.0000     0.0000     0.0000     0.0000 </r>
        <r>   -49.6352     0.0000     0.0000     0.0000     0.0000 </r>
        <r>   -49.3588     0.0000     0.0000     0.0000     0.0000 </r>
        <r>   -49.0823     0.0000     0.0000     0.0000     0.0000 </r>
        <r>   -48.8059     0.0000     0.0000     0.0000     0.0000 </r>
        <r>   -48.5294     0.0000     0.0000     0.0000     0.0000 </r>
        <r>   -48.2530     0.0000     0.0000     0.0000     0.0000 </r>
        <r>   -47.9765     0.0000     0.0000     0.0000     0.0000 </r>
        <r>   -47.7000     0.0000     0.0000     0.0000     0.0000 </r>
        <r>   -47.4236     0.0000     0.0000     0.0000     0.0000 </r>
        <r>   -47.1471     0.0000     0.0000     0.0000     0.0000 </r>
        <r>   -46.8707     0.0000     0.0000     0.0000     0.0000 </r>
        <r>   -46.5942     0.0008     0.8794     0.0012     0.0002 </r>
        <r>   -46.3177     0.0000     0.0000     0.0000     0.0000 </r>
        <r>   -46.0413     0.0000     0.0000     0.0000     0.0000 </r>
        <r>   -45.7648     0.0001     0.1047     0.0001     0.0000 </r>
        <r>   -45.4884     0.0000     0.0000     0.0000     0.0000 </r>
        <r>   -45.2119     0.0000     0.0000     0.0000     0.0000 </r>
        <r>   -44.9355     0.0000     0.0000     0.0000     0.0000 </r>
        <r>   -44.6590     0.0000     0.0000     0.0000     0.0000 </r>
        <r>   -44.3825     0.0000     0.0000     0.0000     0.0000 </r>
        <r>   -44.1061     0.0000     0.0000     0.0000     0.0000 </r>
        <r>   -43.8296     0.0000     0.0000     0.0000     0.0000 </r>
        <r>   -43.5532     0.0000     0.0000     0.0000     0.0000 </r>
        <r>   -43.2767     0.0000     0.0000     0.0000     0.0000 </r>
        <r>   -43.0002     0.0000     0.0000     0.0000     0.0000 </r>
        <r>   -42.7238     0.0000     0.0000     0.0000     0.0000 </r>
        <r>   -42.4473     0.0000     0.0000     0.0000     0.0000 </r>
        <r>   -42.1709     0.0000     0.0000     0.0000     0.0000 </r>
        <r>   -41.8944     0.0000     0.0000     0.0000     0.0000 </r>
        <r>   -41.6180     0.0000     0.0000     0.0000     0.0000 </r>
        <r>   -41.3415     0.0000     0.0000     0.0000     0.0000 </r>
        <r>   -41.0650     0.0000     0.0000     0.0000     0.0000 </r>
        <r>   -40.7886     0.0000     0.0000     0.0000     0.0000 </r>
        <r>   -40.5121     0.0000     0.0000     0.0000     0.0000 </r>
        <r>   -40.2357     0.0000     0.0000     0.0000     0.0000 </r>
        <r>   -39.9592     0.0000     0.0000     0.0000     0.0000 </r>
        <r>   -39.6828     0.0000     0.0000     0.0000     0.0000 </r>
        <r>   -39.4063     0.0000     0.0000     0.0000     0.0000 </r>
        <r>   -39.1298     0.0000     0.0000     0.0000     0.0000 </r>
        <r>   -38.8534     0.0000     0.0000     0.0000     0.0000 </r>
        <r>   -38.5769     0.0000     0.0000     0.0000     0.0000 </r>
        <r>   -38.3005     0.0000     0.0000     0.0000     0.0000 </r>
        <r>   -38.0240     0.0000     0.0000     0.0000     0.0000 </r>
        <r>   -37.7475     0.0000     0.0000     0.0000     0.0000 </r>
        <r>   -37.4711     0.0000     0.0000     0.0000     0.0000 </r>
        <r>   -37.1946     0.0000     0.0000     0.0000     0.0000 </r>
        <r>   -36.9182     0.0000     0.0000     0.0000     0.0000 </r>
        <r>   -36.6417     0.0000     0.0000     0.0000     0.0000 </r>
        <r>   -36.3653     0.0000     0.0000     0.0000     0.0000 </r>
        <r>   -36.0888     0.0000     0.0000     0.0000     0.0000 </r>
        <r>   -35.8123     0.0000     0.0000     0.0000     0.0000 </r>
        <r>   -35.5359     0.0000     0.0000     0.0000     0.0000 </r>
        <r>   -35.2594     0.0000     0.0000     0.0000     0.0000 </r>
        <r>   -34.9830     0.0000     0.0000     0.0000     0.0000 </r>
        <r>   -34.7065     0.0000     0.0000     0.0000     0.0000 </r>
        <r>   -34.4300     0.0000     0.0000     0.0000     0.0000 </r>
        <r>   -34.1536     0.0000     0.0000     0.0000     0.0000 </r>
        <r>   -33.8771     0.0000     0.0000     0.0000     0.0000 </r>
        <r>   -33.6007     0.0000     0.0000     0.0000     0.0000 </r>
        <r>   -33.3242     0.0000     0.0000     0.0000     0.0000 </r>
        <r>   -33.0478     0.0000     0.0000     0.0000     0.0000 </r>
        <r>   -32.7713     0.0000     0.0000     0.0000     0.0000 </r>
        <r>   -32.4948     0.0000     0.0000     0.0000     0.0000 </r>
        <r>   -32.2184     0.0000     0.0000     0.0000     0.0000 </r>
        <r>   -31.9419     0.0000     0.0000     0.0000     0.0000 </r>
        <r>   -31.6655     0.0000     0.0000     0.0000     0.0000 </r>
        <r>   -31.3890     0.0000     0.0000     0.0000     0.0000 </r>
        <r>   -31.1125     0.0000     0.0000     0.0000     0.0000 </r>
        <r>   -30.8361     0.0000     0.0000     0.0000     0.0000 </r>
        <r>   -30.5596     0.0000     0.0000     0.0000     0.0000 </r>
        <r>   -30.2832     0.0000     0.0000     0.0000     0.0000 </r>
        <r>   -30.0067     0.0000     0.0000     0.0000     0.0000 </r>
        <r>   -29.7303     0.0000     0.0000     0.0000     0.0000 </r>
        <r>   -29.4538     0.0000     0.0000     0.0000     0.0000 </r>
        <r>   -29.1773     0.0000     0.0000     0.0000     0.0000 </r>
        <r>   -28.9009     0.0000     0.0000     0.0000     0.0000 </r>
        <r>   -28.6244     0.0000     0.0000     0.0000     0.0000 </r>
        <r>   -28.3480     0.0000     0.0000     0.0000     0.0000 </r>
        <r>   -28.0715     0.0000     0.0000     0.0000     0.0000 </r>
        <r>   -27.7950     0.0000     0.0000     0.0000     0.0000 </r>
        <r>   -27.5186     0.0000     0.0000     0.0000     0.0000 </r>
        <r>   -27.2421     0.0000     0.0000     0.0000     0.0000 </r>
        <r>   -26.9657     0.0000     0.0000     0.0000     0.0000 </r>
        <r>   -26.6892     0.0000     0.0000     0.0000     0.0000 </r>
        <r>   -26.4128     0.0000     0.0000     0.0000     0.0000 </r>
        <r>   -26.1363     0.0000     0.0000     0.0000     0.0000 </r>
        <r>   -25.8598     0.0000     0.0000     0.0000     0.0000 </r>
        <r>   -25.5834     0.0000     0.0000     0.0000     0.0000 </r>
        <r>   -25.3069     0.0000     0.0000     0.0000     0.0000 </r>
        <r>   -25.0305     0.0000     0.0000     0.0000     0.0000 </r>
        <r>   -24.7540     0.0000     0.0000     0.0000     0.0000 </r>
        <r>   -24.4776     0.0000     0.0000     0.0000     0.0000 </r>
        <r>   -24.2011     0.0000     0.0000     0.0000     0.0000 </r>
        <r>   -23.9246     0.0000     0.0000     0.0000     0.0000 </r>
        <r>   -23.6482     0.0000     0.0000     0.0000     0.0000 </r>
        <r>   -23.3717     0.0000     0.0000     0.0000     0.0000 </r>
        <r>   -23.0953     0.0000     0.0000     0.0000     0.0000 </r>
        <r>   -22.8188     0.0000     0.0000     0.0000     0.0000 </r>
        <r>   -22.5423     0.0000     0.0000     0.0000     0.0000 </r>
        <r>   -22.2659     0.0000     0.0000     0.0000     0.0000 </r>
        <r>   -21.9894     0.0000     0.0000     0.0000     0.0000 </r>
        <r>   -21.7130     0.0000     0.0000     0.0000     0.0000 </r>
        <r>   -21.4365     0.0000     0.0000     0.0000     0.0000 </r>
        <r>   -21.1601     0.0000     0.0000     0.0000     0.0000 </r>
        <r>   -20.8836     0.0000     0.0000     0.0000     0.0000 </r>
        <r>   -20.6071     0.0000     0.0000     0.0000     0.0000 </r>
        <r>   -20.3307     0.0000     0.0000     0.0000     0.0000 </r>
        <r>   -20.0542     0.0000     0.0000     0.0000     0.0000 </r>
        <r>   -19.7778     0.0000     0.0000     0.0000     0.0000 </r>
        <r>   -19.5013     0.0000     0.0000     0.0000     0.0000 </r>
        <r>   -19.2248     0.0000     0.0000     0.0000     0.0000 </r>
        <r>   -18.9484     0.0000     0.0000     0.0000     0.0000 </r>
        <r>   -18.6719     0.0000     0.0000     0.0000     0.0000 </r>
        <r>   -18.3955     0.0000     0.0000     0.0000     0.0000 </r>
        <r>   -18.1190     0.0000     0.0000     0.0000     0.0000 </r>
        <r>   -17.8426     0.0000     0.0000     0.0000     0.0000 </r>
        <r>   -17.5661     0.0000     0.0000     0.0000     0.0000 </r>
        <r>   -17.2896     0.0000     0.0000     0.0000     0.0000 </r>
        <r>   -17.0132     0.0000     0.0000     0.0000     0.0000 </r>
        <r>   -16.7367     0.0000     0.0000     0.0000     0.0000 </r>
        <r>   -16.4603     0.0000     0.0000     0.0000     0.0000 </r>
        <r>   -16.1838     0.0000     0.0000     0.0000     0.0000 </r>
        <r>   -15.9073     0.0000     0.0000     0.0000     0.0000 </r>
        <r>   -15.6309     0.0000     0.0000     0.0000     0.0000 </r>
        <r>   -15.3544     0.0000     0.0000     0.0000     0.0000 </r>
        <r>   -15.0780     0.0000     0.0000     0.0000     0.0000 </r>
        <r>   -14.8015     0.0000     0.0000     0.0000     0.0000 </r>
        <r>   -14.5251     0.0000     0.0000     0.0000     0.0000 </r>
        <r>   -14.2486     0.0000     0.0000     0.0000     0.0000 </r>
        <r>   -13.9721     0.0000     0.0000     0.0000     0.0000 </r>
        <r>   -13.6957     0.0000     0.0000     0.0000     0.0000 </r>
        <r>   -13.4192     0.0000     0.0000     0.0000     0.0000 </r>
        <r>   -13.1428     0.0000     0.0000     0.0000     0.0000 </r>
        <r>   -12.8663     0.0000     0.0000     0.0000     0.0000 </r>
        <r>   -12.5899     0.0000     0.0000     0.0000     0.0000 </r>
        <r>   -12.3134     0.0000     0.0000     0.0000     0.0000 </r>
        <r>   -12.0369     0.0000     0.0000     0.0000     0.0000 </r>
        <r>   -11.7605     0.0000     0.0000     0.0000     0.0000 </r>
        <r>   -11.4840     0.0000     0.0000     0.0000     0.0000 </r>
        <r>   -11.2076     0.0000     0.0000     0.0000     0.0000 </r>
        <r>   -10.9311     0.0000     0.0000     0.0000     0.0000 </r>
        <r>   -10.6546     0.0000     0.0000     0.0000     0.0000 </r>
        <r>   -10.3782     0.0000     0.0000     0.0000     0.0000 </r>
        <r>   -10.1017     0.0000     0.0000     0.0000     0.0000 </r>
        <r>    -9.8253     0.0000     0.0000     0.0000     0.0000 </r>
        <r>    -9.5488     0.0000     0.0000     0.0000     0.0000 </r>
        <r>    -9.2724     0.0000     0.0000     0.0000     0.0000 </r>
        <r>    -8.9959     0.0000     0.0000     0.0000     0.0000 </r>
        <r>    -8.7194     0.0000     0.0000     0.0000     0.0000 </r>
        <r>    -8.4430     0.0000     0.0000     0.0000     0.0000 </r>
        <r>    -8.1665     0.0000     0.0000     0.0000     0.0000 </r>
        <r>    -7.8901     0.0000     0.0000     0.0000     0.0000 </r>
        <r>    -7.6136     0.0000     0.0000     0.0000     0.0000 </r>
        <r>    -7.3371     0.0000     0.0000     0.0000     0.0000 </r>
        <r>    -7.0607     0.0000     0.0000     0.0000     0.0000 </r>
        <r>    -6.7842     0.0000     0.0000     0.0000     0.0000 </r>
        <r>    -6.5078     0.0000     0.0000     0.0000     0.0000 </r>
        <r>    -6.2313     0.0000     0.0000     0.0000     0.0000 </r>
        <r>    -5.9549     0.0000     0.0000     0.0000     0.0000 </r>
        <r>    -5.6784     0.0000     0.0000     0.0000     0.0000 </r>
        <r>    -5.4019     0.0000     0.0000     0.0000     0.0000 </r>
        <r>    -5.1255     0.0036     0.0088     0.8499     0.0061 </r>
        <r>    -4.8490     0.0001     0.0017     0.5497     0.0042 </r>
        <r>    -4.5726     0.0000     0.0000     0.0000     0.0000 </r>
        <r>    -4.2961     0.0000     0.0000     0.0000     0.0000 </r>
        <r>    -4.0196     0.0000     0.0000     0.0000     0.0000 </r>
        <r>    -3.7432     0.0000     0.0000     0.0000     0.0000 </r>
        <r>    -3.4667     0.0000     0.0026     0.7064     0.0034 </r>
        <r>    -3.1903     0.0000     0.0000     0.0000     0.0000 </r>
        <r>    -2.9138     0.0000     0.0000     0.0000     0.0000 </r>
        <r>    -2.6374     0.0000     0.0000     0.0000     0.0000 </r>
        <r>    -2.3609     0.0000     0.0000     0.0000     0.0000 </r>
        <r>    -2.0844     0.0000     0.0000     0.0000     0.0000 </r>
        <r>    -1.8080     0.0000     0.0000     0.0000     0.0000 </r>
        <r>    -1.5315     0.0000     0.0000     0.0000     0.0000 </r>
        <r>    -1.2551     0.0000     0.0000     0.0000     0.0000 </r>
        <r>    -0.9786     0.0000     0.0000     0.0000     0.0000 </r>
        <r>    -0.7021     0.0000     0.0000     0.0000     0.0000 </r>
        <r>    -0.4257     0.0000     0.0000     0.0000     0.0000 </r>
        <r>    -0.1492     0.0000     0.0000     0.0000     0.0000 </r>
        <r>     0.1272     0.0000     0.0000     0.0000     0.0000 </r>
        <r>     0.4037     0.0000     0.0000     0.0000     0.0000 </r>
        <r>     0.6801     0.0000     0.0000     0.0000     0.0000 </r>
        <r>     0.9566     0.0000     0.0000     0.0000     0.0000 </r>
        <r>     1.2331     0.0000     0.0000     0.0000     0.0000 </r>
        <r>     1.5095     0.0000     0.0000     0.0000     0.0000 </r>
        <r>     1.7860     0.0000     0.0000     0.0000     0.0000 </r>
        <r>     2.0624     0.0000     0.0000     0.0000     0.0000 </r>
        <r>     2.3389     0.0000     0.0000     0.0000     0.0000 </r>
        <r>     2.6153     0.0000     0.0000     0.0000     0.0000 </r>
        <r>     2.8918     0.0000     0.0000     0.0000     0.0000 </r>
       </set>
       <set comment="spin 2">
        <r>   -80.0456     0.0000     0.0000     0.0000     0.0000 </r>
        <r>   -79.7692     0.0000     0.0000     0.0000     0.0000 </r>
        <r>   -79.4927     0.0000     0.0000     0.0000     0.0000 </r>
        <r>   -79.2163     0.0000     0.0000     0.0000     0.0000 </r>
        <r>   -78.9398     0.0000     0.0000     0.0000     0.0000 </r>
        <r>   -78.6634     0.0000     0.0000     0.0000     0.0000 </r>
        <r>   -78.3869     0.0000     0.0000     0.0000     0.0000 </r>
        <r>   -78.1104     0.0000     0.0000     0.0000     0.0000 </r>
        <r>   -77.8340     0.0000     0.0000     0.0000     0.0000 </r>
        <r>   -77.5575     0.0000     0.0000     0.0000     0.0000 </r>
        <r>   -77.2811     0.0000     0.0000     0.0000     0.0000 </r>
        <r>   -77.0046     0.0000     0.0000     0.0000     0.0000 </r>
        <r>   -76.7281     0.0000     0.0000     0.0000     0.0000 </r>
        <r>   -76.4517     0.0000     0.0000     0.0000     0.0000 </r>
        <r>   -76.1752     0.0000     0.0000     0.0000     0.0000 </r>
        <r>   -75.8988     0.0000     0.0000     0.0000     0.0000 </r>
        <r>   -75.6223     0.9255     0.0001     0.0001     0.0000 </r>
        <r>   -75.3459     0.0000     0.0000     0.0000     0.0000 </r>
        <r>   -75.0694     0.0000     0.0000     0.0000     0.0000 </r>
        <r>   -74.7929     0.0000     0.0000     0.0000     0.0000 </r>
        <r>   -74.5165     0.0000     0.0000     0.0000     0.0000 </r>
        <r>   -74.2400     0.0000     0.0000     0.0000     0.0000 </r>
        <r>   -73.9636     0.0000     0.0000     0.0000     0.0000 </r>
        <r>   -73.6871     0.0000     0.0000     0.0000     0.0000 </r>
        <r>   -73.4106     0.0000     0.0000     0.0000     0.0000 </r>
        <r>   -73.1342     0.0000     0.0000     0.0000     0.0000 </r>
        <r>   -72.8577     0.0000     0.0000     0.0000     0.0000 </r>
        <r>   -72.5813     0.0000     0.0000     0.0000     0.0000 </r>
        <r>   -72.3048     0.0000     0.0000     0.0000     0.0000 </r>
        <r>   -72.0284     0.0000     0.0000     0.0000     0.0000 </r>
        <r>   -71.7519     0.0000     0.0000     0.0000     0.0000 </r>
        <r>   -71.4754     0.0000     0.0000     0.0000     0.0000 </r>
        <r>   -71.1990     0.0000     0.0000     0.0000     0.0000 </r>
        <r>   -70.9225     0.0000     0.0000     0.0000     0.0000 </r>
        <r>   -70.6461     0.0000     0.0000     0.0000     0.0000 </r>
        <r>   -70.3696     0.0000     0.0000     0.0000     0.0000 </r>
        <r>   -70.0931     0.0000     0.0000     0.0000     0.0000 </r>
        <r>   -69.8167     0.0000     0.0000     0.0000     0.0000 </r>
        <r>   -69.5402     0.0000     0.0000     0.0000     0.0000 </r>
        <r>   -69.2638     0.0000     0.0000     0.0000     0.0000 </r>
        <r>   -68.9873     0.0000     0.0000     0.0000     0.0000 </r>
        <r>   -68.7109     0.0000     0.0000     0.0000     0.0000 </r>
        <r>   -68.4344     0.0000     0.0000     0.0000     0.0000 </r>
        <r>   -68.1579     0.0000     0.0000     0.0000     0.0000 </r>
        <r>   -67.8815     0.0000     0.0000     0.0000     0.0000 </r>
        <r>   -67.6050     0.0000     0.0000     0.0000     0.0000 </r>
        <r>   -67.3286     0.0000     0.0000     0.0000     0.0000 </r>
        <r>   -67.0521     0.0000     0.0000     0.0000     0.0000 </r>
        <r>   -66.7756     0.0000     0.0000     0.0000     0.0000 </r>
        <r>   -66.4992     0.0000     0.0000     0.0000     0.0000 </r>
        <r>   -66.2227     0.0000     0.0000     0.0000     0.0000 </r>
        <r>   -65.9463     0.0000     0.0000     0.0000     0.0000 </r>
        <r>   -65.6698     0.0000     0.0000     0.0000     0.0000 </r>
        <r>   -65.3934     0.0000     0.0000     0.0000     0.0000 </r>
        <r>   -65.1169     0.0000     0.0000     0.0000     0.0000 </r>
        <r>   -64.8404     0.0000     0.0000     0.0000     0.0000 </r>
        <r>   -64.5640     0.0000     0.0000     0.0000     0.0000 </r>
        <r>   -64.2875     0.0000     0.0000     0.0000     0.0000 </r>
        <r>   -64.0111     0.0000     0.0000     0.0000     0.0000 </r>
        <r>   -63.7346     0.0000     0.0000     0.0000     0.0000 </r>
        <r>   -63.4582     0.0000     0.0000     0.0000     0.0000 </r>
        <r>   -63.1817     0.0000     0.0000     0.0000     0.0000 </r>
        <r>   -62.9052     0.0000     0.0000     0.0000     0.0000 </r>
        <r>   -62.6288     0.0000     0.0000     0.0000     0.0000 </r>
        <r>   -62.3523     0.0000     0.0000     0.0000     0.0000 </r>
        <r>   -62.0759     0.0000     0.0000     0.0000     0.0000 </r>
        <r>   -61.7994     0.0000     0.0000     0.0000     0.0000 </r>
        <r>   -61.5229     0.0000     0.0000     0.0000     0.0000 </r>
        <r>   -61.2465     0.0000     0.0000     0.0000     0.0000 </r>
        <r>   -60.9700     0.0000     0.0000     0.0000     0.0000 </r>
        <r>   -60.6936     0.0000     0.0000     0.0000     0.0000 </r>
        <r>   -60.4171     0.0000     0.0000     0.0000     0.0000 </r>
        <r>   -60.1407     0.0000     0.0000     0.0000     0.0000 </r>
        <r>   -59.8642     0.0000     0.0000     0.0000     0.0000 </r>
        <r>   -59.5877     0.0000     0.0000     0.0000     0.0000 </r>
        <r>   -59.3113     0.0000     0.0000     0.0000     0.0000 </r>
        <r>   -59.0348     0.0000     0.0000     0.0000     0.0000 </r>
        <r>   -58.7584     0.0000     0.0000     0.0000     0.0000 </r>
        <r>   -58.4819     0.0000     0.0000     0.0000     0.0000 </r>
        <r>   -58.2054     0.0000     0.0000     0.0000     0.0000 </r>
        <r>   -57.9290     0.0000     0.0000     0.0000     0.0000 </r>
        <r>   -57.6525     0.0000     0.0000     0.0000     0.0000 </r>
        <r>   -57.3761     0.0000     0.0000     0.0000     0.0000 </r>
        <r>   -57.0996     0.0000     0.0000     0.0000     0.0000 </r>
        <r>   -56.8232     0.0000     0.0000     0.0000     0.0000 </r>
        <r>   -56.5467     0.0000     0.0000     0.0000     0.0000 </r>
        <r>   -56.2702     0.0000     0.0000     0.0000     0.0000 </r>
        <r>   -55.9938     0.0000     0.0000     0.0000     0.0000 </r>
        <r>   -55.7173     0.0000     0.0000     0.0000     0.0000 </r>
        <r>   -55.4409     0.0000     0.0000     0.0000     0.0000 </r>
        <r>   -55.1644     0.0000     0.0000     0.0000     0.0000 </r>
        <r>   -54.8879     0.0000     0.0000     0.0000     0.0000 </r>
        <r>   -54.6115     0.0000     0.0000     0.0000     0.0000 </r>
        <r>   -54.3350     0.0000     0.0000     0.0000     0.0000 </r>
        <r>   -54.0586     0.0000     0.0000     0.0000     0.0000 </r>
        <r>   -53.7821     0.0000     0.0000     0.0000     0.0000 </r>
        <r>   -53.5057     0.0000     0.0000     0.0000     0.0000 </r>
        <r>   -53.2292     0.0000     0.0000     0.0000     0.0000 </r>
        <r>   -52.9527     0.0000     0.0000     0.0000     0.0000 </r>
        <r>   -52.6763     0.0000     0.0000     0.0000     0.0000 </r>
        <r>   -52.3998     0.0000     0.0000     0.0000     0.0000 </r>
        <r>   -52.1234     0.0000     0.0000     0.0000     0.0000 </r>
        <r>   -51.8469     0.0000     0.0000     0.0000     0.0000 </r>
        <r>   -51.5705     0.0000     0.0000     0.0000     0.0000 </r>
        <r>   -51.2940     0.0000     0.0000     0.0000     0.0000 </r>
        <r>   -51.0175     0.0000     0.0000     0.0000     0.0000 </r>
        <r>   -50.7411     0.0000     0.0000     0.0000     0.0000 </r>
        <r>   -50.4646     0.0000     0.0000     0.0000     0.0000 </r>
        <r>   -50.1882     0.0000     0.0000     0.0000     0.0000 </r>
        <r>   -49.9117     0.0000     0.0000     0.0000     0.0000 </r>
        <r>   -49.6352     0.0000     0.0000     0.0000     0.0000 </r>
        <r>   -49.3588     0.0000     0.0000     0.0000     0.0000 </r>
        <r>   -49.0823     0.0000     0.0000     0.0000     0.0000 </r>
        <r>   -48.8059     0.0000     0.0000     0.0000     0.0000 </r>
        <r>   -48.5294     0.0000     0.0000     0.0000     0.0000 </r>
        <r>   -48.2530     0.0000     0.0000     0.0000     0.0000 </r>
        <r>   -47.9765     0.0000     0.0000     0.0000     0.0000 </r>
        <r>   -47.7000     0.0000     0.0000     0.0000     0.0000 </r>
        <r>   -47.4236     0.0000     0.0000     0.0000     0.0000 </r>
        <r>   -47.1471     0.0000     0.0000     0.0000     0.0000 </r>
        <r>   -46.8707     0.0016     0.5337     0.0007     0.0001 </r>
        <r>   -46.5942     0.0000     0.0000     0.0000     0.0000 </r>
        <r>   -46.3177     0.0000     0.0000     0.0000     0.0000 </r>
        <r>   -46.0413     0.0000     0.8076     0.0011     0.0004 </r>
        <r>   -45.7648     0.0000     0.0000     0.0000     0.0000 </r>
        <r>   -45.4884     0.0008     0.9429     0.0005     0.0001 </r>
        <r>   -45.2119     0.0000     0.6834     0.0005     0.0000 </r>
        <r>   -44.9355     0.0000     0.0000     0.0000     0.0000 </r>
        <r>   -44.6590     0.0000     0.0000     0.0000     0.0000 </r>
        <r>   -44.3825     0.0000     0.0000     0.0000     0.0000 </r>
        <r>   -44.1061     0.0000     0.0000     0.0000     0.0000 </r>
        <r>   -43.8296     0.0000     0.0000     0.0000     0.0000 </r>
        <r>   -43.5532     0.0000     0.0000     0.0000     0.0000 </r>
        <r>   -43.2767     0.0000     0.0000     0.0000     0.0000 </r>
        <r>   -43.0002     0.0000     0.0000     0.0000     0.0000 </r>
        <r>   -42.7238     0.0000     0.0000     0.0000     0.0000 </r>
        <r>   -42.4473     0.0000     0.0000     0.0000     0.0000 </r>
        <r>   -42.1709     0.0000     0.0000     0.0000     0.0000 </r>
        <r>   -41.8944     0.0000     0.0000     0.0000     0.0000 </r>
        <r>   -41.6180     0.0000     0.0000     0.0000     0.0000 </r>
        <r>   -41.3415     0.0000     0.0000     0.0000     0.0000 </r>
        <r>   -41.0650     0.0000     0.0000     0.0000     0.0000 </r>
        <r>   -40.7886     0.0000     0.0000     0.0000     0.0000 </r>
        <r>   -40.5121     0.0000     0.0000     0.0000     0.0000 </r>
        <r>   -40.2357     0.0000     0.0000     0.0000     0.0000 </r>
        <r>   -39.9592     0.0000     0.0000     0.0000     0.0000 </r>
        <r>   -39.6828     0.0000     0.0000     0.0000     0.0000 </r>
        <r>   -39.4063     0.0000     0.0000     0.0000     0.0000 </r>
        <r>   -39.1298     0.0000     0.0000     0.0000     0.0000 </r>
        <r>   -38.8534     0.0000     0.0000     0.0000     0.0000 </r>
        <r>   -38.5769     0.0000     0.0000     0.0000     0.0000 </r>
        <r>   -38.3005     0.0000     0.0000     0.0000     0.0000 </r>
        <r>   -38.0240     0.0000     0.0000     0.0000     0.0000 </r>
        <r>   -37.7475     0.0000     0.0000     0.0000     0.0000 </r>
        <r>   -37.4711     0.0000     0.0000     0.0000     0.0000 </r>
        <r>   -37.1946     0.0000     0.0000     0.0000     0.0000 </r>
        <r>   -36.9182     0.0000     0.0000     0.0000     0.0000 </r>
        <r>   -36.6417     0.0000     0.0000     0.0000     0.0000 </r>
        <r>   -36.3653     0.0000     0.0000     0.0000     0.0000 </r>
        <r>   -36.0888     0.0000     0.0000     0.0000     0.0000 </r>
        <r>   -35.8123     0.0000     0.0000     0.0000     0.0000 </r>
        <r>   -35.5359     0.0000     0.0000     0.0000     0.0000 </r>
        <r>   -35.2594     0.0000     0.0000     0.0000     0.0000 </r>
        <r>   -34.9830     0.0000     0.0000     0.0000     0.0000 </r>
        <r>   -34.7065     0.0000     0.0000     0.0000     0.0000 </r>
        <r>   -34.4300     0.0000     0.0000     0.0000     0.0000 </r>
        <r>   -34.1536     0.0000     0.0000     0.0000     0.0000 </r>
        <r>   -33.8771     0.0000     0.0000     0.0000     0.0000 </r>
        <r>   -33.6007     0.0000     0.0000     0.0000     0.0000 </r>
        <r>   -33.3242     0.0000     0.0000     0.0000     0.0000 </r>
        <r>   -33.0478     0.0000     0.0000     0.0000     0.0000 </r>
        <r>   -32.7713     0.0000     0.0000     0.0000     0.0000 </r>
        <r>   -32.4948     0.0000     0.0000     0.0000     0.0000 </r>
        <r>   -32.2184     0.0000     0.0000     0.0000     0.0000 </r>
        <r>   -31.9419     0.0000     0.0000     0.0000     0.0000 </r>
        <r>   -31.6655     0.0000     0.0000     0.0000     0.0000 </r>
        <r>   -31.3890     0.0000     0.0000     0.0000     0.0000 </r>
        <r>   -31.1125     0.0000     0.0000     0.0000     0.0000 </r>
        <r>   -30.8361     0.0000     0.0000     0.0000     0.0000 </r>
        <r>   -30.5596     0.0000     0.0000     0.0000     0.0000 </r>
        <r>   -30.2832     0.0000     0.0000     0.0000     0.0000 </r>
        <r>   -30.0067     0.0000     0.0000     0.0000     0.0000 </r>
        <r>   -29.7303     0.0000     0.0000     0.0000     0.0000 </r>
        <r>   -29.4538     0.0000     0.0000     0.0000     0.0000 </r>
        <r>   -29.1773     0.0000     0.0000     0.0000     0.0000 </r>
        <r>   -28.9009     0.0000     0.0000     0.0000     0.0000 </r>
        <r>   -28.6244     0.0000     0.0000     0.0000     0.0000 </r>
        <r>   -28.3480     0.0000     0.0000     0.0000     0.0000 </r>
        <r>   -28.0715     0.0000     0.0000     0.0000     0.0000 </r>
        <r>   -27.7950     0.0000     0.0000     0.0000     0.0000 </r>
        <r>   -27.5186     0.0000     0.0000     0.0000     0.0000 </r>
        <r>   -27.2421     0.0000     0.0000     0.0000     0.0000 </r>
        <r>   -26.9657     0.0000     0.0000     0.0000     0.0000 </r>
        <r>   -26.6892     0.0000     0.0000     0.0000     0.0000 </r>
        <r>   -26.4128     0.0000     0.0000     0.0000     0.0000 </r>
        <r>   -26.1363     0.0000     0.0000     0.0000     0.0000 </r>
        <r>   -25.8598     0.0000     0.0000     0.0000     0.0000 </r>
        <r>   -25.5834     0.0000     0.0000     0.0000     0.0000 </r>
        <r>   -25.3069     0.0000     0.0000     0.0000     0.0000 </r>
        <r>   -25.0305     0.0000     0.0000     0.0000     0.0000 </r>
        <r>   -24.7540     0.0000     0.0000     0.0000     0.0000 </r>
        <r>   -24.4776     0.0000     0.0000     0.0000     0.0000 </r>
        <r>   -24.2011     0.0000     0.0000     0.0000     0.0000 </r>
        <r>   -23.9246     0.0000     0.0000     0.0000     0.0000 </r>
        <r>   -23.6482     0.0000     0.0000     0.0000     0.0000 </r>
        <r>   -23.3717     0.0000     0.0000     0.0000     0.0000 </r>
        <r>   -23.0953     0.0000     0.0000     0.0000     0.0000 </r>
        <r>   -22.8188     0.0000     0.0000     0.0000     0.0000 </r>
        <r>   -22.5423     0.0000     0.0000     0.0000     0.0000 </r>
        <r>   -22.2659     0.0000     0.0000     0.0000     0.0000 </r>
        <r>   -21.9894     0.0000     0.0000     0.0000     0.0000 </r>
        <r>   -21.7130     0.0000     0.0000     0.0000     0.0000 </r>
        <r>   -21.4365     0.0000     0.0000     0.0000     0.0000 </r>
        <r>   -21.1601     0.0000     0.0000     0.0000     0.0000 </r>
        <r>   -20.8836     0.0000     0.0000     0.0000     0.0000 </r>
        <r>   -20.6071     0.0000     0.0000     0.0000     0.0000 </r>
        <r>   -20.3307     0.0000     0.0000     0.0000     0.0000 </r>
        <r>   -20.0542     0.0000     0.0000     0.0000     0.0000 </r>
        <r>   -19.7778     0.0000     0.0000     0.0000     0.0000 </r>
        <r>   -19.5013     0.0000     0.0000     0.0000     0.0000 </r>
        <r>   -19.2248     0.0000     0.0000     0.0000     0.0000 </r>
        <r>   -18.9484     0.0000     0.0000     0.0000     0.0000 </r>
        <r>   -18.6719     0.0000     0.0000     0.0000     0.0000 </r>
        <r>   -18.3955     0.0000     0.0000     0.0000     0.0000 </r>
        <r>   -18.1190     0.0000     0.0000     0.0000     0.0000 </r>
        <r>   -17.8426     0.0000     0.0000     0.0000     0.0000 </r>
        <r>   -17.5661     0.0000     0.0000     0.0000     0.0000 </r>
        <r>   -17.2896     0.0000     0.0000     0.0000     0.0000 </r>
        <r>   -17.0132     0.0000     0.0000     0.0000     0.0000 </r>
        <r>   -16.7367     0.0000     0.0000     0.0000     0.0000 </r>
        <r>   -16.4603     0.0000     0.0000     0.0000     0.0000 </r>
        <r>   -16.1838     0.0000     0.0000     0.0000     0.0000 </r>
        <r>   -15.9073     0.0000     0.0000     0.0000     0.0000 </r>
        <r>   -15.6309     0.0000     0.0000     0.0000     0.0000 </r>
        <r>   -15.3544     0.0000     0.0000     0.0000     0.0000 </r>
        <r>   -15.0780     0.0000     0.0000     0.0000     0.0000 </r>
        <r>   -14.8015     0.0000     0.0000     0.0000     0.0000 </r>
        <r>   -14.5251     0.0000     0.0000     0.0000     0.0000 </r>
        <r>   -14.2486     0.0000     0.0000     0.0000     0.0000 </r>
        <r>   -13.9721     0.0000     0.0000     0.0000     0.0000 </r>
        <r>   -13.6957     0.0000     0.0000     0.0000     0.0000 </r>
        <r>   -13.4192     0.0000     0.0000     0.0000     0.0000 </r>
        <r>   -13.1428     0.0000     0.0000     0.0000     0.0000 </r>
        <r>   -12.8663     0.0000     0.0000     0.0000     0.0000 </r>
        <r>   -12.5899     0.0000     0.0000     0.0000     0.0000 </r>
        <r>   -12.3134     0.0000     0.0000     0.0000     0.0000 </r>
        <r>   -12.0369     0.0000     0.0000     0.0000     0.0000 </r>
        <r>   -11.7605     0.0000     0.0000     0.0000     0.0000 </r>
        <r>   -11.4840     0.0000     0.0000     0.0000     0.0000 </r>
        <r>   -11.2076     0.0000     0.0000     0.0000     0.0000 </r>
        <r>   -10.9311     0.0000     0.0000     0.0000     0.0000 </r>
        <r>   -10.6546     0.0000     0.0000     0.0000     0.0000 </r>
        <r>   -10.3782     0.0000     0.0000     0.0000     0.0000 </r>
        <r>   -10.1017     0.0000     0.0000     0.0000     0.0000 </r>
        <r>    -9.8253     0.0000     0.0000     0.0000     0.0000 </r>
        <r>    -9.5488     0.0000     0.0000     0.0000     0.0000 </r>
        <r>    -9.2724     0.0000     0.0000     0.0000     0.0000 </r>
        <r>    -8.9959     0.0000     0.0000     0.0000     0.0000 </r>
        <r>    -8.7194     0.0000     0.0000     0.0000     0.0000 </r>
        <r>    -8.4430     0.0000     0.0000     0.0000     0.0000 </r>
        <r>    -8.1665     0.0000     0.0000     0.0000     0.0000 </r>
        <r>    -7.8901     0.0000     0.0000     0.0000     0.0000 </r>
        <r>    -7.6136     0.0000     0.0000     0.0000     0.0000 </r>
        <r>    -7.3371     0.0000     0.0000     0.0000     0.0000 </r>
        <r>    -7.0607     0.0000     0.0000     0.0000     0.0000 </r>
        <r>    -6.7842     0.0000     0.0000     0.0000     0.0000 </r>
        <r>    -6.5078     0.0000     0.0000     0.0000     0.0000 </r>
        <r>    -6.2313     0.0000     0.0000     0.0000     0.0000 </r>
        <r>    -5.9549     0.0627     0.0029     0.2835     0.0024 </r>
        <r>    -5.6784     0.0000     0.0000     0.0000     0.0000 </r>
        <r>    -5.4019     0.0000     0.0000     0.0000     0.0000 </r>
        <r>    -5.1255     0.0000     0.0000     0.0004     0.0000 </r>
        <r>    -4.8490     0.0008     0.0000     0.0018     0.0000 </r>
        <r>    -4.5726     0.0000     0.0000     0.0000     0.0000 </r>
        <r>    -4.2961     0.0000     0.0000     0.0000     0.0000 </r>
        <r>    -4.0196     0.0000     0.0000     0.0000     0.0000 </r>
        <r>    -3.7432     0.0196     0.0035     0.6374     0.0024 </r>
        <r>    -3.4667     0.0000     0.0000     0.0000     0.0000 </r>
        <r>    -3.1903     0.0000     0.0000     0.0000     0.0000 </r>
        <r>    -2.9138     0.0016     0.0023     0.7080     0.0029 </r>
        <r>    -2.6374     0.0000     0.0000     0.0000     0.0000 </r>
        <r>    -2.3609     0.0000     0.0000     0.0000     0.0000 </r>
        <r>    -2.0844     0.0004     0.0057     0.2902     0.0033 </r>
        <r>    -1.8080     0.0000     0.0000     0.0000     0.0000 </r>
        <r>    -1.5315     0.0000     0.0000     0.0000     0.0000 </r>
        <r>    -1.2551     0.0000     0.0000     0.0000     0.0000 </r>
        <r>    -0.9786     0.0000     0.0000     0.0000     0.0000 </r>
        <r>    -0.7021     0.0000     0.0000     0.0000     0.0000 </r>
        <r>    -0.4257     0.0000     0.0000     0.0000     0.0000 </r>
        <r>    -0.1492     0.0000     0.0000     0.0000     0.0000 </r>
        <r>     0.1272     0.0000     0.0000     0.0000     0.0000 </r>
        <r>     0.4037     0.0000     0.0000     0.0000     0.0000 </r>
        <r>     0.6801     0.0000     0.0000     0.0000     0.0000 </r>
        <r>     0.9566     0.0000     0.0000     0.0000     0.0000 </r>
        <r>     1.2331     0.0000     0.0000     0.0000     0.0000 </r>
        <r>     1.5095     0.0000     0.0000     0.0000     0.0000 </r>
        <r>     1.7860     0.0000     0.0000     0.0000     0.0000 </r>
        <r>     2.0624     0.0000     0.0000     0.0000     0.0000 </r>
        <r>     2.3389     0.0000     0.0000     0.0000     0.0000 </r>
        <r>     2.6153     0.0000     0.0000     0.0000     0.0000 </r>
        <r>     2.8918     0.0000     0.0000     0.0000     0.0000 </r>
       </set>
      </set>
      <set comment="ion 5">
       <set comment="spin 1">
        <r>   -80.0456     0.0000     0.0000     0.0000     0.0000 </r>
        <r>   -79.7692     0.0000     0.0000     0.0000     0.0000 </r>
        <r>   -79.4927     0.0000     0.0000     0.0000     0.0000 </r>
        <r>   -79.2163     0.0000     0.0000     0.0000     0.0000 </r>
        <r>   -78.9398     0.0000     0.0000     0.0000     0.0000 </r>
        <r>   -78.6634     0.0000     0.0000     0.0000     0.0000 </r>
        <r>   -78.3869     0.0000     0.0000     0.0000     0.0000 </r>
        <r>   -78.1104     0.0000     0.0000     0.0000     0.0000 </r>
        <r>   -77.8340     0.0000     0.0000     0.0000     0.0000 </r>
        <r>   -77.5575     0.0000     0.0000     0.0000     0.0000 </r>
        <r>   -77.2811     0.0000     0.0000     0.0000     0.0000 </r>
        <r>   -77.0046     0.0000     0.0000     0.0000     0.0000 </r>
        <r>   -76.7281     0.0000     0.0000     0.0000     0.0000 </r>
        <r>   -76.4517     0.0000     0.0000     0.0000     0.0000 </r>
        <r>   -76.1752     0.0000     0.0000     0.0000     0.0000 </r>
        <r>   -75.8988     1.6950     0.0001     0.0004     0.0000 </r>
        <r>   -75.6223     0.0000     0.0000     0.0000     0.0000 </r>
        <r>   -75.3459     0.0000     0.0000     0.0000     0.0000 </r>
        <r>   -75.0694     0.0000     0.0000     0.0000     0.0000 </r>
        <r>   -74.7929     0.0000     0.0000     0.0000     0.0000 </r>
        <r>   -74.5165     0.0000     0.0000     0.0000     0.0000 </r>
        <r>   -74.2400     0.0000     0.0000     0.0000     0.0000 </r>
        <r>   -73.9636     0.0000     0.0000     0.0000     0.0000 </r>
        <r>   -73.6871     0.0000     0.0000     0.0000     0.0000 </r>
        <r>   -73.4106     0.0000     0.0000     0.0000     0.0000 </r>
        <r>   -73.1342     0.0000     0.0000     0.0000     0.0000 </r>
        <r>   -72.8577     0.0000     0.0000     0.0000     0.0000 </r>
        <r>   -72.5813     0.0000     0.0000     0.0000     0.0000 </r>
        <r>   -72.3048     0.0000     0.0000     0.0000     0.0000 </r>
        <r>   -72.0284     0.0000     0.0000     0.0000     0.0000 </r>
        <r>   -71.7519     0.0000     0.0000     0.0000     0.0000 </r>
        <r>   -71.4754     0.0000     0.0000     0.0000     0.0000 </r>
        <r>   -71.1990     0.0000     0.0000     0.0000     0.0000 </r>
        <r>   -70.9225     0.0000     0.0000     0.0000     0.0000 </r>
        <r>   -70.6461     0.0000     0.0000     0.0000     0.0000 </r>
        <r>   -70.3696     0.0000     0.0000     0.0000     0.0000 </r>
        <r>   -70.0931     0.0000     0.0000     0.0000     0.0000 </r>
        <r>   -69.8167     0.0000     0.0000     0.0000     0.0000 </r>
        <r>   -69.5402     0.0000     0.0000     0.0000     0.0000 </r>
        <r>   -69.2638     0.0000     0.0000     0.0000     0.0000 </r>
        <r>   -68.9873     0.0000     0.0000     0.0000     0.0000 </r>
        <r>   -68.7109     0.0000     0.0000     0.0000     0.0000 </r>
        <r>   -68.4344     0.0000     0.0000     0.0000     0.0000 </r>
        <r>   -68.1579     0.0000     0.0000     0.0000     0.0000 </r>
        <r>   -67.8815     0.0000     0.0000     0.0000     0.0000 </r>
        <r>   -67.6050     0.0000     0.0000     0.0000     0.0000 </r>
        <r>   -67.3286     0.0000     0.0000     0.0000     0.0000 </r>
        <r>   -67.0521     0.0000     0.0000     0.0000     0.0000 </r>
        <r>   -66.7756     0.0000     0.0000     0.0000     0.0000 </r>
        <r>   -66.4992     0.0000     0.0000     0.0000     0.0000 </r>
        <r>   -66.2227     0.0000     0.0000     0.0000     0.0000 </r>
        <r>   -65.9463     0.0000     0.0000     0.0000     0.0000 </r>
        <r>   -65.6698     0.0000     0.0000     0.0000     0.0000 </r>
        <r>   -65.3934     0.0000     0.0000     0.0000     0.0000 </r>
        <r>   -65.1169     0.0000     0.0000     0.0000     0.0000 </r>
        <r>   -64.8404     0.0000     0.0000     0.0000     0.0000 </r>
        <r>   -64.5640     0.0000     0.0000     0.0000     0.0000 </r>
        <r>   -64.2875     0.0000     0.0000     0.0000     0.0000 </r>
        <r>   -64.0111     0.0000     0.0000     0.0000     0.0000 </r>
        <r>   -63.7346     0.0000     0.0000     0.0000     0.0000 </r>
        <r>   -63.4582     0.0000     0.0000     0.0000     0.0000 </r>
        <r>   -63.1817     0.0000     0.0000     0.0000     0.0000 </r>
        <r>   -62.9052     0.0000     0.0000     0.0000     0.0000 </r>
        <r>   -62.6288     0.0000     0.0000     0.0000     0.0000 </r>
        <r>   -62.3523     0.0000     0.0000     0.0000     0.0000 </r>
        <r>   -62.0759     0.0000     0.0000     0.0000     0.0000 </r>
        <r>   -61.7994     0.0000     0.0000     0.0000     0.0000 </r>
        <r>   -61.5229     0.0000     0.0000     0.0000     0.0000 </r>
        <r>   -61.2465     0.0000     0.0000     0.0000     0.0000 </r>
        <r>   -60.9700     0.0000     0.0000     0.0000     0.0000 </r>
        <r>   -60.6936     0.0000     0.0000     0.0000     0.0000 </r>
        <r>   -60.4171     0.0000     0.0000     0.0000     0.0000 </r>
        <r>   -60.1407     0.0000     0.0000     0.0000     0.0000 </r>
        <r>   -59.8642     0.0000     0.0000     0.0000     0.0000 </r>
        <r>   -59.5877     0.0000     0.0000     0.0000     0.0000 </r>
        <r>   -59.3113     0.0000     0.0000     0.0000     0.0000 </r>
        <r>   -59.0348     0.0000     0.0000     0.0000     0.0000 </r>
        <r>   -58.7584     0.0000     0.0000     0.0000     0.0000 </r>
        <r>   -58.4819     0.0000     0.0000     0.0000     0.0000 </r>
        <r>   -58.2054     0.0000     0.0000     0.0000     0.0000 </r>
        <r>   -57.9290     0.0000     0.0000     0.0000     0.0000 </r>
        <r>   -57.6525     0.0000     0.0000     0.0000     0.0000 </r>
        <r>   -57.3761     0.0000     0.0000     0.0000     0.0000 </r>
        <r>   -57.0996     0.0000     0.0000     0.0000     0.0000 </r>
        <r>   -56.8232     0.0000     0.0000     0.0000     0.0000 </r>
        <r>   -56.5467     0.0000     0.0000     0.0000     0.0000 </r>
        <r>   -56.2702     0.0000     0.0000     0.0000     0.0000 </r>
        <r>   -55.9938     0.0000     0.0000     0.0000     0.0000 </r>
        <r>   -55.7173     0.0000     0.0000     0.0000     0.0000 </r>
        <r>   -55.4409     0.0000     0.0000     0.0000     0.0000 </r>
        <r>   -55.1644     0.0000     0.0000     0.0000     0.0000 </r>
        <r>   -54.8879     0.0000     0.0000     0.0000     0.0000 </r>
        <r>   -54.6115     0.0000     0.0000     0.0000     0.0000 </r>
        <r>   -54.3350     0.0000     0.0000     0.0000     0.0000 </r>
        <r>   -54.0586     0.0000     0.0000     0.0000     0.0000 </r>
        <r>   -53.7821     0.0000     0.0000     0.0000     0.0000 </r>
        <r>   -53.5057     0.0000     0.0000     0.0000     0.0000 </r>
        <r>   -53.2292     0.0000     0.0000     0.0000     0.0000 </r>
        <r>   -52.9527     0.0000     0.0000     0.0000     0.0000 </r>
        <r>   -52.6763     0.0000     0.0000     0.0000     0.0000 </r>
        <r>   -52.3998     0.0000     0.0000     0.0000     0.0000 </r>
        <r>   -52.1234     0.0000     0.0000     0.0000     0.0000 </r>
        <r>   -51.8469     0.0000     0.0000     0.0000     0.0000 </r>
        <r>   -51.5705     0.0000     0.0000     0.0000     0.0000 </r>
        <r>   -51.2940     0.0000     0.0000     0.0000     0.0000 </r>
        <r>   -51.0175     0.0000     0.0000     0.0000     0.0000 </r>
        <r>   -50.7411     0.0000     0.0000     0.0000     0.0000 </r>
        <r>   -50.4646     0.0000     0.0000     0.0000     0.0000 </r>
        <r>   -50.1882     0.0000     0.0000     0.0000     0.0000 </r>
        <r>   -49.9117     0.0000     0.0000     0.0000     0.0000 </r>
        <r>   -49.6352     0.0000     0.0000     0.0000     0.0000 </r>
        <r>   -49.3588     0.0000     0.0000     0.0000     0.0000 </r>
        <r>   -49.0823     0.0000     0.0000     0.0000     0.0000 </r>
        <r>   -48.8059     0.0000     0.0000     0.0000     0.0000 </r>
        <r>   -48.5294     0.0000     0.0000     0.0000     0.0000 </r>
        <r>   -48.2530     0.0000     0.0000     0.0000     0.0000 </r>
        <r>   -47.9765     0.0000     0.0000     0.0000     0.0000 </r>
        <r>   -47.7000     0.0000     0.0000     0.0000     0.0000 </r>
        <r>   -47.4236     0.0000     0.0000     0.0000     0.0000 </r>
        <r>   -47.1471     0.0000     0.0000     0.0000     0.0000 </r>
        <r>   -46.8707     0.0000     0.0000     0.0000     0.0000 </r>
        <r>   -46.5942     0.0000     0.0034     0.0001     0.0000 </r>
        <r>   -46.3177     0.0000     0.0000     0.0000     0.0000 </r>
        <r>   -46.0413     0.0000     0.0000     0.0000     0.0000 </r>
        <r>   -45.7648     0.0000     0.0065     0.0000     0.0000 </r>
        <r>   -45.4884     0.0000     0.0000     0.0000     0.0000 </r>
        <r>   -45.2119     0.0000     0.0000     0.0000     0.0000 </r>
        <r>   -44.9355     0.0000     0.0000     0.0000     0.0000 </r>
        <r>   -44.6590     0.0000     0.0000     0.0000     0.0000 </r>
        <r>   -44.3825     0.0000     0.0000     0.0000     0.0000 </r>
        <r>   -44.1061     0.0000     0.0000     0.0000     0.0000 </r>
        <r>   -43.8296     0.0000     0.0000     0.0000     0.0000 </r>
        <r>   -43.5532     0.0000     0.0000     0.0000     0.0000 </r>
        <r>   -43.2767     0.0000     0.0000     0.0000     0.0000 </r>
        <r>   -43.0002     0.0000     0.0000     0.0000     0.0000 </r>
        <r>   -42.7238     0.0000     0.0000     0.0000     0.0000 </r>
        <r>   -42.4473     0.0000     0.0000     0.0000     0.0000 </r>
        <r>   -42.1709     0.0000     0.0000     0.0000     0.0000 </r>
        <r>   -41.8944     0.0000     0.0000     0.0000     0.0000 </r>
        <r>   -41.6180     0.0000     0.0000     0.0000     0.0000 </r>
        <r>   -41.3415     0.0000     0.0000     0.0000     0.0000 </r>
        <r>   -41.0650     0.0000     0.0000     0.0000     0.0000 </r>
        <r>   -40.7886     0.0000     0.0000     0.0000     0.0000 </r>
        <r>   -40.5121     0.0000     0.0000     0.0000     0.0000 </r>
        <r>   -40.2357     0.0000     0.0000     0.0000     0.0000 </r>
        <r>   -39.9592     0.0000     0.0000     0.0000     0.0000 </r>
        <r>   -39.6828     0.0000     0.0000     0.0000     0.0000 </r>
        <r>   -39.4063     0.0000     0.0000     0.0000     0.0000 </r>
        <r>   -39.1298     0.0000     0.0000     0.0000     0.0000 </r>
        <r>   -38.8534     0.0000     0.0000     0.0000     0.0000 </r>
        <r>   -38.5769     0.0000     0.0000     0.0000     0.0000 </r>
        <r>   -38.3005     0.0000     0.0000     0.0000     0.0000 </r>
        <r>   -38.0240     0.0000     0.0000     0.0000     0.0000 </r>
        <r>   -37.7475     0.0000     0.0000     0.0000     0.0000 </r>
        <r>   -37.4711     0.0000     0.0000     0.0000     0.0000 </r>
        <r>   -37.1946     0.0000     0.0000     0.0000     0.0000 </r>
        <r>   -36.9182     0.0000     0.0000     0.0000     0.0000 </r>
        <r>   -36.6417     0.0000     0.0000     0.0000     0.0000 </r>
        <r>   -36.3653     0.0000     0.0000     0.0000     0.0000 </r>
        <r>   -36.0888     0.0000     0.0000     0.0000     0.0000 </r>
        <r>   -35.8123     0.0000     0.0000     0.0000     0.0000 </r>
        <r>   -35.5359     0.0000     0.0000     0.0000     0.0000 </r>
        <r>   -35.2594     0.0000     0.0000     0.0000     0.0000 </r>
        <r>   -34.9830     0.0000     0.0000     0.0000     0.0000 </r>
        <r>   -34.7065     0.0000     0.0000     0.0000     0.0000 </r>
        <r>   -34.4300     0.0000     0.0000     0.0000     0.0000 </r>
        <r>   -34.1536     0.0000     0.0000     0.0000     0.0000 </r>
        <r>   -33.8771     0.0000     0.0000     0.0000     0.0000 </r>
        <r>   -33.6007     0.0000     0.0000     0.0000     0.0000 </r>
        <r>   -33.3242     0.0000     0.0000     0.0000     0.0000 </r>
        <r>   -33.0478     0.0000     0.0000     0.0000     0.0000 </r>
        <r>   -32.7713     0.0000     0.0000     0.0000     0.0000 </r>
        <r>   -32.4948     0.0000     0.0000     0.0000     0.0000 </r>
        <r>   -32.2184     0.0000     0.0000     0.0000     0.0000 </r>
        <r>   -31.9419     0.0000     0.0000     0.0000     0.0000 </r>
        <r>   -31.6655     0.0000     0.0000     0.0000     0.0000 </r>
        <r>   -31.3890     0.0000     0.0000     0.0000     0.0000 </r>
        <r>   -31.1125     0.0000     0.0000     0.0000     0.0000 </r>
        <r>   -30.8361     0.0000     0.0000     0.0000     0.0000 </r>
        <r>   -30.5596     0.0000     0.0000     0.0000     0.0000 </r>
        <r>   -30.2832     0.0000     0.0000     0.0000     0.0000 </r>
        <r>   -30.0067     0.0000     0.0000     0.0000     0.0000 </r>
        <r>   -29.7303     0.0000     0.0000     0.0000     0.0000 </r>
        <r>   -29.4538     0.0000     0.0000     0.0000     0.0000 </r>
        <r>   -29.1773     0.0000     0.0000     0.0000     0.0000 </r>
        <r>   -28.9009     0.0000     0.0000     0.0000     0.0000 </r>
        <r>   -28.6244     0.0000     0.0000     0.0000     0.0000 </r>
        <r>   -28.3480     0.0000     0.0000     0.0000     0.0000 </r>
        <r>   -28.0715     0.0000     0.0000     0.0000     0.0000 </r>
        <r>   -27.7950     0.0000     0.0000     0.0000     0.0000 </r>
        <r>   -27.5186     0.0000     0.0000     0.0000     0.0000 </r>
        <r>   -27.2421     0.0000     0.0000     0.0000     0.0000 </r>
        <r>   -26.9657     0.0000     0.0000     0.0000     0.0000 </r>
        <r>   -26.6892     0.0000     0.0000     0.0000     0.0000 </r>
        <r>   -26.4128     0.0000     0.0000     0.0000     0.0000 </r>
        <r>   -26.1363     0.0000     0.0000     0.0000     0.0000 </r>
        <r>   -25.8598     0.0000     0.0000     0.0000     0.0000 </r>
        <r>   -25.5834     0.0000     0.0000     0.0000     0.0000 </r>
        <r>   -25.3069     0.0000     0.0000     0.0000     0.0000 </r>
        <r>   -25.0305     0.0000     0.0000     0.0000     0.0000 </r>
        <r>   -24.7540     0.0000     0.0000     0.0000     0.0000 </r>
        <r>   -24.4776     0.0000     0.0000     0.0000     0.0000 </r>
        <r>   -24.2011     0.0000     0.0000     0.0000     0.0000 </r>
        <r>   -23.9246     0.0000     0.0000     0.0000     0.0000 </r>
        <r>   -23.6482     0.0000     0.0000     0.0000     0.0000 </r>
        <r>   -23.3717     0.0000     0.0000     0.0000     0.0000 </r>
        <r>   -23.0953     0.0000     0.0000     0.0000     0.0000 </r>
        <r>   -22.8188     0.0000     0.0000     0.0000     0.0000 </r>
        <r>   -22.5423     0.0000     0.0000     0.0000     0.0000 </r>
        <r>   -22.2659     0.0000     0.0000     0.0000     0.0000 </r>
        <r>   -21.9894     0.0000     0.0000     0.0000     0.0000 </r>
        <r>   -21.7130     0.0000     0.0000     0.0000     0.0000 </r>
        <r>   -21.4365     0.0000     0.0000     0.0000     0.0000 </r>
        <r>   -21.1601     0.0000     0.0000     0.0000     0.0000 </r>
        <r>   -20.8836     0.0000     0.0000     0.0000     0.0000 </r>
        <r>   -20.6071     0.0000     0.0000     0.0000     0.0000 </r>
        <r>   -20.3307     0.0000     0.0000     0.0000     0.0000 </r>
        <r>   -20.0542     0.0000     0.0000     0.0000     0.0000 </r>
        <r>   -19.7778     0.0000     0.0000     0.0000     0.0000 </r>
        <r>   -19.5013     0.0000     0.0000     0.0000     0.0000 </r>
        <r>   -19.2248     0.0000     0.0000     0.0000     0.0000 </r>
        <r>   -18.9484     0.0000     0.0000     0.0000     0.0000 </r>
        <r>   -18.6719     0.0000     0.0000     0.0000     0.0000 </r>
        <r>   -18.3955     0.0000     0.0000     0.0000     0.0000 </r>
        <r>   -18.1190     0.0000     0.0000     0.0000     0.0000 </r>
        <r>   -17.8426     0.0000     0.0000     0.0000     0.0000 </r>
        <r>   -17.5661     0.0000     0.0000     0.0000     0.0000 </r>
        <r>   -17.2896     0.0000     0.0000     0.0000     0.0000 </r>
        <r>   -17.0132     0.0000     0.0000     0.0000     0.0000 </r>
        <r>   -16.7367     0.0000     0.0000     0.0000     0.0000 </r>
        <r>   -16.4603     0.0000     0.0000     0.0000     0.0000 </r>
        <r>   -16.1838     0.0000     0.0000     0.0000     0.0000 </r>
        <r>   -15.9073     0.0000     0.0000     0.0000     0.0000 </r>
        <r>   -15.6309     0.0000     0.0000     0.0000     0.0000 </r>
        <r>   -15.3544     0.0000     0.0000     0.0000     0.0000 </r>
        <r>   -15.0780     0.0000     0.0000     0.0000     0.0000 </r>
        <r>   -14.8015     0.0000     0.0000     0.0000     0.0000 </r>
        <r>   -14.5251     0.0000     0.0000     0.0000     0.0000 </r>
        <r>   -14.2486     0.0000     0.0000     0.0000     0.0000 </r>
        <r>   -13.9721     0.0000     0.0000     0.0000     0.0000 </r>
        <r>   -13.6957     0.0000     0.0000     0.0000     0.0000 </r>
        <r>   -13.4192     0.0000     0.0000     0.0000     0.0000 </r>
        <r>   -13.1428     0.0000     0.0000     0.0000     0.0000 </r>
        <r>   -12.8663     0.0000     0.0000     0.0000     0.0000 </r>
        <r>   -12.5899     0.0000     0.0000     0.0000     0.0000 </r>
        <r>   -12.3134     0.0000     0.0000     0.0000     0.0000 </r>
        <r>   -12.0369     0.0000     0.0000     0.0000     0.0000 </r>
        <r>   -11.7605     0.0000     0.0000     0.0000     0.0000 </r>
        <r>   -11.4840     0.0000     0.0000     0.0000     0.0000 </r>
        <r>   -11.2076     0.0000     0.0000     0.0000     0.0000 </r>
        <r>   -10.9311     0.0000     0.0000     0.0000     0.0000 </r>
        <r>   -10.6546     0.0000     0.0000     0.0000     0.0000 </r>
        <r>   -10.3782     0.0000     0.0000     0.0000     0.0000 </r>
        <r>   -10.1017     0.0000     0.0000     0.0000     0.0000 </r>
        <r>    -9.8253     0.0000     0.0000     0.0000     0.0000 </r>
        <r>    -9.5488     0.0000     0.0000     0.0000     0.0000 </r>
        <r>    -9.2724     0.0000     0.0000     0.0000     0.0000 </r>
        <r>    -8.9959     0.0000     0.0000     0.0000     0.0000 </r>
        <r>    -8.7194     0.0000     0.0000     0.0000     0.0000 </r>
        <r>    -8.4430     0.0000     0.0000     0.0000     0.0000 </r>
        <r>    -8.1665     0.0000     0.0000     0.0000     0.0000 </r>
        <r>    -7.8901     0.0000     0.0000     0.0000     0.0000 </r>
        <r>    -7.6136     0.0000     0.0000     0.0000     0.0000 </r>
        <r>    -7.3371     0.0000     0.0000     0.0000     0.0000 </r>
        <r>    -7.0607     0.0000     0.0000     0.0000     0.0000 </r>
        <r>    -6.7842     0.0000     0.0000     0.0000     0.0000 </r>
        <r>    -6.5078     0.0000     0.0000     0.0000     0.0000 </r>
        <r>    -6.2313     0.0000     0.0000     0.0000     0.0000 </r>
        <r>    -5.9549     0.0000     0.0000     0.0000     0.0000 </r>
        <r>    -5.6784     0.0000     0.0000     0.0000     0.0000 </r>
        <r>    -5.4019     0.0000     0.0000     0.0000     0.0000 </r>
        <r>    -5.1255     0.0020     0.0091     1.0200     0.0076 </r>
        <r>    -4.8490     0.0000     0.0009     0.4308     0.0032 </r>
        <r>    -4.5726     0.0000     0.0000     0.0000     0.0000 </r>
        <r>    -4.2961     0.0000     0.0000     0.0000     0.0000 </r>
        <r>    -4.0196     0.0000     0.0000     0.0000     0.0000 </r>
        <r>    -3.7432     0.0000     0.0000     0.0000     0.0000 </r>
        <r>    -3.4667     0.0000     0.0000     0.1372     0.0026 </r>
        <r>    -3.1903     0.0000     0.0000     0.0000     0.0000 </r>
        <r>    -2.9138     0.0000     0.0000     0.0000     0.0000 </r>
        <r>    -2.6374     0.0000     0.0000     0.0000     0.0000 </r>
        <r>    -2.3609     0.0000     0.0000     0.0000     0.0000 </r>
        <r>    -2.0844     0.0000     0.0000     0.0000     0.0000 </r>
        <r>    -1.8080     0.0000     0.0000     0.0000     0.0000 </r>
        <r>    -1.5315     0.0000     0.0000     0.0000     0.0000 </r>
        <r>    -1.2551     0.0000     0.0000     0.0000     0.0000 </r>
        <r>    -0.9786     0.0000     0.0000     0.0000     0.0000 </r>
        <r>    -0.7021     0.0000     0.0000     0.0000     0.0000 </r>
        <r>    -0.4257     0.0000     0.0000     0.0000     0.0000 </r>
        <r>    -0.1492     0.0000     0.0000     0.0000     0.0000 </r>
        <r>     0.1272     0.0000     0.0000     0.0000     0.0000 </r>
        <r>     0.4037     0.0000     0.0000     0.0000     0.0000 </r>
        <r>     0.6801     0.0000     0.0000     0.0000     0.0000 </r>
        <r>     0.9566     0.0000     0.0000     0.0000     0.0000 </r>
        <r>     1.2331     0.0000     0.0000     0.0000     0.0000 </r>
        <r>     1.5095     0.0000     0.0000     0.0000     0.0000 </r>
        <r>     1.7860     0.0000     0.0000     0.0000     0.0000 </r>
        <r>     2.0624     0.0000     0.0000     0.0000     0.0000 </r>
        <r>     2.3389     0.0000     0.0000     0.0000     0.0000 </r>
        <r>     2.6153     0.0000     0.0000     0.0000     0.0000 </r>
        <r>     2.8918     0.0000     0.0000     0.0000     0.0000 </r>
       </set>
       <set comment="spin 2">
        <r>   -80.0456     0.0000     0.0000     0.0000     0.0000 </r>
        <r>   -79.7692     0.0000     0.0000     0.0000     0.0000 </r>
        <r>   -79.4927     0.0000     0.0000     0.0000     0.0000 </r>
        <r>   -79.2163     0.0000     0.0000     0.0000     0.0000 </r>
        <r>   -78.9398     0.0000     0.0000     0.0000     0.0000 </r>
        <r>   -78.6634     0.0000     0.0000     0.0000     0.0000 </r>
        <r>   -78.3869     0.0000     0.0000     0.0000     0.0000 </r>
        <r>   -78.1104     0.0000     0.0000     0.0000     0.0000 </r>
        <r>   -77.8340     0.0000     0.0000     0.0000     0.0000 </r>
        <r>   -77.5575     0.0000     0.0000     0.0000     0.0000 </r>
        <r>   -77.2811     0.0000     0.0000     0.0000     0.0000 </r>
        <r>   -77.0046     0.0000     0.0000     0.0000     0.0000 </r>
        <r>   -76.7281     0.0000     0.0000     0.0000     0.0000 </r>
        <r>   -76.4517     0.0000     0.0000     0.0000     0.0000 </r>
        <r>   -76.1752     0.0000     0.0000     0.0000     0.0000 </r>
        <r>   -75.8988     0.0000     0.0000     0.0000     0.0000 </r>
        <r>   -75.6223     0.0001     0.0000     0.0001     0.0000 </r>
        <r>   -75.3459     0.0000     0.0000     0.0000     0.0000 </r>
        <r>   -75.0694     0.0000     0.0000     0.0000     0.0000 </r>
        <r>   -74.7929     0.0000     0.0000     0.0000     0.0000 </r>
        <r>   -74.5165     0.0000     0.0000     0.0000     0.0000 </r>
        <r>   -74.2400     0.0000     0.0000     0.0000     0.0000 </r>
        <r>   -73.9636     0.0000     0.0000     0.0000     0.0000 </r>
        <r>   -73.6871     0.0000     0.0000     0.0000     0.0000 </r>
        <r>   -73.4106     0.0000     0.0000     0.0000     0.0000 </r>
        <r>   -73.1342     0.0000     0.0000     0.0000     0.0000 </r>
        <r>   -72.8577     0.0000     0.0000     0.0000     0.0000 </r>
        <r>   -72.5813     0.0000     0.0000     0.0000     0.0000 </r>
        <r>   -72.3048     0.0000     0.0000     0.0000     0.0000 </r>
        <r>   -72.0284     0.0000     0.0000     0.0000     0.0000 </r>
        <r>   -71.7519     0.0000     0.0000     0.0000     0.0000 </r>
        <r>   -71.4754     0.0000     0.0000     0.0000     0.0000 </r>
        <r>   -71.1990     0.0000     0.0000     0.0000     0.0000 </r>
        <r>   -70.9225     0.0000     0.0000     0.0000     0.0000 </r>
        <r>   -70.6461     0.0000     0.0000     0.0000     0.0000 </r>
        <r>   -70.3696     0.0000     0.0000     0.0000     0.0000 </r>
        <r>   -70.0931     0.0000     0.0000     0.0000     0.0000 </r>
        <r>   -69.8167     0.0000     0.0000     0.0000     0.0000 </r>
        <r>   -69.5402     0.0000     0.0000     0.0000     0.0000 </r>
        <r>   -69.2638     0.0000     0.0000     0.0000     0.0000 </r>
        <r>   -68.9873     0.0000     0.0000     0.0000     0.0000 </r>
        <r>   -68.7109     0.0000     0.0000     0.0000     0.0000 </r>
        <r>   -68.4344     0.0000     0.0000     0.0000     0.0000 </r>
        <r>   -68.1579     0.0000     0.0000     0.0000     0.0000 </r>
        <r>   -67.8815     0.0000     0.0000     0.0000     0.0000 </r>
        <r>   -67.6050     0.0000     0.0000     0.0000     0.0000 </r>
        <r>   -67.3286     0.0000     0.0000     0.0000     0.0000 </r>
        <r>   -67.0521     0.0000     0.0000     0.0000     0.0000 </r>
        <r>   -66.7756     0.0000     0.0000     0.0000     0.0000 </r>
        <r>   -66.4992     0.0000     0.0000     0.0000     0.0000 </r>
        <r>   -66.2227     0.0000     0.0000     0.0000     0.0000 </r>
        <r>   -65.9463     0.0000     0.0000     0.0000     0.0000 </r>
        <r>   -65.6698     0.0000     0.0000     0.0000     0.0000 </r>
        <r>   -65.3934     0.0000     0.0000     0.0000     0.0000 </r>
        <r>   -65.1169     0.0000     0.0000     0.0000     0.0000 </r>
        <r>   -64.8404     0.0000     0.0000     0.0000     0.0000 </r>
        <r>   -64.5640     0.0000     0.0000     0.0000     0.0000 </r>
        <r>   -64.2875     0.0000     0.0000     0.0000     0.0000 </r>
        <r>   -64.0111     0.0000     0.0000     0.0000     0.0000 </r>
        <r>   -63.7346     0.0000     0.0000     0.0000     0.0000 </r>
        <r>   -63.4582     0.0000     0.0000     0.0000     0.0000 </r>
        <r>   -63.1817     0.0000     0.0000     0.0000     0.0000 </r>
        <r>   -62.9052     0.0000     0.0000     0.0000     0.0000 </r>
        <r>   -62.6288     0.0000     0.0000     0.0000     0.0000 </r>
        <r>   -62.3523     0.0000     0.0000     0.0000     0.0000 </r>
        <r>   -62.0759     0.0000     0.0000     0.0000     0.0000 </r>
        <r>   -61.7994     0.0000     0.0000     0.0000     0.0000 </r>
        <r>   -61.5229     0.0000     0.0000     0.0000     0.0000 </r>
        <r>   -61.2465     0.0000     0.0000     0.0000     0.0000 </r>
        <r>   -60.9700     0.0000     0.0000     0.0000     0.0000 </r>
        <r>   -60.6936     0.0000     0.0000     0.0000     0.0000 </r>
        <r>   -60.4171     0.0000     0.0000     0.0000     0.0000 </r>
        <r>   -60.1407     0.0000     0.0000     0.0000     0.0000 </r>
        <r>   -59.8642     0.0000     0.0000     0.0000     0.0000 </r>
        <r>   -59.5877     0.0000     0.0000     0.0000     0.0000 </r>
        <r>   -59.3113     0.0000     0.0000     0.0000     0.0000 </r>
        <r>   -59.0348     0.0000     0.0000     0.0000     0.0000 </r>
        <r>   -58.7584     0.0000     0.0000     0.0000     0.0000 </r>
        <r>   -58.4819     0.0000     0.0000     0.0000     0.0000 </r>
        <r>   -58.2054     0.0000     0.0000     0.0000     0.0000 </r>
        <r>   -57.9290     0.0000     0.0000     0.0000     0.0000 </r>
        <r>   -57.6525     0.0000     0.0000     0.0000     0.0000 </r>
        <r>   -57.3761     0.0000     0.0000     0.0000     0.0000 </r>
        <r>   -57.0996     0.0000     0.0000     0.0000     0.0000 </r>
        <r>   -56.8232     0.0000     0.0000     0.0000     0.0000 </r>
        <r>   -56.5467     0.0000     0.0000     0.0000     0.0000 </r>
        <r>   -56.2702     0.0000     0.0000     0.0000     0.0000 </r>
        <r>   -55.9938     0.0000     0.0000     0.0000     0.0000 </r>
        <r>   -55.7173     0.0000     0.0000     0.0000     0.0000 </r>
        <r>   -55.4409     0.0000     0.0000     0.0000     0.0000 </r>
        <r>   -55.1644     0.0000     0.0000     0.0000     0.0000 </r>
        <r>   -54.8879     0.0000     0.0000     0.0000     0.0000 </r>
        <r>   -54.6115     0.0000     0.0000     0.0000     0.0000 </r>
        <r>   -54.3350     0.0000     0.0000     0.0000     0.0000 </r>
        <r>   -54.0586     0.0000     0.0000     0.0000     0.0000 </r>
        <r>   -53.7821     0.0000     0.0000     0.0000     0.0000 </r>
        <r>   -53.5057     0.0000     0.0000     0.0000     0.0000 </r>
        <r>   -53.2292     0.0000     0.0000     0.0000     0.0000 </r>
        <r>   -52.9527     0.0000     0.0000     0.0000     0.0000 </r>
        <r>   -52.6763     0.0000     0.0000     0.0000     0.0000 </r>
        <r>   -52.3998     0.0000     0.0000     0.0000     0.0000 </r>
        <r>   -52.1234     0.0000     0.0000     0.0000     0.0000 </r>
        <r>   -51.8469     0.0000     0.0000     0.0000     0.0000 </r>
        <r>   -51.5705     0.0000     0.0000     0.0000     0.0000 </r>
        <r>   -51.2940     0.0000     0.0000     0.0000     0.0000 </r>
        <r>   -51.0175     0.0000     0.0000     0.0000     0.0000 </r>
        <r>   -50.7411     0.0000     0.0000     0.0000     0.0000 </r>
        <r>   -50.4646     0.0000     0.0000     0.0000     0.0000 </r>
        <r>   -50.1882     0.0000     0.0000     0.0000     0.0000 </r>
        <r>   -49.9117     0.0000     0.0000     0.0000     0.0000 </r>
        <r>   -49.6352     0.0000     0.0000     0.0000     0.0000 </r>
        <r>   -49.3588     0.0000     0.0000     0.0000     0.0000 </r>
        <r>   -49.0823     0.0000     0.0000     0.0000     0.0000 </r>
        <r>   -48.8059     0.0000     0.0000     0.0000     0.0000 </r>
        <r>   -48.5294     0.0000     0.0000     0.0000     0.0000 </r>
        <r>   -48.2530     0.0000     0.0000     0.0000     0.0000 </r>
        <r>   -47.9765     0.0000     0.0000     0.0000     0.0000 </r>
        <r>   -47.7000     0.0000     0.0000     0.0000     0.0000 </r>
        <r>   -47.4236     0.0000     0.0000     0.0000     0.0000 </r>
        <r>   -47.1471     0.0000     0.0000     0.0000     0.0000 </r>
        <r>   -46.8707     0.0019     0.6863     0.0004     0.0001 </r>
        <r>   -46.5942     0.0000     0.0000     0.0000     0.0000 </r>
        <r>   -46.3177     0.0000     0.0000     0.0000     0.0000 </r>
        <r>   -46.0413     0.0000     1.0942     0.0007     0.0003 </r>
        <r>   -45.7648     0.0000     0.0000     0.0000     0.0000 </r>
        <r>   -45.4884     0.0013     0.9966     0.0006     0.0002 </r>
        <r>   -45.2119     0.0000     0.4372     0.0003     0.0000 </r>
        <r>   -44.9355     0.0000     0.0000     0.0000     0.0000 </r>
        <r>   -44.6590     0.0000     0.0000     0.0000     0.0000 </r>
        <r>   -44.3825     0.0000     0.0000     0.0000     0.0000 </r>
        <r>   -44.1061     0.0000     0.0000     0.0000     0.0000 </r>
        <r>   -43.8296     0.0000     0.0000     0.0000     0.0000 </r>
        <r>   -43.5532     0.0000     0.0000     0.0000     0.0000 </r>
        <r>   -43.2767     0.0000     0.0000     0.0000     0.0000 </r>
        <r>   -43.0002     0.0000     0.0000     0.0000     0.0000 </r>
        <r>   -42.7238     0.0000     0.0000     0.0000     0.0000 </r>
        <r>   -42.4473     0.0000     0.0000     0.0000     0.0000 </r>
        <r>   -42.1709     0.0000     0.0000     0.0000     0.0000 </r>
        <r>   -41.8944     0.0000     0.0000     0.0000     0.0000 </r>
        <r>   -41.6180     0.0000     0.0000     0.0000     0.0000 </r>
        <r>   -41.3415     0.0000     0.0000     0.0000     0.0000 </r>
        <r>   -41.0650     0.0000     0.0000     0.0000     0.0000 </r>
        <r>   -40.7886     0.0000     0.0000     0.0000     0.0000 </r>
        <r>   -40.5121     0.0000     0.0000     0.0000     0.0000 </r>
        <r>   -40.2357     0.0000     0.0000     0.0000     0.0000 </r>
        <r>   -39.9592     0.0000     0.0000     0.0000     0.0000 </r>
        <r>   -39.6828     0.0000     0.0000     0.0000     0.0000 </r>
        <r>   -39.4063     0.0000     0.0000     0.0000     0.0000 </r>
        <r>   -39.1298     0.0000     0.0000     0.0000     0.0000 </r>
        <r>   -38.8534     0.0000     0.0000     0.0000     0.0000 </r>
        <r>   -38.5769     0.0000     0.0000     0.0000     0.0000 </r>
        <r>   -38.3005     0.0000     0.0000     0.0000     0.0000 </r>
        <r>   -38.0240     0.0000     0.0000     0.0000     0.0000 </r>
        <r>   -37.7475     0.0000     0.0000     0.0000     0.0000 </r>
        <r>   -37.4711     0.0000     0.0000     0.0000     0.0000 </r>
        <r>   -37.1946     0.0000     0.0000     0.0000     0.0000 </r>
        <r>   -36.9182     0.0000     0.0000     0.0000     0.0000 </r>
        <r>   -36.6417     0.0000     0.0000     0.0000     0.0000 </r>
        <r>   -36.3653     0.0000     0.0000     0.0000     0.0000 </r>
        <r>   -36.0888     0.0000     0.0000     0.0000     0.0000 </r>
        <r>   -35.8123     0.0000     0.0000     0.0000     0.0000 </r>
        <r>   -35.5359     0.0000     0.0000     0.0000     0.0000 </r>
        <r>   -35.2594     0.0000     0.0000     0.0000     0.0000 </r>
        <r>   -34.9830     0.0000     0.0000     0.0000     0.0000 </r>
        <r>   -34.7065     0.0000     0.0000     0.0000     0.0000 </r>
        <r>   -34.4300     0.0000     0.0000     0.0000     0.0000 </r>
        <r>   -34.1536     0.0000     0.0000     0.0000     0.0000 </r>
        <r>   -33.8771     0.0000     0.0000     0.0000     0.0000 </r>
        <r>   -33.6007     0.0000     0.0000     0.0000     0.0000 </r>
        <r>   -33.3242     0.0000     0.0000     0.0000     0.0000 </r>
        <r>   -33.0478     0.0000     0.0000     0.0000     0.0000 </r>
        <r>   -32.7713     0.0000     0.0000     0.0000     0.0000 </r>
        <r>   -32.4948     0.0000     0.0000     0.0000     0.0000 </r>
        <r>   -32.2184     0.0000     0.0000     0.0000     0.0000 </r>
        <r>   -31.9419     0.0000     0.0000     0.0000     0.0000 </r>
        <r>   -31.6655     0.0000     0.0000     0.0000     0.0000 </r>
        <r>   -31.3890     0.0000     0.0000     0.0000     0.0000 </r>
        <r>   -31.1125     0.0000     0.0000     0.0000     0.0000 </r>
        <r>   -30.8361     0.0000     0.0000     0.0000     0.0000 </r>
        <r>   -30.5596     0.0000     0.0000     0.0000     0.0000 </r>
        <r>   -30.2832     0.0000     0.0000     0.0000     0.0000 </r>
        <r>   -30.0067     0.0000     0.0000     0.0000     0.0000 </r>
        <r>   -29.7303     0.0000     0.0000     0.0000     0.0000 </r>
        <r>   -29.4538     0.0000     0.0000     0.0000     0.0000 </r>
        <r>   -29.1773     0.0000     0.0000     0.0000     0.0000 </r>
        <r>   -28.9009     0.0000     0.0000     0.0000     0.0000 </r>
        <r>   -28.6244     0.0000     0.0000     0.0000     0.0000 </r>
        <r>   -28.3480     0.0000     0.0000     0.0000     0.0000 </r>
        <r>   -28.0715     0.0000     0.0000     0.0000     0.0000 </r>
        <r>   -27.7950     0.0000     0.0000     0.0000     0.0000 </r>
        <r>   -27.5186     0.0000     0.0000     0.0000     0.0000 </r>
        <r>   -27.2421     0.0000     0.0000     0.0000     0.0000 </r>
        <r>   -26.9657     0.0000     0.0000     0.0000     0.0000 </r>
        <r>   -26.6892     0.0000     0.0000     0.0000     0.0000 </r>
        <r>   -26.4128     0.0000     0.0000     0.0000     0.0000 </r>
        <r>   -26.1363     0.0000     0.0000     0.0000     0.0000 </r>
        <r>   -25.8598     0.0000     0.0000     0.0000     0.0000 </r>
        <r>   -25.5834     0.0000     0.0000     0.0000     0.0000 </r>
        <r>   -25.3069     0.0000     0.0000     0.0000     0.0000 </r>
        <r>   -25.0305     0.0000     0.0000     0.0000     0.0000 </r>
        <r>   -24.7540     0.0000     0.0000     0.0000     0.0000 </r>
        <r>   -24.4776     0.0000     0.0000     0.0000     0.0000 </r>
        <r>   -24.2011     0.0000     0.0000     0.0000     0.0000 </r>
        <r>   -23.9246     0.0000     0.0000     0.0000     0.0000 </r>
        <r>   -23.6482     0.0000     0.0000     0.0000     0.0000 </r>
        <r>   -23.3717     0.0000     0.0000     0.0000     0.0000 </r>
        <r>   -23.0953     0.0000     0.0000     0.0000     0.0000 </r>
        <r>   -22.8188     0.0000     0.0000     0.0000     0.0000 </r>
        <r>   -22.5423     0.0000     0.0000     0.0000     0.0000 </r>
        <r>   -22.2659     0.0000     0.0000     0.0000     0.0000 </r>
        <r>   -21.9894     0.0000     0.0000     0.0000     0.0000 </r>
        <r>   -21.7130     0.0000     0.0000     0.0000     0.0000 </r>
        <r>   -21.4365     0.0000     0.0000     0.0000     0.0000 </r>
        <r>   -21.1601     0.0000     0.0000     0.0000     0.0000 </r>
        <r>   -20.8836     0.0000     0.0000     0.0000     0.0000 </r>
        <r>   -20.6071     0.0000     0.0000     0.0000     0.0000 </r>
        <r>   -20.3307     0.0000     0.0000     0.0000     0.0000 </r>
        <r>   -20.0542     0.0000     0.0000     0.0000     0.0000 </r>
        <r>   -19.7778     0.0000     0.0000     0.0000     0.0000 </r>
        <r>   -19.5013     0.0000     0.0000     0.0000     0.0000 </r>
        <r>   -19.2248     0.0000     0.0000     0.0000     0.0000 </r>
        <r>   -18.9484     0.0000     0.0000     0.0000     0.0000 </r>
        <r>   -18.6719     0.0000     0.0000     0.0000     0.0000 </r>
        <r>   -18.3955     0.0000     0.0000     0.0000     0.0000 </r>
        <r>   -18.1190     0.0000     0.0000     0.0000     0.0000 </r>
        <r>   -17.8426     0.0000     0.0000     0.0000     0.0000 </r>
        <r>   -17.5661     0.0000     0.0000     0.0000     0.0000 </r>
        <r>   -17.2896     0.0000     0.0000     0.0000     0.0000 </r>
        <r>   -17.0132     0.0000     0.0000     0.0000     0.0000 </r>
        <r>   -16.7367     0.0000     0.0000     0.0000     0.0000 </r>
        <r>   -16.4603     0.0000     0.0000     0.0000     0.0000 </r>
        <r>   -16.1838     0.0000     0.0000     0.0000     0.0000 </r>
        <r>   -15.9073     0.0000     0.0000     0.0000     0.0000 </r>
        <r>   -15.6309     0.0000     0.0000     0.0000     0.0000 </r>
        <r>   -15.3544     0.0000     0.0000     0.0000     0.0000 </r>
        <r>   -15.0780     0.0000     0.0000     0.0000     0.0000 </r>
        <r>   -14.8015     0.0000     0.0000     0.0000     0.0000 </r>
        <r>   -14.5251     0.0000     0.0000     0.0000     0.0000 </r>
        <r>   -14.2486     0.0000     0.0000     0.0000     0.0000 </r>
        <r>   -13.9721     0.0000     0.0000     0.0000     0.0000 </r>
        <r>   -13.6957     0.0000     0.0000     0.0000     0.0000 </r>
        <r>   -13.4192     0.0000     0.0000     0.0000     0.0000 </r>
        <r>   -13.1428     0.0000     0.0000     0.0000     0.0000 </r>
        <r>   -12.8663     0.0000     0.0000     0.0000     0.0000 </r>
        <r>   -12.5899     0.0000     0.0000     0.0000     0.0000 </r>
        <r>   -12.3134     0.0000     0.0000     0.0000     0.0000 </r>
        <r>   -12.0369     0.0000     0.0000     0.0000     0.0000 </r>
        <r>   -11.7605     0.0000     0.0000     0.0000     0.0000 </r>
        <r>   -11.4840     0.0000     0.0000     0.0000     0.0000 </r>
        <r>   -11.2076     0.0000     0.0000     0.0000     0.0000 </r>
        <r>   -10.9311     0.0000     0.0000     0.0000     0.0000 </r>
        <r>   -10.6546     0.0000     0.0000     0.0000     0.0000 </r>
        <r>   -10.3782     0.0000     0.0000     0.0000     0.0000 </r>
        <r>   -10.1017     0.0000     0.0000     0.0000     0.0000 </r>
        <r>    -9.8253     0.0000     0.0000     0.0000     0.0000 </r>
        <r>    -9.5488     0.0000     0.0000     0.0000     0.0000 </r>
        <r>    -9.2724     0.0000     0.0000     0.0000     0.0000 </r>
        <r>    -8.9959     0.0000     0.0000     0.0000     0.0000 </r>
        <r>    -8.7194     0.0000     0.0000     0.0000     0.0000 </r>
        <r>    -8.4430     0.0000     0.0000     0.0000     0.0000 </r>
        <r>    -8.1665     0.0000     0.0000     0.0000     0.0000 </r>
        <r>    -7.8901     0.0000     0.0000     0.0000     0.0000 </r>
        <r>    -7.6136     0.0000     0.0000     0.0000     0.0000 </r>
        <r>    -7.3371     0.0000     0.0000     0.0000     0.0000 </r>
        <r>    -7.0607     0.0000     0.0000     0.0000     0.0000 </r>
        <r>    -6.7842     0.0000     0.0000     0.0000     0.0000 </r>
        <r>    -6.5078     0.0000     0.0000     0.0000     0.0000 </r>
        <r>    -6.2313     0.0000     0.0000     0.0000     0.0000 </r>
        <r>    -5.9549     0.0000     0.0042     0.9527     0.0037 </r>
        <r>    -5.6784     0.0000     0.0000     0.0000     0.0000 </r>
        <r>    -5.4019     0.0000     0.0000     0.0000     0.0000 </r>
        <r>    -5.1255     0.0000     0.0000     0.0008     0.0000 </r>
        <r>    -4.8490     0.0009     0.0000     0.0017     0.0000 </r>
        <r>    -4.5726     0.0000     0.0000     0.0000     0.0000 </r>
        <r>    -4.2961     0.0000     0.0000     0.0000     0.0000 </r>
        <r>    -4.0196     0.0000     0.0000     0.0000     0.0000 </r>
        <r>    -3.7432     0.0000     0.0068     0.0162     0.0020 </r>
        <r>    -3.4667     0.0000     0.0000     0.0000     0.0000 </r>
        <r>    -3.1903     0.0000     0.0000     0.0000     0.0000 </r>
        <r>    -2.9138     0.0000     0.0000     0.1618     0.0033 </r>
        <r>    -2.6374     0.0000     0.0000     0.0000     0.0000 </r>
        <r>    -2.3609     0.0000     0.0000     0.0000     0.0000 </r>
        <r>    -2.0844     0.0069     0.0165     0.8046     0.0093 </r>
        <r>    -1.8080     0.0000     0.0000     0.0000     0.0000 </r>
        <r>    -1.5315     0.0000     0.0000     0.0000     0.0000 </r>
        <r>    -1.2551     0.0000     0.0000     0.0000     0.0000 </r>
        <r>    -0.9786     0.0000     0.0000     0.0000     0.0000 </r>
        <r>    -0.7021     0.0000     0.0000     0.0000     0.0000 </r>
        <r>    -0.4257     0.0000     0.0000     0.0000     0.0000 </r>
        <r>    -0.1492     0.0000     0.0000     0.0000     0.0000 </r>
        <r>     0.1272     0.0000     0.0000     0.0000     0.0000 </r>
        <r>     0.4037     0.0000     0.0000     0.0000     0.0000 </r>
        <r>     0.6801     0.0000     0.0000     0.0000     0.0000 </r>
        <r>     0.9566     0.0000     0.0000     0.0000     0.0000 </r>
        <r>     1.2331     0.0000     0.0000     0.0000     0.0000 </r>
        <r>     1.5095     0.0000     0.0000     0.0000     0.0000 </r>
        <r>     1.7860     0.0000     0.0000     0.0000     0.0000 </r>
        <r>     2.0624     0.0000     0.0000     0.0000     0.0000 </r>
        <r>     2.3389     0.0000     0.0000     0.0000     0.0000 </r>
        <r>     2.6153     0.0000     0.0000     0.0000     0.0000 </r>
        <r>     2.8918     0.0000     0.0000     0.0000     0.0000 </r>
       </set>
      </set>
      <set comment="ion 6">
       <set comment="spin 1">
        <r>   -80.0456     0.0000     0.0000     0.0000     0.0000 </r>
        <r>   -79.7692     0.0000     0.0000     0.0000     0.0000 </r>
        <r>   -79.4927     0.0000     0.0000     0.0000     0.0000 </r>
        <r>   -79.2163     0.0000     0.0000     0.0000     0.0000 </r>
        <r>   -78.9398     0.0000     0.0000     0.0000     0.0000 </r>
        <r>   -78.6634     0.0000     0.0000     0.0000     0.0000 </r>
        <r>   -78.3869     0.0000     0.0000     0.0000     0.0000 </r>
        <r>   -78.1104     0.0000     0.0000     0.0000     0.0000 </r>
        <r>   -77.8340     0.0000     0.0000     0.0000     0.0000 </r>
        <r>   -77.5575     0.0000     0.0000     0.0000     0.0000 </r>
        <r>   -77.2811     0.0000     0.0000     0.0000     0.0000 </r>
        <r>   -77.0046     0.0000     0.0000     0.0000     0.0000 </r>
        <r>   -76.7281     0.0000     0.0000     0.0000     0.0000 </r>
        <r>   -76.4517     0.0000     0.0000     0.0000     0.0000 </r>
        <r>   -76.1752     0.0000     0.0000     0.0000     0.0000 </r>
        <r>   -75.8988     0.9785     0.0001     0.0002     0.0000 </r>
        <r>   -75.6223     0.0000     0.0000     0.0000     0.0000 </r>
        <r>   -75.3459     0.0000     0.0000     0.0000     0.0000 </r>
        <r>   -75.0694     0.0000     0.0000     0.0000     0.0000 </r>
        <r>   -74.7929     0.0000     0.0000     0.0000     0.0000 </r>
        <r>   -74.5165     0.0000     0.0000     0.0000     0.0000 </r>
        <r>   -74.2400     0.0000     0.0000     0.0000     0.0000 </r>
        <r>   -73.9636     0.0000     0.0000     0.0000     0.0000 </r>
        <r>   -73.6871     0.0000     0.0000     0.0000     0.0000 </r>
        <r>   -73.4106     0.0000     0.0000     0.0000     0.0000 </r>
        <r>   -73.1342     0.0000     0.0000     0.0000     0.0000 </r>
        <r>   -72.8577     0.0000     0.0000     0.0000     0.0000 </r>
        <r>   -72.5813     0.0000     0.0000     0.0000     0.0000 </r>
        <r>   -72.3048     0.0000     0.0000     0.0000     0.0000 </r>
        <r>   -72.0284     0.0000     0.0000     0.0000     0.0000 </r>
        <r>   -71.7519     0.0000     0.0000     0.0000     0.0000 </r>
        <r>   -71.4754     0.0000     0.0000     0.0000     0.0000 </r>
        <r>   -71.1990     0.0000     0.0000     0.0000     0.0000 </r>
        <r>   -70.9225     0.0000     0.0000     0.0000     0.0000 </r>
        <r>   -70.6461     0.0000     0.0000     0.0000     0.0000 </r>
        <r>   -70.3696     0.0000     0.0000     0.0000     0.0000 </r>
        <r>   -70.0931     0.0000     0.0000     0.0000     0.0000 </r>
        <r>   -69.8167     0.0000     0.0000     0.0000     0.0000 </r>
        <r>   -69.5402     0.0000     0.0000     0.0000     0.0000 </r>
        <r>   -69.2638     0.0000     0.0000     0.0000     0.0000 </r>
        <r>   -68.9873     0.0000     0.0000     0.0000     0.0000 </r>
        <r>   -68.7109     0.0000     0.0000     0.0000     0.0000 </r>
        <r>   -68.4344     0.0000     0.0000     0.0000     0.0000 </r>
        <r>   -68.1579     0.0000     0.0000     0.0000     0.0000 </r>
        <r>   -67.8815     0.0000     0.0000     0.0000     0.0000 </r>
        <r>   -67.6050     0.0000     0.0000     0.0000     0.0000 </r>
        <r>   -67.3286     0.0000     0.0000     0.0000     0.0000 </r>
        <r>   -67.0521     0.0000     0.0000     0.0000     0.0000 </r>
        <r>   -66.7756     0.0000     0.0000     0.0000     0.0000 </r>
        <r>   -66.4992     0.0000     0.0000     0.0000     0.0000 </r>
        <r>   -66.2227     0.0000     0.0000     0.0000     0.0000 </r>
        <r>   -65.9463     0.0000     0.0000     0.0000     0.0000 </r>
        <r>   -65.6698     0.0000     0.0000     0.0000     0.0000 </r>
        <r>   -65.3934     0.0000     0.0000     0.0000     0.0000 </r>
        <r>   -65.1169     0.0000     0.0000     0.0000     0.0000 </r>
        <r>   -64.8404     0.0000     0.0000     0.0000     0.0000 </r>
        <r>   -64.5640     0.0000     0.0000     0.0000     0.0000 </r>
        <r>   -64.2875     0.0000     0.0000     0.0000     0.0000 </r>
        <r>   -64.0111     0.0000     0.0000     0.0000     0.0000 </r>
        <r>   -63.7346     0.0000     0.0000     0.0000     0.0000 </r>
        <r>   -63.4582     0.0000     0.0000     0.0000     0.0000 </r>
        <r>   -63.1817     0.0000     0.0000     0.0000     0.0000 </r>
        <r>   -62.9052     0.0000     0.0000     0.0000     0.0000 </r>
        <r>   -62.6288     0.0000     0.0000     0.0000     0.0000 </r>
        <r>   -62.3523     0.0000     0.0000     0.0000     0.0000 </r>
        <r>   -62.0759     0.0000     0.0000     0.0000     0.0000 </r>
        <r>   -61.7994     0.0000     0.0000     0.0000     0.0000 </r>
        <r>   -61.5229     0.0000     0.0000     0.0000     0.0000 </r>
        <r>   -61.2465     0.0000     0.0000     0.0000     0.0000 </r>
        <r>   -60.9700     0.0000     0.0000     0.0000     0.0000 </r>
        <r>   -60.6936     0.0000     0.0000     0.0000     0.0000 </r>
        <r>   -60.4171     0.0000     0.0000     0.0000     0.0000 </r>
        <r>   -60.1407     0.0000     0.0000     0.0000     0.0000 </r>
        <r>   -59.8642     0.0000     0.0000     0.0000     0.0000 </r>
        <r>   -59.5877     0.0000     0.0000     0.0000     0.0000 </r>
        <r>   -59.3113     0.0000     0.0000     0.0000     0.0000 </r>
        <r>   -59.0348     0.0000     0.0000     0.0000     0.0000 </r>
        <r>   -58.7584     0.0000     0.0000     0.0000     0.0000 </r>
        <r>   -58.4819     0.0000     0.0000     0.0000     0.0000 </r>
        <r>   -58.2054     0.0000     0.0000     0.0000     0.0000 </r>
        <r>   -57.9290     0.0000     0.0000     0.0000     0.0000 </r>
        <r>   -57.6525     0.0000     0.0000     0.0000     0.0000 </r>
        <r>   -57.3761     0.0000     0.0000     0.0000     0.0000 </r>
        <r>   -57.0996     0.0000     0.0000     0.0000     0.0000 </r>
        <r>   -56.8232     0.0000     0.0000     0.0000     0.0000 </r>
        <r>   -56.5467     0.0000     0.0000     0.0000     0.0000 </r>
        <r>   -56.2702     0.0000     0.0000     0.0000     0.0000 </r>
        <r>   -55.9938     0.0000     0.0000     0.0000     0.0000 </r>
        <r>   -55.7173     0.0000     0.0000     0.0000     0.0000 </r>
        <r>   -55.4409     0.0000     0.0000     0.0000     0.0000 </r>
        <r>   -55.1644     0.0000     0.0000     0.0000     0.0000 </r>
        <r>   -54.8879     0.0000     0.0000     0.0000     0.0000 </r>
        <r>   -54.6115     0.0000     0.0000     0.0000     0.0000 </r>
        <r>   -54.3350     0.0000     0.0000     0.0000     0.0000 </r>
        <r>   -54.0586     0.0000     0.0000     0.0000     0.0000 </r>
        <r>   -53.7821     0.0000     0.0000     0.0000     0.0000 </r>
        <r>   -53.5057     0.0000     0.0000     0.0000     0.0000 </r>
        <r>   -53.2292     0.0000     0.0000     0.0000     0.0000 </r>
        <r>   -52.9527     0.0000     0.0000     0.0000     0.0000 </r>
        <r>   -52.6763     0.0000     0.0000     0.0000     0.0000 </r>
        <r>   -52.3998     0.0000     0.0000     0.0000     0.0000 </r>
        <r>   -52.1234     0.0000     0.0000     0.0000     0.0000 </r>
        <r>   -51.8469     0.0000     0.0000     0.0000     0.0000 </r>
        <r>   -51.5705     0.0000     0.0000     0.0000     0.0000 </r>
        <r>   -51.2940     0.0000     0.0000     0.0000     0.0000 </r>
        <r>   -51.0175     0.0000     0.0000     0.0000     0.0000 </r>
        <r>   -50.7411     0.0000     0.0000     0.0000     0.0000 </r>
        <r>   -50.4646     0.0000     0.0000     0.0000     0.0000 </r>
        <r>   -50.1882     0.0000     0.0000     0.0000     0.0000 </r>
        <r>   -49.9117     0.0000     0.0000     0.0000     0.0000 </r>
        <r>   -49.6352     0.0000     0.0000     0.0000     0.0000 </r>
        <r>   -49.3588     0.0000     0.0000     0.0000     0.0000 </r>
        <r>   -49.0823     0.0000     0.0000     0.0000     0.0000 </r>
        <r>   -48.8059     0.0000     0.0000     0.0000     0.0000 </r>
        <r>   -48.5294     0.0000     0.0000     0.0000     0.0000 </r>
        <r>   -48.2530     0.0000     0.0000     0.0000     0.0000 </r>
        <r>   -47.9765     0.0000     0.0000     0.0000     0.0000 </r>
        <r>   -47.7000     0.0000     0.0000     0.0000     0.0000 </r>
        <r>   -47.4236     0.0000     0.0000     0.0000     0.0000 </r>
        <r>   -47.1471     0.0000     0.0000     0.0000     0.0000 </r>
        <r>   -46.8707     0.0000     0.0000     0.0000     0.0000 </r>
        <r>   -46.5942     0.0008     0.8908     0.0012     0.0002 </r>
        <r>   -46.3177     0.0000     0.0000     0.0000     0.0000 </r>
        <r>   -46.0413     0.0000     0.0000     0.0000     0.0000 </r>
        <r>   -45.7648     0.0001     0.1049     0.0001     0.0000 </r>
        <r>   -45.4884     0.0000     0.0000     0.0000     0.0000 </r>
        <r>   -45.2119     0.0000     0.0000     0.0000     0.0000 </r>
        <r>   -44.9355     0.0000     0.0000     0.0000     0.0000 </r>
        <r>   -44.6590     0.0000     0.0000     0.0000     0.0000 </r>
        <r>   -44.3825     0.0000     0.0000     0.0000     0.0000 </r>
        <r>   -44.1061     0.0000     0.0000     0.0000     0.0000 </r>
        <r>   -43.8296     0.0000     0.0000     0.0000     0.0000 </r>
        <r>   -43.5532     0.0000     0.0000     0.0000     0.0000 </r>
        <r>   -43.2767     0.0000     0.0000     0.0000     0.0000 </r>
        <r>   -43.0002     0.0000     0.0000     0.0000     0.0000 </r>
        <r>   -42.7238     0.0000     0.0000     0.0000     0.0000 </r>
        <r>   -42.4473     0.0000     0.0000     0.0000     0.0000 </r>
        <r>   -42.1709     0.0000     0.0000     0.0000     0.0000 </r>
        <r>   -41.8944     0.0000     0.0000     0.0000     0.0000 </r>
        <r>   -41.6180     0.0000     0.0000     0.0000     0.0000 </r>
        <r>   -41.3415     0.0000     0.0000     0.0000     0.0000 </r>
        <r>   -41.0650     0.0000     0.0000     0.0000     0.0000 </r>
        <r>   -40.7886     0.0000     0.0000     0.0000     0.0000 </r>
        <r>   -40.5121     0.0000     0.0000     0.0000     0.0000 </r>
        <r>   -40.2357     0.0000     0.0000     0.0000     0.0000 </r>
        <r>   -39.9592     0.0000     0.0000     0.0000     0.0000 </r>
        <r>   -39.6828     0.0000     0.0000     0.0000     0.0000 </r>
        <r>   -39.4063     0.0000     0.0000     0.0000     0.0000 </r>
        <r>   -39.1298     0.0000     0.0000     0.0000     0.0000 </r>
        <r>   -38.8534     0.0000     0.0000     0.0000     0.0000 </r>
        <r>   -38.5769     0.0000     0.0000     0.0000     0.0000 </r>
        <r>   -38.3005     0.0000     0.0000     0.0000     0.0000 </r>
        <r>   -38.0240     0.0000     0.0000     0.0000     0.0000 </r>
        <r>   -37.7475     0.0000     0.0000     0.0000     0.0000 </r>
        <r>   -37.4711     0.0000     0.0000     0.0000     0.0000 </r>
        <r>   -37.1946     0.0000     0.0000     0.0000     0.0000 </r>
        <r>   -36.9182     0.0000     0.0000     0.0000     0.0000 </r>
        <r>   -36.6417     0.0000     0.0000     0.0000     0.0000 </r>
        <r>   -36.3653     0.0000     0.0000     0.0000     0.0000 </r>
        <r>   -36.0888     0.0000     0.0000     0.0000     0.0000 </r>
        <r>   -35.8123     0.0000     0.0000     0.0000     0.0000 </r>
        <r>   -35.5359     0.0000     0.0000     0.0000     0.0000 </r>
        <r>   -35.2594     0.0000     0.0000     0.0000     0.0000 </r>
        <r>   -34.9830     0.0000     0.0000     0.0000     0.0000 </r>
        <r>   -34.7065     0.0000     0.0000     0.0000     0.0000 </r>
        <r>   -34.4300     0.0000     0.0000     0.0000     0.0000 </r>
        <r>   -34.1536     0.0000     0.0000     0.0000     0.0000 </r>
        <r>   -33.8771     0.0000     0.0000     0.0000     0.0000 </r>
        <r>   -33.6007     0.0000     0.0000     0.0000     0.0000 </r>
        <r>   -33.3242     0.0000     0.0000     0.0000     0.0000 </r>
        <r>   -33.0478     0.0000     0.0000     0.0000     0.0000 </r>
        <r>   -32.7713     0.0000     0.0000     0.0000     0.0000 </r>
        <r>   -32.4948     0.0000     0.0000     0.0000     0.0000 </r>
        <r>   -32.2184     0.0000     0.0000     0.0000     0.0000 </r>
        <r>   -31.9419     0.0000     0.0000     0.0000     0.0000 </r>
        <r>   -31.6655     0.0000     0.0000     0.0000     0.0000 </r>
        <r>   -31.3890     0.0000     0.0000     0.0000     0.0000 </r>
        <r>   -31.1125     0.0000     0.0000     0.0000     0.0000 </r>
        <r>   -30.8361     0.0000     0.0000     0.0000     0.0000 </r>
        <r>   -30.5596     0.0000     0.0000     0.0000     0.0000 </r>
        <r>   -30.2832     0.0000     0.0000     0.0000     0.0000 </r>
        <r>   -30.0067     0.0000     0.0000     0.0000     0.0000 </r>
        <r>   -29.7303     0.0000     0.0000     0.0000     0.0000 </r>
        <r>   -29.4538     0.0000     0.0000     0.0000     0.0000 </r>
        <r>   -29.1773     0.0000     0.0000     0.0000     0.0000 </r>
        <r>   -28.9009     0.0000     0.0000     0.0000     0.0000 </r>
        <r>   -28.6244     0.0000     0.0000     0.0000     0.0000 </r>
        <r>   -28.3480     0.0000     0.0000     0.0000     0.0000 </r>
        <r>   -28.0715     0.0000     0.0000     0.0000     0.0000 </r>
        <r>   -27.7950     0.0000     0.0000     0.0000     0.0000 </r>
        <r>   -27.5186     0.0000     0.0000     0.0000     0.0000 </r>
        <r>   -27.2421     0.0000     0.0000     0.0000     0.0000 </r>
        <r>   -26.9657     0.0000     0.0000     0.0000     0.0000 </r>
        <r>   -26.6892     0.0000     0.0000     0.0000     0.0000 </r>
        <r>   -26.4128     0.0000     0.0000     0.0000     0.0000 </r>
        <r>   -26.1363     0.0000     0.0000     0.0000     0.0000 </r>
        <r>   -25.8598     0.0000     0.0000     0.0000     0.0000 </r>
        <r>   -25.5834     0.0000     0.0000     0.0000     0.0000 </r>
        <r>   -25.3069     0.0000     0.0000     0.0000     0.0000 </r>
        <r>   -25.0305     0.0000     0.0000     0.0000     0.0000 </r>
        <r>   -24.7540     0.0000     0.0000     0.0000     0.0000 </r>
        <r>   -24.4776     0.0000     0.0000     0.0000     0.0000 </r>
        <r>   -24.2011     0.0000     0.0000     0.0000     0.0000 </r>
        <r>   -23.9246     0.0000     0.0000     0.0000     0.0000 </r>
        <r>   -23.6482     0.0000     0.0000     0.0000     0.0000 </r>
        <r>   -23.3717     0.0000     0.0000     0.0000     0.0000 </r>
        <r>   -23.0953     0.0000     0.0000     0.0000     0.0000 </r>
        <r>   -22.8188     0.0000     0.0000     0.0000     0.0000 </r>
        <r>   -22.5423     0.0000     0.0000     0.0000     0.0000 </r>
        <r>   -22.2659     0.0000     0.0000     0.0000     0.0000 </r>
        <r>   -21.9894     0.0000     0.0000     0.0000     0.0000 </r>
        <r>   -21.7130     0.0000     0.0000     0.0000     0.0000 </r>
        <r>   -21.4365     0.0000     0.0000     0.0000     0.0000 </r>
        <r>   -21.1601     0.0000     0.0000     0.0000     0.0000 </r>
        <r>   -20.8836     0.0000     0.0000     0.0000     0.0000 </r>
        <r>   -20.6071     0.0000     0.0000     0.0000     0.0000 </r>
        <r>   -20.3307     0.0000     0.0000     0.0000     0.0000 </r>
        <r>   -20.0542     0.0000     0.0000     0.0000     0.0000 </r>
        <r>   -19.7778     0.0000     0.0000     0.0000     0.0000 </r>
        <r>   -19.5013     0.0000     0.0000     0.0000     0.0000 </r>
        <r>   -19.2248     0.0000     0.0000     0.0000     0.0000 </r>
        <r>   -18.9484     0.0000     0.0000     0.0000     0.0000 </r>
        <r>   -18.6719     0.0000     0.0000     0.0000     0.0000 </r>
        <r>   -18.3955     0.0000     0.0000     0.0000     0.0000 </r>
        <r>   -18.1190     0.0000     0.0000     0.0000     0.0000 </r>
        <r>   -17.8426     0.0000     0.0000     0.0000     0.0000 </r>
        <r>   -17.5661     0.0000     0.0000     0.0000     0.0000 </r>
        <r>   -17.2896     0.0000     0.0000     0.0000     0.0000 </r>
        <r>   -17.0132     0.0000     0.0000     0.0000     0.0000 </r>
        <r>   -16.7367     0.0000     0.0000     0.0000     0.0000 </r>
        <r>   -16.4603     0.0000     0.0000     0.0000     0.0000 </r>
        <r>   -16.1838     0.0000     0.0000     0.0000     0.0000 </r>
        <r>   -15.9073     0.0000     0.0000     0.0000     0.0000 </r>
        <r>   -15.6309     0.0000     0.0000     0.0000     0.0000 </r>
        <r>   -15.3544     0.0000     0.0000     0.0000     0.0000 </r>
        <r>   -15.0780     0.0000     0.0000     0.0000     0.0000 </r>
        <r>   -14.8015     0.0000     0.0000     0.0000     0.0000 </r>
        <r>   -14.5251     0.0000     0.0000     0.0000     0.0000 </r>
        <r>   -14.2486     0.0000     0.0000     0.0000     0.0000 </r>
        <r>   -13.9721     0.0000     0.0000     0.0000     0.0000 </r>
        <r>   -13.6957     0.0000     0.0000     0.0000     0.0000 </r>
        <r>   -13.4192     0.0000     0.0000     0.0000     0.0000 </r>
        <r>   -13.1428     0.0000     0.0000     0.0000     0.0000 </r>
        <r>   -12.8663     0.0000     0.0000     0.0000     0.0000 </r>
        <r>   -12.5899     0.0000     0.0000     0.0000     0.0000 </r>
        <r>   -12.3134     0.0000     0.0000     0.0000     0.0000 </r>
        <r>   -12.0369     0.0000     0.0000     0.0000     0.0000 </r>
        <r>   -11.7605     0.0000     0.0000     0.0000     0.0000 </r>
        <r>   -11.4840     0.0000     0.0000     0.0000     0.0000 </r>
        <r>   -11.2076     0.0000     0.0000     0.0000     0.0000 </r>
        <r>   -10.9311     0.0000     0.0000     0.0000     0.0000 </r>
        <r>   -10.6546     0.0000     0.0000     0.0000     0.0000 </r>
        <r>   -10.3782     0.0000     0.0000     0.0000     0.0000 </r>
        <r>   -10.1017     0.0000     0.0000     0.0000     0.0000 </r>
        <r>    -9.8253     0.0000     0.0000     0.0000     0.0000 </r>
        <r>    -9.5488     0.0000     0.0000     0.0000     0.0000 </r>
        <r>    -9.2724     0.0000     0.0000     0.0000     0.0000 </r>
        <r>    -8.9959     0.0000     0.0000     0.0000     0.0000 </r>
        <r>    -8.7194     0.0000     0.0000     0.0000     0.0000 </r>
        <r>    -8.4430     0.0000     0.0000     0.0000     0.0000 </r>
        <r>    -8.1665     0.0000     0.0000     0.0000     0.0000 </r>
        <r>    -7.8901     0.0000     0.0000     0.0000     0.0000 </r>
        <r>    -7.6136     0.0000     0.0000     0.0000     0.0000 </r>
        <r>    -7.3371     0.0000     0.0000     0.0000     0.0000 </r>
        <r>    -7.0607     0.0000     0.0000     0.0000     0.0000 </r>
        <r>    -6.7842     0.0000     0.0000     0.0000     0.0000 </r>
        <r>    -6.5078     0.0000     0.0000     0.0000     0.0000 </r>
        <r>    -6.2313     0.0000     0.0000     0.0000     0.0000 </r>
        <r>    -5.9549     0.0000     0.0000     0.0000     0.0000 </r>
        <r>    -5.6784     0.0000     0.0000     0.0000     0.0000 </r>
        <r>    -5.4019     0.0000     0.0000     0.0000     0.0000 </r>
        <r>    -5.1255     0.0037     0.0088     0.8524     0.0061 </r>
        <r>    -4.8490     0.0001     0.0017     0.5495     0.0042 </r>
        <r>    -4.5726     0.0000     0.0000     0.0000     0.0000 </r>
        <r>    -4.2961     0.0000     0.0000     0.0000     0.0000 </r>
        <r>    -4.0196     0.0000     0.0000     0.0000     0.0000 </r>
        <r>    -3.7432     0.0000     0.0000     0.0000     0.0000 </r>
        <r>    -3.4667     0.0000     0.0026     0.7135     0.0034 </r>
        <r>    -3.1903     0.0000     0.0000     0.0000     0.0000 </r>
        <r>    -2.9138     0.0000     0.0000     0.0000     0.0000 </r>
        <r>    -2.6374     0.0000     0.0000     0.0000     0.0000 </r>
        <r>    -2.3609     0.0000     0.0000     0.0000     0.0000 </r>
        <r>    -2.0844     0.0000     0.0000     0.0000     0.0000 </r>
        <r>    -1.8080     0.0000     0.0000     0.0000     0.0000 </r>
        <r>    -1.5315     0.0000     0.0000     0.0000     0.0000 </r>
        <r>    -1.2551     0.0000     0.0000     0.0000     0.0000 </r>
        <r>    -0.9786     0.0000     0.0000     0.0000     0.0000 </r>
        <r>    -0.7021     0.0000     0.0000     0.0000     0.0000 </r>
        <r>    -0.4257     0.0000     0.0000     0.0000     0.0000 </r>
        <r>    -0.1492     0.0000     0.0000     0.0000     0.0000 </r>
        <r>     0.1272     0.0000     0.0000     0.0000     0.0000 </r>
        <r>     0.4037     0.0000     0.0000     0.0000     0.0000 </r>
        <r>     0.6801     0.0000     0.0000     0.0000     0.0000 </r>
        <r>     0.9566     0.0000     0.0000     0.0000     0.0000 </r>
        <r>     1.2331     0.0000     0.0000     0.0000     0.0000 </r>
        <r>     1.5095     0.0000     0.0000     0.0000     0.0000 </r>
        <r>     1.7860     0.0000     0.0000     0.0000     0.0000 </r>
        <r>     2.0624     0.0000     0.0000     0.0000     0.0000 </r>
        <r>     2.3389     0.0000     0.0000     0.0000     0.0000 </r>
        <r>     2.6153     0.0000     0.0000     0.0000     0.0000 </r>
        <r>     2.8918     0.0000     0.0000     0.0000     0.0000 </r>
       </set>
       <set comment="spin 2">
        <r>   -80.0456     0.0000     0.0000     0.0000     0.0000 </r>
        <r>   -79.7692     0.0000     0.0000     0.0000     0.0000 </r>
        <r>   -79.4927     0.0000     0.0000     0.0000     0.0000 </r>
        <r>   -79.2163     0.0000     0.0000     0.0000     0.0000 </r>
        <r>   -78.9398     0.0000     0.0000     0.0000     0.0000 </r>
        <r>   -78.6634     0.0000     0.0000     0.0000     0.0000 </r>
        <r>   -78.3869     0.0000     0.0000     0.0000     0.0000 </r>
        <r>   -78.1104     0.0000     0.0000     0.0000     0.0000 </r>
        <r>   -77.8340     0.0000     0.0000     0.0000     0.0000 </r>
        <r>   -77.5575     0.0000     0.0000     0.0000     0.0000 </r>
        <r>   -77.2811     0.0000     0.0000     0.0000     0.0000 </r>
        <r>   -77.0046     0.0000     0.0000     0.0000     0.0000 </r>
        <r>   -76.7281     0.0000     0.0000     0.0000     0.0000 </r>
        <r>   -76.4517     0.0000     0.0000     0.0000     0.0000 </r>
        <r>   -76.1752     0.0000     0.0000     0.0000     0.0000 </r>
        <r>   -75.8988     0.0000     0.0000     0.0000     0.0000 </r>
        <r>   -75.6223     0.8995     0.0001     0.0001     0.0000 </r>
        <r>   -75.3459     0.0000     0.0000     0.0000     0.0000 </r>
        <r>   -75.0694     0.0000     0.0000     0.0000     0.0000 </r>
        <r>   -74.7929     0.0000     0.0000     0.0000     0.0000 </r>
        <r>   -74.5165     0.0000     0.0000     0.0000     0.0000 </r>
        <r>   -74.2400     0.0000     0.0000     0.0000     0.0000 </r>
        <r>   -73.9636     0.0000     0.0000     0.0000     0.0000 </r>
        <r>   -73.6871     0.0000     0.0000     0.0000     0.0000 </r>
        <r>   -73.4106     0.0000     0.0000     0.0000     0.0000 </r>
        <r>   -73.1342     0.0000     0.0000     0.0000     0.0000 </r>
        <r>   -72.8577     0.0000     0.0000     0.0000     0.0000 </r>
        <r>   -72.5813     0.0000     0.0000     0.0000     0.0000 </r>
        <r>   -72.3048     0.0000     0.0000     0.0000     0.0000 </r>
        <r>   -72.0284     0.0000     0.0000     0.0000     0.0000 </r>
        <r>   -71.7519     0.0000     0.0000     0.0000     0.0000 </r>
        <r>   -71.4754     0.0000     0.0000     0.0000     0.0000 </r>
        <r>   -71.1990     0.0000     0.0000     0.0000     0.0000 </r>
        <r>   -70.9225     0.0000     0.0000     0.0000     0.0000 </r>
        <r>   -70.6461     0.0000     0.0000     0.0000     0.0000 </r>
        <r>   -70.3696     0.0000     0.0000     0.0000     0.0000 </r>
        <r>   -70.0931     0.0000     0.0000     0.0000     0.0000 </r>
        <r>   -69.8167     0.0000     0.0000     0.0000     0.0000 </r>
        <r>   -69.5402     0.0000     0.0000     0.0000     0.0000 </r>
        <r>   -69.2638     0.0000     0.0000     0.0000     0.0000 </r>
        <r>   -68.9873     0.0000     0.0000     0.0000     0.0000 </r>
        <r>   -68.7109     0.0000     0.0000     0.0000     0.0000 </r>
        <r>   -68.4344     0.0000     0.0000     0.0000     0.0000 </r>
        <r>   -68.1579     0.0000     0.0000     0.0000     0.0000 </r>
        <r>   -67.8815     0.0000     0.0000     0.0000     0.0000 </r>
        <r>   -67.6050     0.0000     0.0000     0.0000     0.0000 </r>
        <r>   -67.3286     0.0000     0.0000     0.0000     0.0000 </r>
        <r>   -67.0521     0.0000     0.0000     0.0000     0.0000 </r>
        <r>   -66.7756     0.0000     0.0000     0.0000     0.0000 </r>
        <r>   -66.4992     0.0000     0.0000     0.0000     0.0000 </r>
        <r>   -66.2227     0.0000     0.0000     0.0000     0.0000 </r>
        <r>   -65.9463     0.0000     0.0000     0.0000     0.0000 </r>
        <r>   -65.6698     0.0000     0.0000     0.0000     0.0000 </r>
        <r>   -65.3934     0.0000     0.0000     0.0000     0.0000 </r>
        <r>   -65.1169     0.0000     0.0000     0.0000     0.0000 </r>
        <r>   -64.8404     0.0000     0.0000     0.0000     0.0000 </r>
        <r>   -64.5640     0.0000     0.0000     0.0000     0.0000 </r>
        <r>   -64.2875     0.0000     0.0000     0.0000     0.0000 </r>
        <r>   -64.0111     0.0000     0.0000     0.0000     0.0000 </r>
        <r>   -63.7346     0.0000     0.0000     0.0000     0.0000 </r>
        <r>   -63.4582     0.0000     0.0000     0.0000     0.0000 </r>
        <r>   -63.1817     0.0000     0.0000     0.0000     0.0000 </r>
        <r>   -62.9052     0.0000     0.0000     0.0000     0.0000 </r>
        <r>   -62.6288     0.0000     0.0000     0.0000     0.0000 </r>
        <r>   -62.3523     0.0000     0.0000     0.0000     0.0000 </r>
        <r>   -62.0759     0.0000     0.0000     0.0000     0.0000 </r>
        <r>   -61.7994     0.0000     0.0000     0.0000     0.0000 </r>
        <r>   -61.5229     0.0000     0.0000     0.0000     0.0000 </r>
        <r>   -61.2465     0.0000     0.0000     0.0000     0.0000 </r>
        <r>   -60.9700     0.0000     0.0000     0.0000     0.0000 </r>
        <r>   -60.6936     0.0000     0.0000     0.0000     0.0000 </r>
        <r>   -60.4171     0.0000     0.0000     0.0000     0.0000 </r>
        <r>   -60.1407     0.0000     0.0000     0.0000     0.0000 </r>
        <r>   -59.8642     0.0000     0.0000     0.0000     0.0000 </r>
        <r>   -59.5877     0.0000     0.0000     0.0000     0.0000 </r>
        <r>   -59.3113     0.0000     0.0000     0.0000     0.0000 </r>
        <r>   -59.0348     0.0000     0.0000     0.0000     0.0000 </r>
        <r>   -58.7584     0.0000     0.0000     0.0000     0.0000 </r>
        <r>   -58.4819     0.0000     0.0000     0.0000     0.0000 </r>
        <r>   -58.2054     0.0000     0.0000     0.0000     0.0000 </r>
        <r>   -57.9290     0.0000     0.0000     0.0000     0.0000 </r>
        <r>   -57.6525     0.0000     0.0000     0.0000     0.0000 </r>
        <r>   -57.3761     0.0000     0.0000     0.0000     0.0000 </r>
        <r>   -57.0996     0.0000     0.0000     0.0000     0.0000 </r>
        <r>   -56.8232     0.0000     0.0000     0.0000     0.0000 </r>
        <r>   -56.5467     0.0000     0.0000     0.0000     0.0000 </r>
        <r>   -56.2702     0.0000     0.0000     0.0000     0.0000 </r>
        <r>   -55.9938     0.0000     0.0000     0.0000     0.0000 </r>
        <r>   -55.7173     0.0000     0.0000     0.0000     0.0000 </r>
        <r>   -55.4409     0.0000     0.0000     0.0000     0.0000 </r>
        <r>   -55.1644     0.0000     0.0000     0.0000     0.0000 </r>
        <r>   -54.8879     0.0000     0.0000     0.0000     0.0000 </r>
        <r>   -54.6115     0.0000     0.0000     0.0000     0.0000 </r>
        <r>   -54.3350     0.0000     0.0000     0.0000     0.0000 </r>
        <r>   -54.0586     0.0000     0.0000     0.0000     0.0000 </r>
        <r>   -53.7821     0.0000     0.0000     0.0000     0.0000 </r>
        <r>   -53.5057     0.0000     0.0000     0.0000     0.0000 </r>
        <r>   -53.2292     0.0000     0.0000     0.0000     0.0000 </r>
        <r>   -52.9527     0.0000     0.0000     0.0000     0.0000 </r>
        <r>   -52.6763     0.0000     0.0000     0.0000     0.0000 </r>
        <r>   -52.3998     0.0000     0.0000     0.0000     0.0000 </r>
        <r>   -52.1234     0.0000     0.0000     0.0000     0.0000 </r>
        <r>   -51.8469     0.0000     0.0000     0.0000     0.0000 </r>
        <r>   -51.5705     0.0000     0.0000     0.0000     0.0000 </r>
        <r>   -51.2940     0.0000     0.0000     0.0000     0.0000 </r>
        <r>   -51.0175     0.0000     0.0000     0.0000     0.0000 </r>
        <r>   -50.7411     0.0000     0.0000     0.0000     0.0000 </r>
        <r>   -50.4646     0.0000     0.0000     0.0000     0.0000 </r>
        <r>   -50.1882     0.0000     0.0000     0.0000     0.0000 </r>
        <r>   -49.9117     0.0000     0.0000     0.0000     0.0000 </r>
        <r>   -49.6352     0.0000     0.0000     0.0000     0.0000 </r>
        <r>   -49.3588     0.0000     0.0000     0.0000     0.0000 </r>
        <r>   -49.0823     0.0000     0.0000     0.0000     0.0000 </r>
        <r>   -48.8059     0.0000     0.0000     0.0000     0.0000 </r>
        <r>   -48.5294     0.0000     0.0000     0.0000     0.0000 </r>
        <r>   -48.2530     0.0000     0.0000     0.0000     0.0000 </r>
        <r>   -47.9765     0.0000     0.0000     0.0000     0.0000 </r>
        <r>   -47.7000     0.0000     0.0000     0.0000     0.0000 </r>
        <r>   -47.4236     0.0000     0.0000     0.0000     0.0000 </r>
        <r>   -47.1471     0.0000     0.0000     0.0000     0.0000 </r>
        <r>   -46.8707     0.0016     0.5345     0.0007     0.0001 </r>
        <r>   -46.5942     0.0000     0.0000     0.0000     0.0000 </r>
        <r>   -46.3177     0.0000     0.0000     0.0000     0.0000 </r>
        <r>   -46.0413     0.0000     0.8076     0.0011     0.0004 </r>
        <r>   -45.7648     0.0000     0.0000     0.0000     0.0000 </r>
        <r>   -45.4884     0.0008     0.9464     0.0005     0.0001 </r>
        <r>   -45.2119     0.0000     0.6831     0.0005     0.0000 </r>
        <r>   -44.9355     0.0000     0.0000     0.0000     0.0000 </r>
        <r>   -44.6590     0.0000     0.0000     0.0000     0.0000 </r>
        <r>   -44.3825     0.0000     0.0000     0.0000     0.0000 </r>
        <r>   -44.1061     0.0000     0.0000     0.0000     0.0000 </r>
        <r>   -43.8296     0.0000     0.0000     0.0000     0.0000 </r>
        <r>   -43.5532     0.0000     0.0000     0.0000     0.0000 </r>
        <r>   -43.2767     0.0000     0.0000     0.0000     0.0000 </r>
        <r>   -43.0002     0.0000     0.0000     0.0000     0.0000 </r>
        <r>   -42.7238     0.0000     0.0000     0.0000     0.0000 </r>
        <r>   -42.4473     0.0000     0.0000     0.0000     0.0000 </r>
        <r>   -42.1709     0.0000     0.0000     0.0000     0.0000 </r>
        <r>   -41.8944     0.0000     0.0000     0.0000     0.0000 </r>
        <r>   -41.6180     0.0000     0.0000     0.0000     0.0000 </r>
        <r>   -41.3415     0.0000     0.0000     0.0000     0.0000 </r>
        <r>   -41.0650     0.0000     0.0000     0.0000     0.0000 </r>
        <r>   -40.7886     0.0000     0.0000     0.0000     0.0000 </r>
        <r>   -40.5121     0.0000     0.0000     0.0000     0.0000 </r>
        <r>   -40.2357     0.0000     0.0000     0.0000     0.0000 </r>
        <r>   -39.9592     0.0000     0.0000     0.0000     0.0000 </r>
        <r>   -39.6828     0.0000     0.0000     0.0000     0.0000 </r>
        <r>   -39.4063     0.0000     0.0000     0.0000     0.0000 </r>
        <r>   -39.1298     0.0000     0.0000     0.0000     0.0000 </r>
        <r>   -38.8534     0.0000     0.0000     0.0000     0.0000 </r>
        <r>   -38.5769     0.0000     0.0000     0.0000     0.0000 </r>
        <r>   -38.3005     0.0000     0.0000     0.0000     0.0000 </r>
        <r>   -38.0240     0.0000     0.0000     0.0000     0.0000 </r>
        <r>   -37.7475     0.0000     0.0000     0.0000     0.0000 </r>
        <r>   -37.4711     0.0000     0.0000     0.0000     0.0000 </r>
        <r>   -37.1946     0.0000     0.0000     0.0000     0.0000 </r>
        <r>   -36.9182     0.0000     0.0000     0.0000     0.0000 </r>
        <r>   -36.6417     0.0000     0.0000     0.0000     0.0000 </r>
        <r>   -36.3653     0.0000     0.0000     0.0000     0.0000 </r>
        <r>   -36.0888     0.0000     0.0000     0.0000     0.0000 </r>
        <r>   -35.8123     0.0000     0.0000     0.0000     0.0000 </r>
        <r>   -35.5359     0.0000     0.0000     0.0000     0.0000 </r>
        <r>   -35.2594     0.0000     0.0000     0.0000     0.0000 </r>
        <r>   -34.9830     0.0000     0.0000     0.0000     0.0000 </r>
        <r>   -34.7065     0.0000     0.0000     0.0000     0.0000 </r>
        <r>   -34.4300     0.0000     0.0000     0.0000     0.0000 </r>
        <r>   -34.1536     0.0000     0.0000     0.0000     0.0000 </r>
        <r>   -33.8771     0.0000     0.0000     0.0000     0.0000 </r>
        <r>   -33.6007     0.0000     0.0000     0.0000     0.0000 </r>
        <r>   -33.3242     0.0000     0.0000     0.0000     0.0000 </r>
        <r>   -33.0478     0.0000     0.0000     0.0000     0.0000 </r>
        <r>   -32.7713     0.0000     0.0000     0.0000     0.0000 </r>
        <r>   -32.4948     0.0000     0.0000     0.0000     0.0000 </r>
        <r>   -32.2184     0.0000     0.0000     0.0000     0.0000 </r>
        <r>   -31.9419     0.0000     0.0000     0.0000     0.0000 </r>
        <r>   -31.6655     0.0000     0.0000     0.0000     0.0000 </r>
        <r>   -31.3890     0.0000     0.0000     0.0000     0.0000 </r>
        <r>   -31.1125     0.0000     0.0000     0.0000     0.0000 </r>
        <r>   -30.8361     0.0000     0.0000     0.0000     0.0000 </r>
        <r>   -30.5596     0.0000     0.0000     0.0000     0.0000 </r>
        <r>   -30.2832     0.0000     0.0000     0.0000     0.0000 </r>
        <r>   -30.0067     0.0000     0.0000     0.0000     0.0000 </r>
        <r>   -29.7303     0.0000     0.0000     0.0000     0.0000 </r>
        <r>   -29.4538     0.0000     0.0000     0.0000     0.0000 </r>
        <r>   -29.1773     0.0000     0.0000     0.0000     0.0000 </r>
        <r>   -28.9009     0.0000     0.0000     0.0000     0.0000 </r>
        <r>   -28.6244     0.0000     0.0000     0.0000     0.0000 </r>
        <r>   -28.3480     0.0000     0.0000     0.0000     0.0000 </r>
        <r>   -28.0715     0.0000     0.0000     0.0000     0.0000 </r>
        <r>   -27.7950     0.0000     0.0000     0.0000     0.0000 </r>
        <r>   -27.5186     0.0000     0.0000     0.0000     0.0000 </r>
        <r>   -27.2421     0.0000     0.0000     0.0000     0.0000 </r>
        <r>   -26.9657     0.0000     0.0000     0.0000     0.0000 </r>
        <r>   -26.6892     0.0000     0.0000     0.0000     0.0000 </r>
        <r>   -26.4128     0.0000     0.0000     0.0000     0.0000 </r>
        <r>   -26.1363     0.0000     0.0000     0.0000     0.0000 </r>
        <r>   -25.8598     0.0000     0.0000     0.0000     0.0000 </r>
        <r>   -25.5834     0.0000     0.0000     0.0000     0.0000 </r>
        <r>   -25.3069     0.0000     0.0000     0.0000     0.0000 </r>
        <r>   -25.0305     0.0000     0.0000     0.0000     0.0000 </r>
        <r>   -24.7540     0.0000     0.0000     0.0000     0.0000 </r>
        <r>   -24.4776     0.0000     0.0000     0.0000     0.0000 </r>
        <r>   -24.2011     0.0000     0.0000     0.0000     0.0000 </r>
        <r>   -23.9246     0.0000     0.0000     0.0000     0.0000 </r>
        <r>   -23.6482     0.0000     0.0000     0.0000     0.0000 </r>
        <r>   -23.3717     0.0000     0.0000     0.0000     0.0000 </r>
        <r>   -23.0953     0.0000     0.0000     0.0000     0.0000 </r>
        <r>   -22.8188     0.0000     0.0000     0.0000     0.0000 </r>
        <r>   -22.5423     0.0000     0.0000     0.0000     0.0000 </r>
        <r>   -22.2659     0.0000     0.0000     0.0000     0.0000 </r>
        <r>   -21.9894     0.0000     0.0000     0.0000     0.0000 </r>
        <r>   -21.7130     0.0000     0.0000     0.0000     0.0000 </r>
        <r>   -21.4365     0.0000     0.0000     0.0000     0.0000 </r>
        <r>   -21.1601     0.0000     0.0000     0.0000     0.0000 </r>
        <r>   -20.8836     0.0000     0.0000     0.0000     0.0000 </r>
        <r>   -20.6071     0.0000     0.0000     0.0000     0.0000 </r>
        <r>   -20.3307     0.0000     0.0000     0.0000     0.0000 </r>
        <r>   -20.0542     0.0000     0.0000     0.0000     0.0000 </r>
        <r>   -19.7778     0.0000     0.0000     0.0000     0.0000 </r>
        <r>   -19.5013     0.0000     0.0000     0.0000     0.0000 </r>
        <r>   -19.2248     0.0000     0.0000     0.0000     0.0000 </r>
        <r>   -18.9484     0.0000     0.0000     0.0000     0.0000 </r>
        <r>   -18.6719     0.0000     0.0000     0.0000     0.0000 </r>
        <r>   -18.3955     0.0000     0.0000     0.0000     0.0000 </r>
        <r>   -18.1190     0.0000     0.0000     0.0000     0.0000 </r>
        <r>   -17.8426     0.0000     0.0000     0.0000     0.0000 </r>
        <r>   -17.5661     0.0000     0.0000     0.0000     0.0000 </r>
        <r>   -17.2896     0.0000     0.0000     0.0000     0.0000 </r>
        <r>   -17.0132     0.0000     0.0000     0.0000     0.0000 </r>
        <r>   -16.7367     0.0000     0.0000     0.0000     0.0000 </r>
        <r>   -16.4603     0.0000     0.0000     0.0000     0.0000 </r>
        <r>   -16.1838     0.0000     0.0000     0.0000     0.0000 </r>
        <r>   -15.9073     0.0000     0.0000     0.0000     0.0000 </r>
        <r>   -15.6309     0.0000     0.0000     0.0000     0.0000 </r>
        <r>   -15.3544     0.0000     0.0000     0.0000     0.0000 </r>
        <r>   -15.0780     0.0000     0.0000     0.0000     0.0000 </r>
        <r>   -14.8015     0.0000     0.0000     0.0000     0.0000 </r>
        <r>   -14.5251     0.0000     0.0000     0.0000     0.0000 </r>
        <r>   -14.2486     0.0000     0.0000     0.0000     0.0000 </r>
        <r>   -13.9721     0.0000     0.0000     0.0000     0.0000 </r>
        <r>   -13.6957     0.0000     0.0000     0.0000     0.0000 </r>
        <r>   -13.4192     0.0000     0.0000     0.0000     0.0000 </r>
        <r>   -13.1428     0.0000     0.0000     0.0000     0.0000 </r>
        <r>   -12.8663     0.0000     0.0000     0.0000     0.0000 </r>
        <r>   -12.5899     0.0000     0.0000     0.0000     0.0000 </r>
        <r>   -12.3134     0.0000     0.0000     0.0000     0.0000 </r>
        <r>   -12.0369     0.0000     0.0000     0.0000     0.0000 </r>
        <r>   -11.7605     0.0000     0.0000     0.0000     0.0000 </r>
        <r>   -11.4840     0.0000     0.0000     0.0000     0.0000 </r>
        <r>   -11.2076     0.0000     0.0000     0.0000     0.0000 </r>
        <r>   -10.9311     0.0000     0.0000     0.0000     0.0000 </r>
        <r>   -10.6546     0.0000     0.0000     0.0000     0.0000 </r>
        <r>   -10.3782     0.0000     0.0000     0.0000     0.0000 </r>
        <r>   -10.1017     0.0000     0.0000     0.0000     0.0000 </r>
        <r>    -9.8253     0.0000     0.0000     0.0000     0.0000 </r>
        <r>    -9.5488     0.0000     0.0000     0.0000     0.0000 </r>
        <r>    -9.2724     0.0000     0.0000     0.0000     0.0000 </r>
        <r>    -8.9959     0.0000     0.0000     0.0000     0.0000 </r>
        <r>    -8.7194     0.0000     0.0000     0.0000     0.0000 </r>
        <r>    -8.4430     0.0000     0.0000     0.0000     0.0000 </r>
        <r>    -8.1665     0.0000     0.0000     0.0000     0.0000 </r>
        <r>    -7.8901     0.0000     0.0000     0.0000     0.0000 </r>
        <r>    -7.6136     0.0000     0.0000     0.0000     0.0000 </r>
        <r>    -7.3371     0.0000     0.0000     0.0000     0.0000 </r>
        <r>    -7.0607     0.0000     0.0000     0.0000     0.0000 </r>
        <r>    -6.7842     0.0000     0.0000     0.0000     0.0000 </r>
        <r>    -6.5078     0.0000     0.0000     0.0000     0.0000 </r>
        <r>    -6.2313     0.0000     0.0000     0.0000     0.0000 </r>
        <r>    -5.9549     0.0615     0.0029     0.2901     0.0024 </r>
        <r>    -5.6784     0.0000     0.0000     0.0000     0.0000 </r>
        <r>    -5.4019     0.0000     0.0000     0.0000     0.0000 </r>
        <r>    -5.1255     0.0000     0.0000     0.0004     0.0000 </r>
        <r>    -4.8490     0.0008     0.0000     0.0018     0.0000 </r>
        <r>    -4.5726     0.0000     0.0000     0.0000     0.0000 </r>
        <r>    -4.2961     0.0000     0.0000     0.0000     0.0000 </r>
        <r>    -4.0196     0.0000     0.0000     0.0000     0.0000 </r>
        <r>    -3.7432     0.0194     0.0036     0.6294     0.0024 </r>
        <r>    -3.4667     0.0000     0.0000     0.0000     0.0000 </r>
        <r>    -3.1903     0.0000     0.0000     0.0000     0.0000 </r>
        <r>    -2.9138     0.0018     0.0023     0.6887     0.0030 </r>
        <r>    -2.6374     0.0000     0.0000     0.0000     0.0000 </r>
        <r>    -2.3609     0.0000     0.0000     0.0000     0.0000 </r>
        <r>    -2.0844     0.0005     0.0059     0.3005     0.0034 </r>
        <r>    -1.8080     0.0000     0.0000     0.0000     0.0000 </r>
        <r>    -1.5315     0.0000     0.0000     0.0000     0.0000 </r>
        <r>    -1.2551     0.0000     0.0000     0.0000     0.0000 </r>
        <r>    -0.9786     0.0000     0.0000     0.0000     0.0000 </r>
        <r>    -0.7021     0.0000     0.0000     0.0000     0.0000 </r>
        <r>    -0.4257     0.0000     0.0000     0.0000     0.0000 </r>
        <r>    -0.1492     0.0000     0.0000     0.0000     0.0000 </r>
        <r>     0.1272     0.0000     0.0000     0.0000     0.0000 </r>
        <r>     0.4037     0.0000     0.0000     0.0000     0.0000 </r>
        <r>     0.6801     0.0000     0.0000     0.0000     0.0000 </r>
        <r>     0.9566     0.0000     0.0000     0.0000     0.0000 </r>
        <r>     1.2331     0.0000     0.0000     0.0000     0.0000 </r>
        <r>     1.5095     0.0000     0.0000     0.0000     0.0000 </r>
        <r>     1.7860     0.0000     0.0000     0.0000     0.0000 </r>
        <r>     2.0624     0.0000     0.0000     0.0000     0.0000 </r>
        <r>     2.3389     0.0000     0.0000     0.0000     0.0000 </r>
        <r>     2.6153     0.0000     0.0000     0.0000     0.0000 </r>
        <r>     2.8918     0.0000     0.0000     0.0000     0.0000 </r>
       </set>
      </set>
     </set>
    </array>
   </partial>
  </dos>
  <projected>
   <eigenvalues>
    <array>
     <dimension dim="1">band</dimension>
     <dimension dim="2">kpoint</dimension>
     <dimension dim="3">spin</dimension>
     <field>eigene</field>
     <field>occ</field>
     <set>
      <set comment="spin 1">
       <set comment="kpoint 1">
        <r>  -76.2758    1.0000 </r>
        <r>  -76.1099    1.0000 </r>
        <r>  -76.0928    1.0000 </r>
        <r>  -75.9319    1.0000 </r>
        <r>  -75.9065    1.0000 </r>
        <r>  -75.7272    1.0000 </r>
        <r>  -47.0983    1.0000 </r>
        <r>  -46.9449    1.0000 </r>
        <r>  -46.7949    1.0000 </r>
        <r>  -46.6338    1.0000 </r>
        <r>  -46.5669    1.0000 </r>
        <r>  -46.3963    1.0000 </r>
        <r>  -46.2889    1.0000 </r>
        <r>  -46.2720    1.0000 </r>
        <r>  -46.1647    1.0000 </r>
        <r>  -45.7607    1.0000 </r>
        <r>  -45.7406    1.0000 </r>
        <r>  -45.7260    1.0000 </r>
        <r>  -45.6451    1.0000 </r>
        <r>  -45.6025    1.0000 </r>
        <r>  -45.5992    1.0000 </r>
        <r>  -45.5535    1.0000 </r>
        <r>  -45.4214    1.0000 </r>
        <r>  -45.4211    1.0000 </r>
        <r>   -8.9240    1.0000 </r>
        <r>   -8.2073    1.0000 </r>
        <r>   -7.4894    1.0000 </r>
        <r>   -7.3124    1.0000 </r>
        <r>   -7.2203    1.0000 </r>
        <r>   -7.1154    1.0000 </r>
        <r>   -6.9216    1.0000 </r>
        <r>   -6.7683    1.0000 </r>
        <r>   -6.3251    1.0000 </r>
        <r>   -6.3041    1.0000 </r>
        <r>   -6.2063    1.0000 </r>
        <r>   -6.1366    1.0000 </r>
        <r>   -6.0156    1.0000 </r>
        <r>   -5.6569    1.0000 </r>
        <r>   -5.1554    1.0000 </r>
        <r>   -5.1309    1.0000 </r>
        <r>   -5.1115    1.0000 </r>
        <r>   -4.8831    1.0000 </r>
        <r>   -4.4035    1.0000 </r>
        <r>   -4.2275    1.0000 </r>
        <r>   -4.2260    1.0000 </r>
        <r>   -4.2212    1.0000 </r>
        <r>   -3.4864    1.0000 </r>
        <r>   -3.4455    1.0000 </r>
        <r>   -3.3137    1.0000 </r>
        <r>   -3.1101    0.0000 </r>
        <r>   -3.0772    0.0000 </r>
        <r>   -3.0152    0.0000 </r>
        <r>   -2.8923    0.0000 </r>
        <r>   -2.8113    0.0000 </r>
        <r>   -2.7227    0.0000 </r>
        <r>   -2.2666    0.0000 </r>
        <r>   -2.2000    0.0000 </r>
        <r>   -1.8733    0.0000 </r>
        <r>   -1.1370    0.0000 </r>
        <r>   -0.9338    0.0000 </r>
       </set>
      </set>
      <set comment="spin 2">
       <set comment="kpoint 1">
        <r>  -76.0514    1.0000 </r>
        <r>  -75.8774    1.0000 </r>
        <r>  -75.8753    1.0000 </r>
        <r>  -75.8153    1.0000 </r>
        <r>  -75.7016    1.0000 </r>
        <r>  -75.6528    1.0000 </r>
        <r>  -46.8849    1.0000 </r>
        <r>  -46.7092    1.0000 </r>
        <r>  -46.7054    1.0000 </r>
        <r>  -46.5297    1.0000 </r>
        <r>  -46.4243    1.0000 </r>
        <r>  -46.1689    1.0000 </r>
        <r>  -46.0464    1.0000 </r>
        <r>  -46.0422    1.0000 </r>
        <r>  -45.9028    1.0000 </r>
        <r>  -45.6034    1.0000 </r>
        <r>  -45.5152    1.0000 </r>
        <r>  -45.4893    1.0000 </r>
        <r>  -45.4648    1.0000 </r>
        <r>  -45.3983    1.0000 </r>
        <r>  -45.3704    1.0000 </r>
        <r>  -45.3682    1.0000 </r>
        <r>  -45.3584    1.0000 </r>
        <r>  -45.2467    1.0000 </r>
        <r>   -8.8439    1.0000 </r>
        <r>   -7.9795    1.0000 </r>
        <r>   -7.2162    1.0000 </r>
        <r>   -7.1851    1.0000 </r>
        <r>   -7.0298    1.0000 </r>
        <r>   -7.0159    1.0000 </r>
        <r>   -6.8509    1.0000 </r>
        <r>   -6.6463    1.0000 </r>
        <r>   -6.1915    1.0000 </r>
        <r>   -6.1466    1.0000 </r>
        <r>   -6.0795    1.0000 </r>
        <r>   -6.0007    1.0000 </r>
        <r>   -5.9805    1.0000 </r>
        <r>   -5.4854    1.0000 </r>
        <r>   -5.1147    1.0000 </r>
        <r>   -4.9208    1.0000 </r>
        <r>   -4.8399    1.0000 </r>
        <r>   -4.7602    1.0000 </r>
        <r>   -4.2284    1.0000 </r>
        <r>   -4.0894    1.0000 </r>
        <r>   -3.9503    1.0000 </r>
        <r>   -3.7713    1.0000 </r>
        <r>   -3.2622    1.0000 </r>
        <r>   -3.0301    0.0000 </r>
        <r>   -3.0070    0.0000 </r>
        <r>   -2.9341    0.0000 </r>
        <r>   -2.8625    0.0000 </r>
        <r>   -2.7975    0.0000 </r>
        <r>   -2.7949    0.0000 </r>
        <r>   -2.7148    0.0000 </r>
        <r>   -2.5716    0.0000 </r>
        <r>   -2.1158    0.0000 </r>
        <r>   -1.9591    0.0000 </r>
        <r>   -1.7841    0.0000 </r>
        <r>   -0.9441    0.0000 </r>
        <r>   -0.8781    0.0000 </r>
       </set>
      </set>
     </set>
    </array>
   </eigenvalues>
   <array>
    <dimension dim="1">ion</dimension>
    <dimension dim="2">band</dimension>
    <dimension dim="3">kpoint</dimension>
    <dimension dim="4">spin</dimension>
    <field>  s</field>
    <field>  p</field>
    <field>  d</field>
    <field>  f</field>
    <set>
     <set comment="spin1">
      <set comment="kpoint 1">
       <set comment="band 1">
        <r>  0.2412  0.0000  0.0000  0.0000 </r>
        <r>  0.0298  0.0000  0.0000  0.0000 </r>
        <r>  0.2338  0.0000  0.0000  0.0000 </r>
        <r>  0.2413  0.0000  0.0000  0.0000 </r>
        <r>  0.0298  0.0000  0.0000  0.0000 </r>
        <r>  0.2337  0.0000  0.0000  0.0000 </r>
       </set>
       <set comment="band 2">
        <r>  0.2415  0.0000  0.0001  0.0000 </r>
        <r>  0.0263  0.0000  0.0000  0.0000 </r>
        <r>  0.2364  0.0000  0.0001  0.0000 </r>
        <r>  0.2441  0.0000  0.0001  0.0000 </r>
        <r>  0.0263  0.0000  0.0000  0.0000 </r>
        <r>  0.2336  0.0000  0.0001  0.0000 </r>
       </set>
       <set comment="band 3">
        <r>  0.2497  0.0000  0.0001  0.0000 </r>
        <r>  0.0000  0.0000  0.0000  0.0000 </r>
        <r>  0.2543  0.0000  0.0001  0.0000 </r>
        <r>  0.2471  0.0000  0.0001  0.0000 </r>
        <r>  0.0000  0.0000  0.0000  0.0000 </r>
        <r>  0.2571  0.0000  0.0001  0.0000 </r>
       </set>
       <set comment="band 4">
        <r>  0.2482  0.0000  0.0000  0.0000 </r>
        <r>  0.0000  0.0000  0.0000  0.0000 </r>
        <r>  0.2557  0.0000  0.0000  0.0000 </r>
        <r>  0.2480  0.0000  0.0000  0.0000 </r>
        <r>  0.0000  0.0000  0.0000  0.0000 </r>
        <r>  0.2557  0.0000  0.0000  0.0000 </r>
       </set>
       <set comment="band 5">
        <r>  0.0147  0.0000  0.0000  0.0000 </r>
        <r>  0.4751  0.0000  0.0001  0.0000 </r>
        <r>  0.0150  0.0000  0.0000  0.0000 </r>
        <r>  0.0147  0.0000  0.0000  0.0000 </r>
        <r>  0.4753  0.0000  0.0001  0.0000 </r>
        <r>  0.0150  0.0000  0.0000  0.0000 </r>
       </set>
       <set comment="band 6">
        <r>  0.0130  0.0000  0.0000  0.0000 </r>
        <r>  0.4782  0.0000  0.0000  0.0000 </r>
        <r>  0.0132  0.0000  0.0000  0.0000 </r>
        <r>  0.0130  0.0000  0.0000  0.0000 </r>
        <r>  0.4780  0.0000  0.0000  0.0000 </r>
        <r>  0.0132  0.0000  0.0000  0.0000 </r>
       </set>
       <set comment="band 7">
        <r>  0.0004  0.1997  0.0002  0.0000 </r>
        <r>  0.0003  0.0877  0.0002  0.0000 </r>
        <r>  0.0004  0.1981  0.0002  0.0000 </r>
        <r>  0.0004  0.1997  0.0002  0.0000 </r>
        <r>  0.0003  0.0877  0.0002  0.0000 </r>
        <r>  0.0004  0.1980  0.0002  0.0000 </r>
       </set>
       <set comment="band 8">
        <r>  0.0003  0.2021  0.0003  0.0001 </r>
        <r>  0.0003  0.0852  0.0002  0.0000 </r>
        <r>  0.0003  0.2006  0.0003  0.0001 </r>
        <r>  0.0003  0.2023  0.0003  0.0001 </r>
        <r>  0.0003  0.0852  0.0002  0.0000 </r>
        <r>  0.0003  0.2006  0.0003  0.0001 </r>
       </set>
       <set comment="band 9">
        <r>  0.0001  0.2128  0.0003  0.0000 </r>
        <r>  0.0001  0.0649  0.0001  0.0000 </r>
        <r>  0.0001  0.2095  0.0003  0.0000 </r>
        <r>  0.0001  0.2128  0.0003  0.0000 </r>
        <r>  0.0001  0.0649  0.0001  0.0000 </r>
        <r>  0.0001  0.2095  0.0003  0.0000 </r>
       </set>
       <set comment="band 10">
        <r>  0.0002  0.2431  0.0003  0.0001 </r>
        <r>  0.0000  0.0009  0.0000  0.0000 </r>
        <r>  0.0002  0.2463  0.0003  0.0001 </r>
        <r>  0.0002  0.2431  0.0003  0.0001 </r>
        <r>  0.0000  0.0009  0.0000  0.0000 </r>
        <r>  0.0002  0.2463  0.0003  0.0001 </r>
       </set>
       <set comment="band 11">
        <r>  0.0000  0.0415  0.0001  0.0000 </r>
        <r>  0.0005  0.4065  0.0006  0.0001 </r>
        <r>  0.0000  0.0417  0.0001  0.0000 </r>
        <r>  0.0000  0.0415  0.0001  0.0000 </r>
        <r>  0.0005  0.4066  0.0006  0.0001 </r>
        <r>  0.0000  0.0417  0.0001  0.0000 </r>
       </set>
       <set comment="band 12">
        <r>  0.0000  0.1723  0.0002  0.0000 </r>
        <r>  0.0002  0.1507  0.0000  0.0000 </r>
        <r>  0.0000  0.1669  0.0002  0.0000 </r>
        <r>  0.0000  0.1725  0.0002  0.0000 </r>
        <r>  0.0002  0.1507  0.0000  0.0000 </r>
        <r>  0.0000  0.1668  0.0002  0.0000 </r>
       </set>
       <set comment="band 13">
        <r>  0.0000  0.1948  0.0001  0.0000 </r>
        <r>  0.0000  0.0967  0.0003  0.0001 </r>
        <r>  0.0000  0.2003  0.0001  0.0000 </r>
        <r>  0.0000  0.1961  0.0001  0.0000 </r>
        <r>  0.0000  0.0967  0.0003  0.0001 </r>
        <r>  0.0000  0.1992  0.0001  0.0000 </r>
       </set>
       <set comment="band 14">
        <r>  0.0000  0.1807  0.0002  0.0001 </r>
        <r>  0.0001  0.1375  0.0000  0.0000 </r>
        <r>  0.0000  0.1741  0.0002  0.0001 </r>
        <r>  0.0000  0.1795  0.0002  0.0001 </r>
        <r>  0.0001  0.1375  0.0000  0.0000 </r>
        <r>  0.0000  0.1753  0.0002  0.0001 </r>
       </set>
       <set comment="band 15">
        <r>  0.0000  0.2005  0.0001  0.0000 </r>
        <r>  0.0000  0.0894  0.0003  0.0001 </r>
        <r>  0.0000  0.2045  0.0001  0.0000 </r>
        <r>  0.0000  0.2002  0.0001  0.0000 </r>
        <r>  0.0000  0.0893  0.0003  0.0001 </r>
        <r>  0.0000  0.2045  0.0001  0.0000 </r>
       </set>
       <set comment="band 16">
        <r>  0.0002  0.2411  0.0002  0.0000 </r>
        <r>  0.0000  0.0150  0.0000  0.0000 </r>
        <r>  0.0002  0.2414  0.0002  0.0000 </r>
        <r>  0.0002  0.2413  0.0002  0.0000 </r>
        <r>  0.0000  0.0150  0.0000  0.0000 </r>
        <r>  0.0002  0.2417  0.0002  0.0000 </r>
       </set>
       <set comment="band 17">
        <r>  0.0003  0.2177  0.0002  0.0000 </r>
        <r>  0.0000  0.0666  0.0001  0.0000 </r>
        <r>  0.0003  0.2137  0.0002  0.0000 </r>
        <r>  0.0003  0.2177  0.0002  0.0000 </r>
        <r>  0.0000  0.0667  0.0001  0.0000 </r>
        <r>  0.0003  0.2138  0.0002  0.0000 </r>
       </set>
       <set comment="band 18">
        <r>  0.0001  0.1120  0.0001  0.0000 </r>
        <r>  0.0002  0.2719  0.0001  0.0000 </r>
        <r>  0.0001  0.1139  0.0001  0.0000 </r>
        <r>  0.0001  0.1120  0.0001  0.0000 </r>
        <r>  0.0002  0.2719  0.0001  0.0000 </r>
        <r>  0.0001  0.1140  0.0001  0.0000 </r>
       </set>
       <set comment="band 19">
        <r>  0.0002  0.2426  0.0002  0.0000 </r>
        <r>  0.0000  0.0145  0.0000  0.0000 </r>
        <r>  0.0002  0.2424  0.0002  0.0000 </r>
        <r>  0.0002  0.2423  0.0002  0.0000 </r>
        <r>  0.0000  0.0145  0.0000  0.0000 </r>
        <r>  0.0002  0.2423  0.0002  0.0000 </r>
       </set>
       <set comment="band 20">
        <r>  0.0000  0.1550  0.0002  0.0000 </r>
        <r>  0.0001  0.2258  0.0001  0.0000 </r>
        <r>  0.0000  0.1190  0.0001  0.0000 </r>
        <r>  0.0000  0.1549  0.0002  0.0000 </r>
        <r>  0.0001  0.2256  0.0001  0.0000 </r>
        <r>  0.0000  0.1190  0.0001  0.0000 </r>
       </set>
       <set comment="band 21">
        <r>  0.0002  0.2224  0.0002  0.0000 </r>
        <r>  0.0000  0.0129  0.0000  0.0000 </r>
        <r>  0.0002  0.2646  0.0003  0.0000 </r>
        <r>  0.0002  0.2224  0.0002  0.0000 </r>
        <r>  0.0000  0.0129  0.0000  0.0000 </r>
        <r>  0.0002  0.2646  0.0003  0.0000 </r>
       </set>
       <set comment="band 22">
        <r>  0.0001  0.0575  0.0001  0.0000 </r>
        <r>  0.0000  0.3807  0.0001  0.0000 </r>
        <r>  0.0001  0.0580  0.0001  0.0000 </r>
        <r>  0.0001  0.0575  0.0001  0.0000 </r>
        <r>  0.0000  0.3809  0.0001  0.0000 </r>
        <r>  0.0001  0.0581  0.0001  0.0000 </r>
       </set>
       <set comment="band 23">
        <r>  0.0000  0.0119  0.0000  0.0000 </r>
        <r>  0.0004  0.4680  0.0004  0.0000 </r>
        <r>  0.0000  0.0195  0.0000  0.0000 </r>
        <r>  0.0000  0.0119  0.0000  0.0000 </r>
        <r>  0.0004  0.4680  0.0004  0.0000 </r>
        <r>  0.0000  0.0195  0.0000  0.0000 </r>
       </set>
       <set comment="band 24">
        <r>  0.0000  0.0576  0.0001  0.0000 </r>
        <r>  0.0000  0.3901  0.0001  0.0000 </r>
        <r>  0.0000  0.0508  0.0001  0.0000 </r>
        <r>  0.0000  0.0576  0.0001  0.0000 </r>
        <r>  0.0000  0.3899  0.0001  0.0000 </r>
        <r>  0.0000  0.0508  0.0001  0.0000 </r>
       </set>
       <set comment="band 25">
        <r>  0.0215  0.0031  0.1216  0.0010 </r>
        <r>  0.0176  0.0031  0.0933  0.0010 </r>
        <r>  0.0214  0.0031  0.1214  0.0010 </r>
        <r>  0.0215  0.0031  0.1216  0.0010 </r>
        <r>  0.0176  0.0031  0.0933  0.0010 </r>
        <r>  0.0214  0.0031  0.1214  0.0010 </r>
       </set>
       <set comment="band 26">
        <r>  0.0079  0.0017  0.1475  0.0011 </r>
        <r>  0.0083  0.0016  0.1242  0.0011 </r>
        <r>  0.0079  0.0017  0.1472  0.0011 </r>
        <r>  0.0079  0.0017  0.1475  0.0011 </r>
        <r>  0.0083  0.0016  0.1242  0.0011 </r>
        <r>  0.0079  0.0017  0.1472  0.0011 </r>
       </set>
       <set comment="band 27">
        <r>  0.0283  0.0024  0.1384  0.0012 </r>
        <r>  0.0260  0.0025  0.1136  0.0012 </r>
        <r>  0.0283  0.0024  0.1381  0.0012 </r>
        <r>  0.0283  0.0024  0.1384  0.0012 </r>
        <r>  0.0260  0.0025  0.1136  0.0012 </r>
        <r>  0.0283  0.0024  0.1381  0.0012 </r>
       </set>
       <set comment="band 28">
        <r>  0.0011  0.0015  0.1856  0.0010 </r>
        <r>  0.0248  0.0011  0.0163  0.0001 </r>
        <r>  0.0010  0.0015  0.1840  0.0010 </r>
        <r>  0.0011  0.0015  0.1856  0.0010 </r>
        <r>  0.0248  0.0011  0.0163  0.0001 </r>
        <r>  0.0010  0.0015  0.1840  0.0010 </r>
       </set>
       <set comment="band 29">
        <r>  0.0411  0.0011  0.1215  0.0008 </r>
        <r>  0.0206  0.0003  0.1067  0.0007 </r>
        <r>  0.0416  0.0011  0.1194  0.0007 </r>
        <r>  0.0411  0.0011  0.1215  0.0008 </r>
        <r>  0.0206  0.0003  0.1067  0.0007 </r>
        <r>  0.0416  0.0011  0.1193  0.0007 </r>
       </set>
       <set comment="band 30">
        <r>  0.0075  0.0009  0.0847  0.0005 </r>
        <r>  0.0000  0.0021  0.2081  0.0011 </r>
        <r>  0.0070  0.0009  0.0880  0.0005 </r>
        <r>  0.0075  0.0009  0.0847  0.0005 </r>
        <r>  0.0000  0.0021  0.2081  0.0011 </r>
        <r>  0.0070  0.0009  0.0880  0.0005 </r>
       </set>
       <set comment="band 31">
        <r>  0.0060  0.0002  0.1537  0.0011 </r>
        <r>  0.0017  0.0012  0.1168  0.0006 </r>
        <r>  0.0061  0.0002  0.1521  0.0010 </r>
        <r>  0.0060  0.0002  0.1537  0.0011 </r>
        <r>  0.0017  0.0012  0.1168  0.0006 </r>
        <r>  0.0061  0.0002  0.1520  0.0010 </r>
       </set>
       <set comment="band 32">
        <r>  0.0002  0.0008  0.1446  0.0007 </r>
        <r>  0.0000  0.0002  0.1478  0.0011 </r>
        <r>  0.0003  0.0008  0.1460  0.0008 </r>
        <r>  0.0002  0.0008  0.1447  0.0007 </r>
        <r>  0.0000  0.0002  0.1479  0.0011 </r>
        <r>  0.0003  0.0008  0.1460  0.0008 </r>
       </set>
       <set comment="band 33">
        <r>  0.0080  0.0012  0.2069  0.0012 </r>
        <r>  0.0188  0.0007  0.0182  0.0004 </r>
        <r>  0.0082  0.0012  0.2047  0.0012 </r>
        <r>  0.0080  0.0012  0.2069  0.0012 </r>
        <r>  0.0188  0.0007  0.0182  0.0004 </r>
        <r>  0.0082  0.0012  0.2047  0.0012 </r>
       </set>
       <set comment="band 34">
        <r>  0.1102  0.0006  0.0379  0.0003 </r>
        <r>  0.0648  0.0003  0.0531  0.0003 </r>
        <r>  0.1100  0.0006  0.0378  0.0003 </r>
        <r>  0.1103  0.0006  0.0379  0.0003 </r>
        <r>  0.0648  0.0003  0.0531  0.0003 </r>
        <r>  0.1099  0.0006  0.0378  0.0003 </r>
       </set>
       <set comment="band 35">
        <r>  0.0094  0.0006  0.0843  0.0004 </r>
        <r>  0.1230  0.0033  0.1808  0.0017 </r>
        <r>  0.0102  0.0006  0.0858  0.0004 </r>
        <r>  0.0093  0.0006  0.0843  0.0004 </r>
        <r>  0.1230  0.0033  0.1808  0.0017 </r>
        <r>  0.0102  0.0006  0.0857  0.0004 </r>
       </set>
       <set comment="band 36">
        <r>  0.0718  0.0017  0.1282  0.0012 </r>
        <r>  0.0000  0.0002  0.0878  0.0001 </r>
        <r>  0.0710  0.0017  0.1270  0.0012 </r>
        <r>  0.0719  0.0017  0.1281  0.0012 </r>
        <r>  0.0000  0.0002  0.0878  0.0001 </r>
        <r>  0.0710  0.0017  0.1271  0.0012 </r>
       </set>
       <set comment="band 37">
        <r>  0.0184  0.0007  0.0861  0.0006 </r>
        <r>  0.0000  0.0013  0.2468  0.0011 </r>
        <r>  0.0181  0.0007  0.0878  0.0006 </r>
        <r>  0.0184  0.0007  0.0860  0.0006 </r>
        <r>  0.0000  0.0013  0.2467  0.0011 </r>
        <r>  0.0181  0.0007  0.0879  0.0006 </r>
       </set>
       <set comment="band 38">
        <r>  0.0046  0.0017  0.1418  0.0012 </r>
        <r>  0.0047  0.0015  0.0857  0.0010 </r>
        <r>  0.0046  0.0017  0.1414  0.0012 </r>
        <r>  0.0046  0.0017  0.1419  0.0012 </r>
        <r>  0.0047  0.0015  0.0857  0.0010 </r>
        <r>  0.0046  0.0017  0.1414  0.0012 </r>
       </set>
       <set comment="band 39">
        <r>  0.0008  0.0017  0.1561  0.0011 </r>
        <r>  0.0000  0.0004  0.0730  0.0007 </r>
        <r>  0.0008  0.0018  0.1594  0.0011 </r>
        <r>  0.0007  0.0017  0.1560  0.0011 </r>
        <r>  0.0000  0.0004  0.0730  0.0007 </r>
        <r>  0.0008  0.0018  0.1595  0.0011 </r>
       </set>
       <set comment="band 40">
        <r>  0.0003  0.0008  0.0843  0.0007 </r>
        <r>  0.0005  0.0023  0.2233  0.0015 </r>
        <r>  0.0003  0.0007  0.0813  0.0007 </r>
        <r>  0.0003  0.0008  0.0843  0.0007 </r>
        <r>  0.0006  0.0023  0.2233  0.0015 </r>
        <r>  0.0003  0.0007  0.0813  0.0007 </r>
       </set>
       <set comment="band 41">
        <r>  0.0492  0.0003  0.1094  0.0006 </r>
        <r>  0.0495  0.0004  0.0832  0.0007 </r>
        <r>  0.0493  0.0003  0.1092  0.0006 </r>
        <r>  0.0492  0.0003  0.1093  0.0006 </r>
        <r>  0.0495  0.0004  0.0833  0.0007 </r>
        <r>  0.0493  0.0003  0.1091  0.0006 </r>
       </set>
       <set comment="band 42">
        <r>  0.0000  0.0005  0.1519  0.0012 </r>
        <r>  0.0000  0.0003  0.1191  0.0009 </r>
        <r>  0.0000  0.0005  0.1519  0.0012 </r>
        <r>  0.0000  0.0005  0.1520  0.0012 </r>
        <r>  0.0000  0.0003  0.1191  0.0009 </r>
        <r>  0.0000  0.0005  0.1519  0.0012 </r>
       </set>
       <set comment="band 43">
        <r>  0.0000  0.0013  0.1624  0.0009 </r>
        <r>  0.0029  0.0006  0.0648  0.0003 </r>
        <r>  0.0000  0.0012  0.1595  0.0009 </r>
        <r>  0.0000  0.0013  0.1624  0.0009 </r>
        <r>  0.0029  0.0006  0.0648  0.0003 </r>
        <r>  0.0000  0.0012  0.1595  0.0009 </r>
       </set>
       <set comment="band 44">
        <r>  0.0018  0.0016  0.0387  0.0007 </r>
        <r>  0.0109  0.0002  0.2573  0.0005 </r>
        <r>  0.0025  0.0014  0.0674  0.0007 </r>
        <r>  0.0017  0.0016  0.0385  0.0007 </r>
        <r>  0.0109  0.0002  0.2573  0.0005 </r>
        <r>  0.0025  0.0014  0.0676  0.0007 </r>
       </set>
       <set comment="band 45">
        <r>  0.0002  0.0008  0.1128  0.0005 </r>
        <r>  0.0000  0.0014  0.1635  0.0010 </r>
        <r>  0.0002  0.0008  0.1156  0.0005 </r>
        <r>  0.0002  0.0008  0.1137  0.0005 </r>
        <r>  0.0000  0.0014  0.1636  0.0010 </r>
        <r>  0.0002  0.0008  0.1162  0.0005 </r>
       </set>
       <set comment="band 46">
        <r>  0.0028  0.0009  0.2027  0.0008 </r>
        <r>  0.0001  0.0012  0.0038  0.0006 </r>
        <r>  0.0021  0.0011  0.1741  0.0008 </r>
        <r>  0.0028  0.0009  0.2018  0.0008 </r>
        <r>  0.0001  0.0012  0.0036  0.0006 </r>
        <r>  0.0021  0.0010  0.1733  0.0008 </r>
       </set>
       <set comment="band 47">
        <r>  0.0000  0.0007  0.1953  0.0009 </r>
        <r>  0.0000  0.0000  0.0379  0.0007 </r>
        <r>  0.0000  0.0007  0.1973  0.0009 </r>
        <r>  0.0000  0.0007  0.1953  0.0009 </r>
        <r>  0.0000  0.0000  0.0379  0.0007 </r>
        <r>  0.0000  0.0007  0.1973  0.0009 </r>
       </set>
       <set comment="band 48">
        <r>  0.0020  0.0008  0.0711  0.0008 </r>
        <r>  0.0109  0.0003  0.2574  0.0006 </r>
        <r>  0.0020  0.0008  0.0698  0.0008 </r>
        <r>  0.0020  0.0008  0.0711  0.0008 </r>
        <r>  0.0108  0.0003  0.2574  0.0006 </r>
        <r>  0.0020  0.0008  0.0698  0.0008 </r>
       </set>
       <set comment="band 49">
        <r>  0.0349  0.0041  0.0631  0.0003 </r>
        <r>  0.0040  0.0010  0.0597  0.0005 </r>
        <r>  0.0345  0.0041  0.0619  0.0003 </r>
        <r>  0.0349  0.0041  0.0631  0.0003 </r>
        <r>  0.0040  0.0010  0.0597  0.0005 </r>
        <r>  0.0345  0.0041  0.0619  0.0003 </r>
       </set>
       <set comment="band 50">
        <r>  0.0160  0.0024  0.1492  0.0008 </r>
        <r>  0.0000  0.0007  0.0243  0.0003 </r>
        <r>  0.0163  0.0025  0.1506  0.0008 </r>
        <r>  0.0160  0.0024  0.1492  0.0008 </r>
        <r>  0.0000  0.0007  0.0243  0.0003 </r>
        <r>  0.0164  0.0025  0.1506  0.0008 </r>
       </set>
       <set comment="band 51">
        <r>  0.0527  0.0048  0.0247  0.0001 </r>
        <r>  0.0000  0.0025  0.0276  0.0000 </r>
        <r>  0.0530  0.0048  0.0248  0.0001 </r>
        <r>  0.0527  0.0048  0.0247  0.0001 </r>
        <r>  0.0000  0.0025  0.0276  0.0000 </r>
        <r>  0.0530  0.0048  0.0248  0.0001 </r>
       </set>
       <set comment="band 52">
        <r>  0.0147  0.0036  0.0244  0.0001 </r>
        <r>  0.0768  0.0042  0.0416  0.0002 </r>
        <r>  0.0146  0.0036  0.0246  0.0001 </r>
        <r>  0.0147  0.0036  0.0244  0.0001 </r>
        <r>  0.0768  0.0042  0.0416  0.0002 </r>
        <r>  0.0146  0.0036  0.0246  0.0001 </r>
       </set>
       <set comment="band 53">
        <r>  0.0000  0.0026  0.1199  0.0013 </r>
        <r>  0.0000  0.0020  0.1240  0.0011 </r>
        <r>  0.0000  0.0026  0.1199  0.0013 </r>
        <r>  0.0000  0.0026  0.1200  0.0013 </r>
        <r>  0.0000  0.0020  0.1240  0.0011 </r>
        <r>  0.0000  0.0026  0.1199  0.0013 </r>
       </set>
       <set comment="band 54">
        <r>  0.0003  0.0006  0.0367  0.0005 </r>
        <r>  0.0330  0.0047  0.2339  0.0006 </r>
        <r>  0.0003  0.0006  0.0362  0.0005 </r>
        <r>  0.0003  0.0006  0.0367  0.0005 </r>
        <r>  0.0330  0.0047  0.2339  0.0006 </r>
        <r>  0.0003  0.0006  0.0362  0.0005 </r>
       </set>
       <set comment="band 55">
        <r>  0.0000  0.0013  0.1288  0.0009 </r>
        <r>  0.0000  0.0013  0.1579  0.0008 </r>
        <r>  0.0000  0.0013  0.1296  0.0009 </r>
        <r>  0.0000  0.0013  0.1287  0.0009 </r>
        <r>  0.0000  0.0013  0.1578  0.0008 </r>
        <r>  0.0000  0.0013  0.1295  0.0009 </r>
       </set>
       <set comment="band 56">
        <r>  0.0009  0.0037  0.1753  0.0021 </r>
        <r>  0.0000  0.0005  0.0315  0.0005 </r>
        <r>  0.0009  0.0038  0.1781  0.0021 </r>
        <r>  0.0009  0.0037  0.1753  0.0021 </r>
        <r>  0.0000  0.0005  0.0315  0.0005 </r>
        <r>  0.0009  0.0038  0.1781  0.0021 </r>
       </set>
       <set comment="band 57">
        <r>  0.0005  0.0014  0.0659  0.0009 </r>
        <r>  0.0010  0.0051  0.2564  0.0026 </r>
        <r>  0.0004  0.0014  0.0632  0.0009 </r>
        <r>  0.0005  0.0014  0.0659  0.0009 </r>
        <r>  0.0010  0.0051  0.2564  0.0026 </r>
        <r>  0.0004  0.0014  0.0632  0.0009 </r>
       </set>
       <set comment="band 58">
        <r>  0.0000  0.0008  0.1461  0.0019 </r>
        <r>  0.0000  0.0005  0.1513  0.0016 </r>
        <r>  0.0000  0.0008  0.1461  0.0019 </r>
        <r>  0.0000  0.0008  0.1461  0.0019 </r>
        <r>  0.0000  0.0005  0.1513  0.0016 </r>
        <r>  0.0000  0.0008  0.1461  0.0019 </r>
       </set>
       <set comment="band 59">
        <r>  0.0026  0.0102  0.0026  0.0001 </r>
        <r>  0.0012  0.0089  0.0048  0.0002 </r>
        <r>  0.0026  0.0102  0.0026  0.0001 </r>
        <r>  0.0026  0.0103  0.0026  0.0001 </r>
        <r>  0.0012  0.0089  0.0048  0.0002 </r>
        <r>  0.0026  0.0102  0.0026  0.0001 </r>
       </set>
       <set comment="band 60">
        <r>  0.0098  0.0087  0.0019  0.0001 </r>
        <r>  0.0048  0.0098  0.0040  0.0001 </r>
        <r>  0.0096  0.0087  0.0019  0.0001 </r>
        <r>  0.0098  0.0087  0.0019  0.0001 </r>
        <r>  0.0048  0.0098  0.0040  0.0001 </r>
        <r>  0.0096  0.0087  0.0019  0.0001 </r>
       </set>
      </set>
     </set>
     <set comment="spin2">
      <set comment="kpoint 1">
       <set comment="band 1">
        <r>  0.1458  0.0000  0.0000  0.0000 </r>
        <r>  0.2127  0.0000  0.0000  0.0000 </r>
        <r>  0.1469  0.0000  0.0000  0.0000 </r>
        <r>  0.1459  0.0000  0.0000  0.0000 </r>
        <r>  0.2128  0.0000  0.0000  0.0000 </r>
        <r>  0.1469  0.0000  0.0000  0.0000 </r>
       </set>
       <set comment="band 2">
        <r>  0.1570  0.0000  0.0001  0.0000 </r>
        <r>  0.1892  0.0000  0.0001  0.0000 </r>
        <r>  0.1585  0.0000  0.0001  0.0000 </r>
        <r>  0.1577  0.0000  0.0001  0.0000 </r>
        <r>  0.1884  0.0000  0.0001  0.0000 </r>
        <r>  0.1586  0.0000  0.0001  0.0000 </r>
       </set>
       <set comment="band 3">
        <r>  0.1039  0.0000  0.0000  0.0000 </r>
        <r>  0.2918  0.0000  0.0001  0.0000 </r>
        <r>  0.1094  0.0000  0.0000  0.0000 </r>
        <r>  0.1035  0.0000  0.0000  0.0000 </r>
        <r>  0.2925  0.0000  0.0001  0.0000 </r>
        <r>  0.1090  0.0000  0.0000  0.0000 </r>
       </set>
       <set comment="band 4">
        <r>  0.2558  0.0000  0.0001  0.0000 </r>
        <r>  0.0000  0.0000  0.0000  0.0000 </r>
        <r>  0.2490  0.0000  0.0001  0.0000 </r>
        <r>  0.2556  0.0000  0.0001  0.0000 </r>
        <r>  0.0000  0.0000  0.0000  0.0000 </r>
        <r>  0.2494  0.0000  0.0001  0.0000 </r>
       </set>
       <set comment="band 5">
        <r>  0.0915  0.0000  0.0000  0.0000 </r>
        <r>  0.3155  0.0000  0.0000  0.0000 </r>
        <r>  0.0976  0.0000  0.0000  0.0000 </r>
        <r>  0.0915  0.0000  0.0000  0.0000 </r>
        <r>  0.3155  0.0000  0.0000  0.0000 </r>
        <r>  0.0976  0.0000  0.0000  0.0000 </r>
       </set>
       <set comment="band 6">
        <r>  0.2560  0.0000  0.0000  0.0000 </r>
        <r>  0.0000  0.0000  0.0000  0.0000 </r>
        <r>  0.2487  0.0000  0.0000  0.0000 </r>
        <r>  0.2559  0.0000  0.0000  0.0000 </r>
        <r>  0.0000  0.0000  0.0000  0.0000 </r>
        <r>  0.2487  0.0000  0.0000  0.0000 </r>
       </set>
       <set comment="band 7">
        <r>  0.0004  0.1476  0.0002  0.0000 </r>
        <r>  0.0005  0.1898  0.0001  0.0000 </r>
        <r>  0.0004  0.1479  0.0002  0.0000 </r>
        <r>  0.0004  0.1476  0.0002  0.0000 </r>
        <r>  0.0005  0.1898  0.0001  0.0000 </r>
        <r>  0.0004  0.1478  0.0002  0.0000 </r>
       </set>
       <set comment="band 8">
        <r>  0.0004  0.1736  0.0003  0.0001 </r>
        <r>  0.0002  0.1402  0.0002  0.0000 </r>
        <r>  0.0004  0.1738  0.0003  0.0001 </r>
        <r>  0.0004  0.1736  0.0003  0.0001 </r>
        <r>  0.0002  0.1402  0.0002  0.0000 </r>
        <r>  0.0004  0.1738  0.0003  0.0001 </r>
       </set>
       <set comment="band 9">
        <r>  0.0000  0.0699  0.0002  0.0000 </r>
        <r>  0.0002  0.3470  0.0007  0.0001 </r>
        <r>  0.0000  0.0706  0.0002  0.0000 </r>
        <r>  0.0000  0.0699  0.0002  0.0000 </r>
        <r>  0.0002  0.3471  0.0007  0.0001 </r>
        <r>  0.0000  0.0706  0.0002  0.0000 </r>
       </set>
       <set comment="band 10">
        <r>  0.0002  0.1958  0.0003  0.0000 </r>
        <r>  0.0001  0.0855  0.0002  0.0000 </r>
        <r>  0.0002  0.2078  0.0003  0.0001 </r>
        <r>  0.0002  0.1959  0.0003  0.0000 </r>
        <r>  0.0001  0.0855  0.0002  0.0000 </r>
        <r>  0.0002  0.2077  0.0003  0.0001 </r>
       </set>
       <set comment="band 11">
        <r>  0.0003  0.2513  0.0004  0.0001 </r>
        <r>  0.0000  0.0000  0.0000  0.0000 </r>
        <r>  0.0002  0.2388  0.0003  0.0001 </r>
        <r>  0.0003  0.2514  0.0004  0.0001 </r>
        <r>  0.0000  0.0000  0.0000  0.0000 </r>
        <r>  0.0002  0.2388  0.0003  0.0001 </r>
       </set>
       <set comment="band 12">
        <r>  0.0000  0.1489  0.0003  0.0001 </r>
        <r>  0.0000  0.1933  0.0000  0.0000 </r>
        <r>  0.0000  0.1484  0.0003  0.0001 </r>
        <r>  0.0000  0.1489  0.0003  0.0001 </r>
        <r>  0.0000  0.1932  0.0000  0.0000 </r>
        <r>  0.0000  0.1483  0.0003  0.0001 </r>
       </set>
       <set comment="band 13">
        <r>  0.0000  0.1459  0.0003  0.0001 </r>
        <r>  0.0000  0.2008  0.0000  0.0000 </r>
        <r>  0.0000  0.1464  0.0003  0.0001 </r>
        <r>  0.0000  0.1467  0.0003  0.0001 </r>
        <r>  0.0000  0.2008  0.0000  0.0000 </r>
        <r>  0.0000  0.1456  0.0003  0.0001 </r>
       </set>
       <set comment="band 14">
        <r>  0.0000  0.1475  0.0001  0.0000 </r>
        <r>  0.0000  0.1957  0.0002  0.0001 </r>
        <r>  0.0000  0.1476  0.0001  0.0000 </r>
        <r>  0.0000  0.1468  0.0001  0.0000 </r>
        <r>  0.0000  0.1958  0.0002  0.0001 </r>
        <r>  0.0000  0.1485  0.0001  0.0000 </r>
       </set>
       <set comment="band 15">
        <r>  0.0000  0.1523  0.0001  0.0000 </r>
        <r>  0.0000  0.1881  0.0002  0.0001 </r>
        <r>  0.0000  0.1529  0.0001  0.0000 </r>
        <r>  0.0000  0.1522  0.0001  0.0000 </r>
        <r>  0.0000  0.1880  0.0002  0.0001 </r>
        <r>  0.0000  0.1529  0.0001  0.0000 </r>
       </set>
       <set comment="band 16">
        <r>  0.0000  0.0825  0.0001  0.0000 </r>
        <r>  0.0005  0.3314  0.0003  0.0001 </r>
        <r>  0.0000  0.0840  0.0001  0.0000 </r>
        <r>  0.0000  0.0825  0.0001  0.0000 </r>
        <r>  0.0005  0.3314  0.0003  0.0001 </r>
        <r>  0.0000  0.0841  0.0001  0.0000 </r>
       </set>
       <set comment="band 17">
        <r>  0.0001  0.1638  0.0001  0.0000 </r>
        <r>  0.0004  0.1661  0.0001  0.0000 </r>
        <r>  0.0001  0.1670  0.0001  0.0000 </r>
        <r>  0.0001  0.1638  0.0001  0.0000 </r>
        <r>  0.0004  0.1662  0.0001  0.0000 </r>
        <r>  0.0001  0.1671  0.0001  0.0000 </r>
       </set>
       <set comment="band 18">
        <r>  0.0003  0.1602  0.0001  0.0000 </r>
        <r>  0.0000  0.1809  0.0001  0.0000 </r>
        <r>  0.0002  0.1564  0.0001  0.0000 </r>
        <r>  0.0003  0.1603  0.0001  0.0000 </r>
        <r>  0.0000  0.1810  0.0001  0.0000 </r>
        <r>  0.0002  0.1565  0.0001  0.0000 </r>
       </set>
       <set comment="band 19">
        <r>  0.0002  0.1947  0.0001  0.0000 </r>
        <r>  0.0002  0.0944  0.0001  0.0000 </r>
        <r>  0.0002  0.2100  0.0002  0.0000 </r>
        <r>  0.0002  0.1947  0.0001  0.0000 </r>
        <r>  0.0002  0.0944  0.0001  0.0000 </r>
        <r>  0.0002  0.2100  0.0002  0.0000 </r>
       </set>
       <set comment="band 20">
        <r>  0.0004  0.2429  0.0001  0.0000 </r>
        <r>  0.0000  0.0292  0.0000  0.0000 </r>
        <r>  0.0004  0.2276  0.0001  0.0000 </r>
        <r>  0.0004  0.2429  0.0001  0.0000 </r>
        <r>  0.0000  0.0291  0.0000  0.0000 </r>
        <r>  0.0004  0.2276  0.0001  0.0000 </r>
       </set>
       <set comment="band 21">
        <r>  0.0000  0.1902  0.0001  0.0000 </r>
        <r>  0.0000  0.1167  0.0001  0.0000 </r>
        <r>  0.0000  0.1901  0.0001  0.0000 </r>
        <r>  0.0000  0.1902  0.0001  0.0000 </r>
        <r>  0.0000  0.1165  0.0001  0.0000 </r>
        <r>  0.0000  0.1904  0.0001  0.0000 </r>
       </set>
       <set comment="band 22">
        <r>  0.0000  0.1296  0.0001  0.0000 </r>
        <r>  0.0001  0.2273  0.0003  0.0000 </r>
        <r>  0.0000  0.1426  0.0001  0.0000 </r>
        <r>  0.0000  0.1296  0.0001  0.0000 </r>
        <r>  0.0001  0.2272  0.0003  0.0000 </r>
        <r>  0.0000  0.1424  0.0001  0.0000 </r>
       </set>
       <set comment="band 23">
        <r>  0.0000  0.1785  0.0003  0.0000 </r>
        <r>  0.0000  0.1575  0.0001  0.0000 </r>
        <r>  0.0000  0.1637  0.0002  0.0000 </r>
        <r>  0.0000  0.1784  0.0003  0.0000 </r>
        <r>  0.0000  0.1577  0.0001  0.0000 </r>
        <r>  0.0000  0.1635  0.0002  0.0000 </r>
       </set>
       <set comment="band 24">
        <r>  0.0000  0.1891  0.0001  0.0000 </r>
        <r>  0.0000  0.1209  0.0001  0.0000 </r>
        <r>  0.0000  0.1890  0.0001  0.0000 </r>
        <r>  0.0000  0.1889  0.0001  0.0000 </r>
        <r>  0.0000  0.1209  0.0001  0.0000 </r>
        <r>  0.0000  0.1889  0.0001  0.0000 </r>
       </set>
       <set comment="band 25">
        <r>  0.0202  0.0034  0.1072  0.0011 </r>
        <r>  0.0223  0.0030  0.1179  0.0010 </r>
        <r>  0.0202  0.0034  0.1073  0.0011 </r>
        <r>  0.0202  0.0034  0.1072  0.0011 </r>
        <r>  0.0223  0.0030  0.1179  0.0010 </r>
        <r>  0.0202  0.0034  0.1073  0.0011 </r>
       </set>
       <set comment="band 26">
        <r>  0.0077  0.0018  0.1407  0.0012 </r>
        <r>  0.0080  0.0017  0.1395  0.0010 </r>
        <r>  0.0077  0.0018  0.1409  0.0012 </r>
        <r>  0.0077  0.0018  0.1407  0.0012 </r>
        <r>  0.0080  0.0017  0.1395  0.0010 </r>
        <r>  0.0077  0.0018  0.1408  0.0012 </r>
       </set>
       <set comment="band 27">
        <r>  0.0314  0.0027  0.1293  0.0013 </r>
        <r>  0.0329  0.0025  0.1242  0.0012 </r>
        <r>  0.0314  0.0027  0.1293  0.0013 </r>
        <r>  0.0314  0.0027  0.1293  0.0013 </r>
        <r>  0.0328  0.0025  0.1242  0.0012 </r>
        <r>  0.0315  0.0027  0.1293  0.0013 </r>
       </set>
       <set comment="band 28">
        <r>  0.0001  0.0017  0.1810  0.0011 </r>
        <r>  0.0209  0.0008  0.0244  0.0002 </r>
        <r>  0.0001  0.0017  0.1805  0.0011 </r>
        <r>  0.0000  0.0017  0.1810  0.0011 </r>
        <r>  0.0210  0.0008  0.0244  0.0002 </r>
        <r>  0.0001  0.0017  0.1804  0.0011 </r>
       </set>
       <set comment="band 29">
        <r>  0.0051  0.0010  0.0820  0.0006 </r>
        <r>  0.0001  0.0022  0.2275  0.0011 </r>
        <r>  0.0090  0.0011  0.0721  0.0005 </r>
        <r>  0.0051  0.0010  0.0821  0.0006 </r>
        <r>  0.0001  0.0022  0.2275  0.0011 </r>
        <r>  0.0090  0.0011  0.0721  0.0005 </r>
       </set>
       <set comment="band 30">
        <r>  0.0606  0.0013  0.0795  0.0005 </r>
        <r>  0.0521  0.0008  0.1309  0.0010 </r>
        <r>  0.0568  0.0012  0.0904  0.0006 </r>
        <r>  0.0606  0.0013  0.0795  0.0005 </r>
        <r>  0.0521  0.0008  0.1309  0.0010 </r>
        <r>  0.0568  0.0012  0.0904  0.0006 </r>
       </set>
       <set comment="band 31">
        <r>  0.0001  0.0003  0.1611  0.0012 </r>
        <r>  0.0000  0.0009  0.1129  0.0005 </r>
        <r>  0.0001  0.0003  0.1606  0.0012 </r>
        <r>  0.0001  0.0003  0.1611  0.0012 </r>
        <r>  0.0000  0.0009  0.1129  0.0005 </r>
        <r>  0.0001  0.0003  0.1605  0.0012 </r>
       </set>
       <set comment="band 32">
        <r>  0.0003  0.0007  0.1145  0.0007 </r>
        <r>  0.0000  0.0001  0.1997  0.0012 </r>
        <r>  0.0003  0.0007  0.1154  0.0007 </r>
        <r>  0.0003  0.0007  0.1146  0.0007 </r>
        <r>  0.0000  0.0001  0.1998  0.0012 </r>
        <r>  0.0003  0.0007  0.1153  0.0007 </r>
       </set>
       <set comment="band 33">
        <r>  0.0084  0.0013  0.2058  0.0012 </r>
        <r>  0.0192  0.0006  0.0189  0.0004 </r>
        <r>  0.0086  0.0013  0.2041  0.0012 </r>
        <r>  0.0083  0.0013  0.2058  0.0012 </r>
        <r>  0.0192  0.0006  0.0189  0.0004 </r>
        <r>  0.0086  0.0013  0.2041  0.0012 </r>
       </set>
       <set comment="band 34">
        <r>  0.0854  0.0011  0.0585  0.0004 </r>
        <r>  0.0080  0.0012  0.1700  0.0013 </r>
        <r>  0.0867  0.0012  0.0588  0.0004 </r>
        <r>  0.0854  0.0011  0.0585  0.0004 </r>
        <r>  0.0080  0.0012  0.1700  0.0013 </r>
        <r>  0.0867  0.0012  0.0588  0.0004 </r>
       </set>
       <set comment="band 35">
        <r>  0.0209  0.0002  0.0897  0.0004 </r>
        <r>  0.1606  0.0015  0.0372  0.0007 </r>
        <r>  0.0199  0.0002  0.0918  0.0004 </r>
        <r>  0.0210  0.0002  0.0898  0.0004 </r>
        <r>  0.1606  0.0015  0.0372  0.0007 </r>
        <r>  0.0199  0.0002  0.0917  0.0004 </r>
       </set>
       <set comment="band 36">
        <r>  0.0707  0.0024  0.1489  0.0013 </r>
        <r>  0.0000  0.0002  0.0532  0.0000 </r>
        <r>  0.0705  0.0024  0.1461  0.0013 </r>
        <r>  0.0708  0.0024  0.1488  0.0013 </r>
        <r>  0.0000  0.0002  0.0532  0.0000 </r>
        <r>  0.0705  0.0024  0.1462  0.0013 </r>
       </set>
       <set comment="band 37">
        <r>  0.0174  0.0008  0.0785  0.0007 </r>
        <r>  0.0000  0.0012  0.2634  0.0010 </r>
        <r>  0.0170  0.0008  0.0800  0.0007 </r>
        <r>  0.0173  0.0008  0.0784  0.0007 </r>
        <r>  0.0000  0.0012  0.2634  0.0010 </r>
        <r>  0.0170  0.0008  0.0802  0.0007 </r>
       </set>
       <set comment="band 38">
        <r>  0.0044  0.0017  0.1207  0.0012 </r>
        <r>  0.0030  0.0016  0.1306  0.0011 </r>
        <r>  0.0044  0.0017  0.1209  0.0012 </r>
        <r>  0.0044  0.0017  0.1208  0.0012 </r>
        <r>  0.0030  0.0016  0.1305  0.0011 </r>
        <r>  0.0044  0.0017  0.1209  0.0012 </r>
       </set>
       <set comment="band 39">
        <r>  0.0001  0.0007  0.0904  0.0007 </r>
        <r>  0.0015  0.0022  0.2038  0.0015 </r>
        <r>  0.0001  0.0007  0.0935  0.0007 </r>
        <r>  0.0001  0.0007  0.0904  0.0007 </r>
        <r>  0.0015  0.0022  0.2038  0.0015 </r>
        <r>  0.0001  0.0007  0.0935  0.0007 </r>
       </set>
       <set comment="band 40">
        <r>  0.0005  0.0016  0.1543  0.0011 </r>
        <r>  0.0000  0.0004  0.0831  0.0009 </r>
        <r>  0.0005  0.0016  0.1513  0.0011 </r>
        <r>  0.0005  0.0016  0.1543  0.0011 </r>
        <r>  0.0000  0.0004  0.0831  0.0009 </r>
        <r>  0.0005  0.0016  0.1513  0.0011 </r>
       </set>
       <set comment="band 41">
        <r>  0.0452  0.0002  0.1020  0.0006 </r>
        <r>  0.0502  0.0003  0.0957  0.0007 </r>
        <r>  0.0453  0.0002  0.1020  0.0006 </r>
        <r>  0.0452  0.0002  0.1020  0.0006 </r>
        <r>  0.0502  0.0003  0.0957  0.0007 </r>
        <r>  0.0453  0.0002  0.1020  0.0006 </r>
       </set>
       <set comment="band 42">
        <r>  0.0000  0.0007  0.1662  0.0013 </r>
        <r>  0.0000  0.0002  0.0856  0.0007 </r>
        <r>  0.0000  0.0007  0.1657  0.0013 </r>
        <r>  0.0000  0.0007  0.1663  0.0013 </r>
        <r>  0.0000  0.0002  0.0856  0.0007 </r>
        <r>  0.0000  0.0007  0.1657  0.0013 </r>
       </set>
       <set comment="band 43">
        <r>  0.0004  0.0011  0.1612  0.0010 </r>
        <r>  0.0000  0.0005  0.0742  0.0003 </r>
        <r>  0.0004  0.0011  0.1613  0.0010 </r>
        <r>  0.0004  0.0011  0.1612  0.0010 </r>
        <r>  0.0000  0.0005  0.0742  0.0003 </r>
        <r>  0.0004  0.0011  0.1614  0.0010 </r>
       </set>
       <set comment="band 44">
        <r>  0.0008  0.0007  0.0884  0.0004 </r>
        <r>  0.0000  0.0017  0.2105  0.0011 </r>
        <r>  0.0008  0.0007  0.0890  0.0004 </r>
        <r>  0.0008  0.0007  0.0884  0.0004 </r>
        <r>  0.0000  0.0017  0.2105  0.0011 </r>
        <r>  0.0008  0.0007  0.0890  0.0004 </r>
       </set>
       <set comment="band 45">
        <r>  0.0007  0.0012  0.0605  0.0006 </r>
        <r>  0.0043  0.0010  0.2486  0.0006 </r>
        <r>  0.0008  0.0012  0.0629  0.0006 </r>
        <r>  0.0007  0.0012  0.0605  0.0006 </r>
        <r>  0.0043  0.0010  0.2486  0.0006 </r>
        <r>  0.0008  0.0012  0.0630  0.0006 </r>
       </set>
       <set comment="band 46">
        <r>  0.0054  0.0010  0.1762  0.0007 </r>
        <r>  0.0000  0.0019  0.0045  0.0005 </r>
        <r>  0.0054  0.0010  0.1739  0.0007 </r>
        <r>  0.0054  0.0010  0.1762  0.0007 </r>
        <r>  0.0000  0.0019  0.0045  0.0005 </r>
        <r>  0.0054  0.0010  0.1740  0.0007 </r>
       </set>
       <set comment="band 47">
        <r>  0.0023  0.0004  0.0668  0.0006 </r>
        <r>  0.0129  0.0046  0.2086  0.0005 </r>
        <r>  0.0023  0.0004  0.0680  0.0006 </r>
        <r>  0.0023  0.0004  0.0668  0.0006 </r>
        <r>  0.0129  0.0046  0.2086  0.0005 </r>
        <r>  0.0023  0.0004  0.0680  0.0006 </r>
       </set>
       <set comment="band 48">
        <r>  0.0206  0.0026  0.0239  0.0001 </r>
        <r>  0.0683  0.0062  0.0289  0.0001 </r>
        <r>  0.0214  0.0026  0.0245  0.0001 </r>
        <r>  0.0206  0.0026  0.0239  0.0001 </r>
        <r>  0.0683  0.0062  0.0289  0.0001 </r>
        <r>  0.0214  0.0026  0.0246  0.0001 </r>
       </set>
       <set comment="band 49">
        <r>  0.0038  0.0011  0.0425  0.0006 </r>
        <r>  0.0408  0.0031  0.1960  0.0006 </r>
        <r>  0.0038  0.0011  0.0470  0.0006 </r>
        <r>  0.0038  0.0011  0.0426  0.0006 </r>
        <r>  0.0408  0.0031  0.1960  0.0006 </r>
        <r>  0.0038  0.0011  0.0470  0.0006 </r>
       </set>
       <set comment="band 50">
        <r>  0.0004  0.0006  0.1957  0.0008 </r>
        <r>  0.0000  0.0000  0.0447  0.0009 </r>
        <r>  0.0005  0.0006  0.1904  0.0008 </r>
        <r>  0.0004  0.0006  0.1957  0.0008 </r>
        <r>  0.0000  0.0000  0.0447  0.0009 </r>
        <r>  0.0005  0.0006  0.1904  0.0008 </r>
       </set>
       <set comment="band 51">
        <r>  0.0453  0.0035  0.0325  0.0002 </r>
        <r>  0.0000  0.0035  0.0594  0.0004 </r>
        <r>  0.0445  0.0035  0.0319  0.0002 </r>
        <r>  0.0453  0.0035  0.0324  0.0002 </r>
        <r>  0.0000  0.0035  0.0594  0.0004 </r>
        <r>  0.0446  0.0035  0.0319  0.0002 </r>
       </set>
       <set comment="band 52">
        <r>  0.0267  0.0032  0.0733  0.0002 </r>
        <r>  0.0000  0.0007  0.0884  0.0009 </r>
        <r>  0.0287  0.0034  0.0827  0.0002 </r>
        <r>  0.0266  0.0032  0.0735  0.0002 </r>
        <r>  0.0000  0.0007  0.0884  0.0009 </r>
        <r>  0.0288  0.0034  0.0826  0.0002 </r>
       </set>
       <set comment="band 53">
        <r>  0.0036  0.0032  0.1294  0.0013 </r>
        <r>  0.0000  0.0011  0.0781  0.0009 </r>
        <r>  0.0038  0.0032  0.1289  0.0013 </r>
        <r>  0.0037  0.0032  0.1293  0.0013 </r>
        <r>  0.0000  0.0011  0.0781  0.0009 </r>
        <r>  0.0036  0.0033  0.1291  0.0013 </r>
       </set>
       <set comment="band 54">
        <r>  0.0149  0.0023  0.1662  0.0008 </r>
        <r>  0.0000  0.0005  0.0138  0.0003 </r>
        <r>  0.0129  0.0021  0.1568  0.0008 </r>
        <r>  0.0149  0.0023  0.1662  0.0008 </r>
        <r>  0.0000  0.0005  0.0138  0.0003 </r>
        <r>  0.0129  0.0021  0.1568  0.0008 </r>
       </set>
       <set comment="band 55">
        <r>  0.0000  0.0012  0.1469  0.0009 </r>
        <r>  0.0000  0.0016  0.1222  0.0008 </r>
        <r>  0.0000  0.0012  0.1465  0.0009 </r>
        <r>  0.0000  0.0012  0.1469  0.0009 </r>
        <r>  0.0000  0.0016  0.1222  0.0008 </r>
        <r>  0.0000  0.0012  0.1465  0.0009 </r>
       </set>
       <set comment="band 56">
        <r>  0.0001  0.0016  0.0802  0.0009 </r>
        <r>  0.0019  0.0046  0.2224  0.0026 </r>
        <r>  0.0001  0.0016  0.0831  0.0009 </r>
        <r>  0.0001  0.0016  0.0802  0.0009 </r>
        <r>  0.0019  0.0046  0.2224  0.0026 </r>
        <r>  0.0001  0.0016  0.0831  0.0009 </r>
       </set>
       <set comment="band 57">
        <r>  0.0008  0.0036  0.1820  0.0019 </r>
        <r>  0.0000  0.0004  0.0290  0.0006 </r>
        <r>  0.0008  0.0036  0.1787  0.0019 </r>
        <r>  0.0008  0.0036  0.1820  0.0019 </r>
        <r>  0.0000  0.0004  0.0290  0.0006 </r>
        <r>  0.0008  0.0036  0.1786  0.0019 </r>
       </set>
       <set comment="band 58">
        <r>  0.0001  0.0008  0.1536  0.0019 </r>
        <r>  0.0000  0.0005  0.1361  0.0016 </r>
        <r>  0.0001  0.0008  0.1535  0.0019 </r>
        <r>  0.0001  0.0008  0.1536  0.0019 </r>
        <r>  0.0000  0.0005  0.1361  0.0016 </r>
        <r>  0.0001  0.0008  0.1535  0.0019 </r>
       </set>
       <set comment="band 59">
        <r>  0.0006  0.0095  0.0032  0.0002 </r>
        <r>  0.0025  0.0106  0.0020  0.0001 </r>
        <r>  0.0006  0.0096  0.0031  0.0002 </r>
        <r>  0.0006  0.0096  0.0032  0.0002 </r>
        <r>  0.0025  0.0106  0.0020  0.0001 </r>
        <r>  0.0006  0.0096  0.0031  0.0002 </r>
       </set>
       <set comment="band 60">
        <r>  0.0077  0.0086  0.0041  0.0001 </r>
        <r>  0.0099  0.0089  0.0015  0.0001 </r>
        <r>  0.0076  0.0086  0.0041  0.0001 </r>
        <r>  0.0077  0.0086  0.0041  0.0001 </r>
        <r>  0.0099  0.0089  0.0015  0.0001 </r>
        <r>  0.0076  0.0086  0.0041  0.0001 </r>
       </set>
      </set>
     </set>
    </set>
   </array>
  </projected>
 </calculation>
 <structure name="finalpos" >
  <crystal>
   <varray name="basis" >
    <v>      17.00000000       0.00000000       0.00000000 </v>
    <v>       0.00000000      17.00000000       0.00000000 </v>
    <v>       0.00000000       0.00000000      17.00000000 </v>
   </varray>
   <i name="volume">   4913.00000000 </i>
   <varray name="rec_basis" >
    <v>       0.05882353       0.00000000       0.00000000 </v>
    <v>       0.00000000       0.05882353       0.00000000 </v>
    <v>       0.00000000       0.00000000       0.05882353 </v>
   </varray>
  </crystal>
  <varray name="positions" >
   <v>       0.93088698       0.96146775       0.93224389 </v>
   <v>       0.07029043       0.95938001       0.93288028 </v>
   <v>      -0.00118301       0.07914162       0.93223434 </v>
   <v>       0.93089237       0.96147451       0.06776725 </v>
   <v>       0.07029246       0.95938473       0.06711798 </v>
   <v>      -0.00117918       0.07915132       0.06775632 </v>
  </varray>
 </structure>
</modeling>
