CuRu                                    
           1
    17.000000    0.000000    0.000000
     0.000000   17.000000    0.000000
     0.000000    0.000000   17.000000
   Ru
   6
Direct configuration=     1
   0.93095888  0.95892606  0.93216512
   0.06813924  0.96069953  0.93243812
   0.00089441  0.08036712  0.93215229
   0.93096212  0.95893000  0.06784159
   0.06813941  0.96070365  0.06756818
   0.00090600  0.08037359  0.06783476
Direct configuration=     2
   0.93140608  0.95944707  0.93237931
   0.06839726  0.95995594  0.93245939
   0.00018966  0.08059184  0.93231203
   0.93140913  0.95944837  0.06762848
   0.06840024  0.95996038  0.06754721
   0.00019768  0.08059634  0.06767364
Direct configuration=     3
   0.93162495  0.95970206  0.93248414
   0.06852355  0.95959201  0.93246980
  -0.00015526  0.08070182  0.93239021
   0.93162791  0.95970207  0.06752417
   0.06852790  0.95959662  0.06753695
  -0.00014899  0.08070536  0.06759479
Direct configuration=     4
   0.93206269  0.96021204  0.93269380
   0.06877612  0.95886415  0.93249062
  -0.00084510  0.08092179  0.93254656
   0.93206547  0.96020948  0.06731557
   0.06878321  0.95886909  0.06751643
  -0.00084233  0.08092340  0.06743707
Direct configuration=     5
   0.93215735  0.96063576  0.93263623
   0.06906789  0.95859257  0.93256318
  -0.00123122  0.08076925  0.93255352
   0.93216073  0.96063350  0.06737300
   0.06907491  0.95859813  0.06744320
  -0.00122960  0.08077073  0.06743093
Direct configuration=     6
   0.93237095  0.96159190  0.93250633
   0.06972627  0.95797976  0.93272689
  -0.00210250  0.08042504  0.93256920
   0.93237568  0.96159031  0.06750260
   0.06973313  0.95798670  0.06727796
  -0.00210347  0.08042623  0.06741708
Direct configuration=     7
   0.93231370  0.96133563  0.93254115
   0.06954981  0.95814401  0.93268301
  -0.00186898  0.08051730  0.93256500
   0.93231807  0.96133387  0.06746786
   0.06955671  0.95815058  0.06732225
  -0.00186925  0.08051856  0.06742079
Direct configuration=     8
   0.93213803  0.96131650  0.93234957
   0.06962523  0.95829512  0.93274843
  -0.00176892  0.08038359  0.93252674
   0.93214393  0.96131614  0.06765881
   0.06963040  0.95830127  0.06725586
  -0.00176861  0.08038732  0.06746065
Direct configuration=     9
   0.93172941  0.96127200  0.93190395
   0.06980067  0.95864661  0.93290059
  -0.00153619  0.08007258  0.93243776
   0.93173888  0.96127493  0.06810297
   0.06980182  0.95865179  0.06710143
  -0.00153452  0.08008204  0.06755336
Direct configuration=    10
   0.93154665  0.96125209  0.93170464
   0.06987914  0.95880382  0.93296865
  -0.00143210  0.07993348  0.93239797
   0.93155771  0.96125649  0.06830162
   0.06987848  0.95880856  0.06703235
  -0.00142982  0.07994550  0.06759483
Direct configuration=    11
   0.93136193  0.96135823  0.93184281
   0.06998307  0.95903323  0.93297336
  -0.00135108  0.07959779  0.93237490
   0.93137109  0.96136349  0.06816418
   0.06998306  0.95903718  0.06702667
  -0.00134800  0.07961001  0.06761814
Direct configuration=    12
   0.93111942  0.96149758  0.93202420
   0.07011951  0.95933440  0.93297954
  -0.00124472  0.07915710  0.93234461
   0.93112610  0.96150397  0.06798375
   0.07012036  0.95933731  0.06701921
  -0.00124060  0.07916958  0.06764875
Direct configuration=    13
   0.93091441  0.96146652  0.93220443
   0.07028210  0.95936250  0.93288677
  -0.00120207  0.07916043  0.93225596
   0.93091925  0.96147297  0.06780601
   0.07028404  0.95936593  0.06711164
  -0.00119768  0.07917159  0.06773525
Direct configuration=    14
   0.93090213  0.96146466  0.93221523
   0.07029184  0.95936419  0.93288122
  -0.00119951  0.07916063  0.93225065
   0.93090686  0.96147112  0.06779537
   0.07029385  0.95936765  0.06711717
  -0.00119511  0.07917171  0.06774043
Direct configuration=    15
   0.93087756  0.96146093  0.93223682
   0.07031132  0.95936756  0.93287010
  -0.00119440  0.07916102  0.93224002
   0.93088208  0.96146740  0.06777407
   0.07031346  0.95937108  0.06712825
  -0.00118996  0.07917195  0.06775079
Direct configuration=    16
   0.93089440  0.96146348  0.93222202
   0.07029797  0.95936525  0.93287772
  -0.00119791  0.07916075  0.93224731
   0.93089907  0.96146995  0.06778867
   0.07030002  0.95936873  0.06712066
  -0.00119349  0.07917178  0.06774369
Direct configuration=    17
   0.93089754  0.96146396  0.93221926
   0.07029548  0.95936482  0.93287914
  -0.00119856  0.07916070  0.93224866
   0.93090223  0.96147042  0.06779139
   0.07029751  0.95936829  0.06711924
  -0.00119415  0.07917175  0.06774236
Direct configuration=    18
   0.93089705  0.96146389  0.93221970
   0.07029587  0.95936488  0.93287892
  -0.00119846  0.07916071  0.93224845
   0.93090173  0.96147035  0.06779096
   0.07029791  0.95936836  0.06711946
  -0.00119404  0.07917176  0.06774257
Direct configuration=    19
   0.93089572  0.96146368  0.93222086
   0.07029692  0.95936507  0.93287832
  -0.00119818  0.07916073  0.93224788
   0.93090040  0.96147015  0.06778981
   0.07029896  0.95936854  0.06712006
  -0.00119376  0.07917177  0.06774313
Direct configuration=    20
   0.93088698  0.96146775  0.93224389
   0.07029043  0.95938001  0.93288028
  -0.00118301  0.07914162  0.93223434
   0.93089237  0.96147451  0.06776725
   0.07029246  0.95938473  0.06711798
  -0.00117918  0.07915132  0.06775632
